FCC BaO
3.971
5.0 0.0 0.0
0.0 5.0 0.0
0.0 0.0 5.0
Ba O 
500 500 
Direct
-0.018848878988005427 -0.026233399679083044 -0.007705797616028283
0.029067732358154838 0.10231153866366999 0.12032877779145167
0.10704120089336529 -0.0035339309866137983 0.09152205580944661
0.10234409662464057 0.07548205945214348 0.00874001723064125
0.1811511210119946 -0.026233399679083044 -0.007705797616028283
0.22906773235815484 0.10231153866366999 0.12032877779145167
0.30704120089336534 -0.0035339309866137983 0.09152205580944661
0.30234409662464057 0.07548205945214348 0.00874001723064125
0.3811511210119946 -0.026233399679083044 -0.007705797616028283
0.4290677323581549 0.10231153866366999 0.12032877779145167
0.5070412008933654 -0.0035339309866137983 0.09152205580944661
0.5023440966246405 0.07548205945214348 0.00874001723064125
0.5811511210119946 -0.026233399679083044 -0.007705797616028283
0.6290677323581549 0.10231153866366999 0.12032877779145167
0.7070412008933653 -0.0035339309866137983 0.09152205580944661
0.7023440966246406 0.07548205945214348 0.00874001723064125
0.7811511210119946 -0.026233399679083044 -0.007705797616028283
0.8290677323581548 0.10231153866366999 0.12032877779145167
0.9070412008933654 -0.0035339309866137983 0.09152205580944661
0.9023440966246407 0.07548205945214348 0.00874001723064125
-0.018848878988005427 0.17376660032091695 -0.007705797616028283
0.029067732358154838 0.30231153866367 0.12032877779145167
0.10704120089336529 0.1964660690133862 0.09152205580944661
0.10234409662464057 0.2754820594521435 0.00874001723064125
0.1811511210119946 0.17376660032091695 -0.007705797616028283
0.22906773235815484 0.30231153866367 0.12032877779145167
0.30704120089336534 0.1964660690133862 0.09152205580944661
0.30234409662464057 0.2754820594521435 0.00874001723064125
0.3811511210119946 0.17376660032091695 -0.007705797616028283
0.4290677323581549 0.30231153866367 0.12032877779145167
0.5070412008933654 0.1964660690133862 0.09152205580944661
0.5023440966246405 0.2754820594521435 0.00874001723064125
0.5811511210119946 0.17376660032091695 -0.007705797616028283
0.6290677323581549 0.30231153866367 0.12032877779145167
0.7070412008933653 0.1964660690133862 0.09152205580944661
0.7023440966246406 0.2754820594521435 0.00874001723064125
0.7811511210119946 0.17376660032091695 -0.007705797616028283
0.8290677323581548 0.30231153866367 0.12032877779145167
0.9070412008933654 0.1964660690133862 0.09152205580944661
0.9023440966246407 0.2754820594521435 0.00874001723064125
-0.018848878988005427 0.373766600320917 -0.007705797616028283
0.029067732358154838 0.5023115386636701 0.12032877779145167
0.10704120089336529 0.3964660690133862 0.09152205580944661
0.10234409662464057 0.47548205945214356 0.00874001723064125
0.1811511210119946 0.373766600320917 -0.007705797616028283
0.22906773235815484 0.5023115386636701 0.12032877779145167
0.30704120089336534 0.3964660690133862 0.09152205580944661
0.30234409662464057 0.47548205945214356 0.00874001723064125
0.3811511210119946 0.373766600320917 -0.007705797616028283
0.4290677323581549 0.5023115386636701 0.12032877779145167
0.5070412008933654 0.3964660690133862 0.09152205580944661
0.5023440966246405 0.47548205945214356 0.00874001723064125
0.5811511210119946 0.373766600320917 -0.007705797616028283
0.6290677323581549 0.5023115386636701 0.12032877779145167
0.7070412008933653 0.3964660690133862 0.09152205580944661
0.7023440966246406 0.47548205945214356 0.00874001723064125
0.7811511210119946 0.373766600320917 -0.007705797616028283
0.8290677323581548 0.5023115386636701 0.12032877779145167
0.9070412008933654 0.3964660690133862 0.09152205580944661
0.9023440966246407 0.47548205945214356 0.00874001723064125
-0.018848878988005427 0.573766600320917 -0.007705797616028283
0.029067732358154838 0.70231153866367 0.12032877779145167
0.10704120089336529 0.5964660690133863 0.09152205580944661
0.10234409662464057 0.6754820594521436 0.00874001723064125
0.1811511210119946 0.573766600320917 -0.007705797616028283
0.22906773235815484 0.70231153866367 0.12032877779145167
0.30704120089336534 0.5964660690133863 0.09152205580944661
0.30234409662464057 0.6754820594521436 0.00874001723064125
0.3811511210119946 0.573766600320917 -0.007705797616028283
0.4290677323581549 0.70231153866367 0.12032877779145167
0.5070412008933654 0.5964660690133863 0.09152205580944661
0.5023440966246405 0.6754820594521436 0.00874001723064125
0.5811511210119946 0.573766600320917 -0.007705797616028283
0.6290677323581549 0.70231153866367 0.12032877779145167
0.7070412008933653 0.5964660690133863 0.09152205580944661
0.7023440966246406 0.6754820594521436 0.00874001723064125
0.7811511210119946 0.573766600320917 -0.007705797616028283
0.8290677323581548 0.70231153866367 0.12032877779145167
0.9070412008933654 0.5964660690133863 0.09152205580944661
0.9023440966246407 0.6754820594521436 0.00874001723064125
-0.018848878988005427 0.773766600320917 -0.007705797616028283
0.029067732358154838 0.9023115386636701 0.12032877779145167
0.10704120089336529 0.7964660690133862 0.09152205580944661
0.10234409662464057 0.8754820594521435 0.00874001723064125
0.1811511210119946 0.773766600320917 -0.007705797616028283
0.22906773235815484 0.9023115386636701 0.12032877779145167
0.30704120089336534 0.7964660690133862 0.09152205580944661
0.30234409662464057 0.8754820594521435 0.00874001723064125
0.3811511210119946 0.773766600320917 -0.007705797616028283
0.4290677323581549 0.9023115386636701 0.12032877779145167
0.5070412008933654 0.7964660690133862 0.09152205580944661
0.5023440966246405 0.8754820594521435 0.00874001723064125
0.5811511210119946 0.773766600320917 -0.007705797616028283
0.6290677323581549 0.9023115386636701 0.12032877779145167
0.7070412008933653 0.7964660690133862 0.09152205580944661
0.7023440966246406 0.8754820594521435 0.00874001723064125
0.7811511210119946 0.773766600320917 -0.007705797616028283
0.8290677323581548 0.9023115386636701 0.12032877779145167
0.9070412008933654 0.7964660690133862 0.09152205580944661
0.9023440966246407 0.8754820594521435 0.00874001723064125
-0.018848878988005427 -0.026233399679083044 0.19229420238397174
0.029067732358154838 0.10231153866366999 0.32032877779145164
0.10704120089336529 -0.0035339309866137983 0.2915220558094466
0.10234409662464057 0.07548205945214348 0.20874001723064126
0.1811511210119946 -0.026233399679083044 0.19229420238397174
0.22906773235815484 0.10231153866366999 0.32032877779145164
0.30704120089336534 -0.0035339309866137983 0.2915220558094466
0.30234409662464057 0.07548205945214348 0.20874001723064126
0.3811511210119946 -0.026233399679083044 0.19229420238397174
0.4290677323581549 0.10231153866366999 0.32032877779145164
0.5070412008933654 -0.0035339309866137983 0.2915220558094466
0.5023440966246405 0.07548205945214348 0.20874001723064126
0.5811511210119946 -0.026233399679083044 0.19229420238397174
0.6290677323581549 0.10231153866366999 0.32032877779145164
0.7070412008933653 -0.0035339309866137983 0.2915220558094466
0.7023440966246406 0.07548205945214348 0.20874001723064126
0.7811511210119946 -0.026233399679083044 0.19229420238397174
0.8290677323581548 0.10231153866366999 0.32032877779145164
0.9070412008933654 -0.0035339309866137983 0.2915220558094466
0.9023440966246407 0.07548205945214348 0.20874001723064126
-0.018848878988005427 0.17376660032091695 0.19229420238397174
0.029067732358154838 0.30231153866367 0.32032877779145164
0.10704120089336529 0.1964660690133862 0.2915220558094466
0.10234409662464057 0.2754820594521435 0.20874001723064126
0.1811511210119946 0.17376660032091695 0.19229420238397174
0.22906773235815484 0.30231153866367 0.32032877779145164
0.30704120089336534 0.1964660690133862 0.2915220558094466
0.30234409662464057 0.2754820594521435 0.20874001723064126
0.3811511210119946 0.17376660032091695 0.19229420238397174
0.4290677323581549 0.30231153866367 0.32032877779145164
0.5070412008933654 0.1964660690133862 0.2915220558094466
0.5023440966246405 0.2754820594521435 0.20874001723064126
0.5811511210119946 0.17376660032091695 0.19229420238397174
0.6290677323581549 0.30231153866367 0.32032877779145164
0.7070412008933653 0.1964660690133862 0.2915220558094466
0.7023440966246406 0.2754820594521435 0.20874001723064126
0.7811511210119946 0.17376660032091695 0.19229420238397174
0.8290677323581548 0.30231153866367 0.32032877779145164
0.9070412008933654 0.1964660690133862 0.2915220558094466
0.9023440966246407 0.2754820594521435 0.20874001723064126
-0.018848878988005427 0.373766600320917 0.19229420238397174
0.029067732358154838 0.5023115386636701 0.32032877779145164
0.10704120089336529 0.3964660690133862 0.2915220558094466
0.10234409662464057 0.47548205945214356 0.20874001723064126
0.1811511210119946 0.373766600320917 0.19229420238397174
0.22906773235815484 0.5023115386636701 0.32032877779145164
0.30704120089336534 0.3964660690133862 0.2915220558094466
0.30234409662464057 0.47548205945214356 0.20874001723064126
0.3811511210119946 0.373766600320917 0.19229420238397174
0.4290677323581549 0.5023115386636701 0.32032877779145164
0.5070412008933654 0.3964660690133862 0.2915220558094466
0.5023440966246405 0.47548205945214356 0.20874001723064126
0.5811511210119946 0.373766600320917 0.19229420238397174
0.6290677323581549 0.5023115386636701 0.32032877779145164
0.7070412008933653 0.3964660690133862 0.2915220558094466
0.7023440966246406 0.47548205945214356 0.20874001723064126
0.7811511210119946 0.373766600320917 0.19229420238397174
0.8290677323581548 0.5023115386636701 0.32032877779145164
0.9070412008933654 0.3964660690133862 0.2915220558094466
0.9023440966246407 0.47548205945214356 0.20874001723064126
-0.018848878988005427 0.573766600320917 0.19229420238397174
0.029067732358154838 0.70231153866367 0.32032877779145164
0.10704120089336529 0.5964660690133863 0.2915220558094466
0.10234409662464057 0.6754820594521436 0.20874001723064126
0.1811511210119946 0.573766600320917 0.19229420238397174
0.22906773235815484 0.70231153866367 0.32032877779145164
0.30704120089336534 0.5964660690133863 0.2915220558094466
0.30234409662464057 0.6754820594521436 0.20874001723064126
0.3811511210119946 0.573766600320917 0.19229420238397174
0.4290677323581549 0.70231153866367 0.32032877779145164
0.5070412008933654 0.5964660690133863 0.2915220558094466
0.5023440966246405 0.6754820594521436 0.20874001723064126
0.5811511210119946 0.573766600320917 0.19229420238397174
0.6290677323581549 0.70231153866367 0.32032877779145164
0.7070412008933653 0.5964660690133863 0.2915220558094466
0.7023440966246406 0.6754820594521436 0.20874001723064126
0.7811511210119946 0.573766600320917 0.19229420238397174
0.8290677323581548 0.70231153866367 0.32032877779145164
0.9070412008933654 0.5964660690133863 0.2915220558094466
0.9023440966246407 0.6754820594521436 0.20874001723064126
-0.018848878988005427 0.773766600320917 0.19229420238397174
0.029067732358154838 0.9023115386636701 0.32032877779145164
0.10704120089336529 0.7964660690133862 0.2915220558094466
0.10234409662464057 0.8754820594521435 0.20874001723064126
0.1811511210119946 0.773766600320917 0.19229420238397174
0.22906773235815484 0.9023115386636701 0.32032877779145164
0.30704120089336534 0.7964660690133862 0.2915220558094466
0.30234409662464057 0.8754820594521435 0.20874001723064126
0.3811511210119946 0.773766600320917 0.19229420238397174
0.4290677323581549 0.9023115386636701 0.32032877779145164
0.5070412008933654 0.7964660690133862 0.2915220558094466
0.5023440966246405 0.8754820594521435 0.20874001723064126
0.5811511210119946 0.773766600320917 0.19229420238397174
0.6290677323581549 0.9023115386636701 0.32032877779145164
0.7070412008933653 0.7964660690133862 0.2915220558094466
0.7023440966246406 0.8754820594521435 0.20874001723064126
0.7811511210119946 0.773766600320917 0.19229420238397174
0.8290677323581548 0.9023115386636701 0.32032877779145164
0.9070412008933654 0.7964660690133862 0.2915220558094466
0.9023440966246407 0.8754820594521435 0.20874001723064126
-0.018848878988005427 -0.026233399679083044 0.3922942023839717
0.029067732358154838 0.10231153866366999 0.5203287777914517
0.10704120089336529 -0.0035339309866137983 0.49152205580944663
0.10234409662464057 0.07548205945214348 0.40874001723064124
0.1811511210119946 -0.026233399679083044 0.3922942023839717
0.22906773235815484 0.10231153866366999 0.5203287777914517
0.30704120089336534 -0.0035339309866137983 0.49152205580944663
0.30234409662464057 0.07548205945214348 0.40874001723064124
0.3811511210119946 -0.026233399679083044 0.3922942023839717
0.4290677323581549 0.10231153866366999 0.5203287777914517
0.5070412008933654 -0.0035339309866137983 0.49152205580944663
0.5023440966246405 0.07548205945214348 0.40874001723064124
0.5811511210119946 -0.026233399679083044 0.3922942023839717
0.6290677323581549 0.10231153866366999 0.5203287777914517
0.7070412008933653 -0.0035339309866137983 0.49152205580944663
0.7023440966246406 0.07548205945214348 0.40874001723064124
0.7811511210119946 -0.026233399679083044 0.3922942023839717
0.8290677323581548 0.10231153866366999 0.5203287777914517
0.9070412008933654 -0.0035339309866137983 0.49152205580944663
0.9023440966246407 0.07548205945214348 0.40874001723064124
-0.018848878988005427 0.17376660032091695 0.3922942023839717
0.029067732358154838 0.30231153866367 0.5203287777914517
0.10704120089336529 0.1964660690133862 0.49152205580944663
0.10234409662464057 0.2754820594521435 0.40874001723064124
0.1811511210119946 0.17376660032091695 0.3922942023839717
0.22906773235815484 0.30231153866367 0.5203287777914517
0.30704120089336534 0.1964660690133862 0.49152205580944663
0.30234409662464057 0.2754820594521435 0.40874001723064124
0.3811511210119946 0.17376660032091695 0.3922942023839717
0.4290677323581549 0.30231153866367 0.5203287777914517
0.5070412008933654 0.1964660690133862 0.49152205580944663
0.5023440966246405 0.2754820594521435 0.40874001723064124
0.5811511210119946 0.17376660032091695 0.3922942023839717
0.6290677323581549 0.30231153866367 0.5203287777914517
0.7070412008933653 0.1964660690133862 0.49152205580944663
0.7023440966246406 0.2754820594521435 0.40874001723064124
0.7811511210119946 0.17376660032091695 0.3922942023839717
0.8290677323581548 0.30231153866367 0.5203287777914517
0.9070412008933654 0.1964660690133862 0.49152205580944663
0.9023440966246407 0.2754820594521435 0.40874001723064124
-0.018848878988005427 0.373766600320917 0.3922942023839717
0.029067732358154838 0.5023115386636701 0.5203287777914517
0.10704120089336529 0.3964660690133862 0.49152205580944663
0.10234409662464057 0.47548205945214356 0.40874001723064124
0.1811511210119946 0.373766600320917 0.3922942023839717
0.22906773235815484 0.5023115386636701 0.5203287777914517
0.30704120089336534 0.3964660690133862 0.49152205580944663
0.30234409662464057 0.47548205945214356 0.40874001723064124
0.3811511210119946 0.373766600320917 0.3922942023839717
0.4290677323581549 0.5023115386636701 0.5203287777914517
0.5070412008933654 0.3964660690133862 0.49152205580944663
0.5023440966246405 0.47548205945214356 0.40874001723064124
0.5811511210119946 0.373766600320917 0.3922942023839717
0.6290677323581549 0.5023115386636701 0.5203287777914517
0.7070412008933653 0.3964660690133862 0.49152205580944663
0.7023440966246406 0.47548205945214356 0.40874001723064124
0.7811511210119946 0.373766600320917 0.3922942023839717
0.8290677323581548 0.5023115386636701 0.5203287777914517
0.9070412008933654 0.3964660690133862 0.49152205580944663
0.9023440966246407 0.47548205945214356 0.40874001723064124
-0.018848878988005427 0.573766600320917 0.3922942023839717
0.029067732358154838 0.70231153866367 0.5203287777914517
0.10704120089336529 0.5964660690133863 0.49152205580944663
0.10234409662464057 0.6754820594521436 0.40874001723064124
0.1811511210119946 0.573766600320917 0.3922942023839717
0.22906773235815484 0.70231153866367 0.5203287777914517
0.30704120089336534 0.5964660690133863 0.49152205580944663
0.30234409662464057 0.6754820594521436 0.40874001723064124
0.3811511210119946 0.573766600320917 0.3922942023839717
0.4290677323581549 0.70231153866367 0.5203287777914517
0.5070412008933654 0.5964660690133863 0.49152205580944663
0.5023440966246405 0.6754820594521436 0.40874001723064124
0.5811511210119946 0.573766600320917 0.3922942023839717
0.6290677323581549 0.70231153866367 0.5203287777914517
0.7070412008933653 0.5964660690133863 0.49152205580944663
0.7023440966246406 0.6754820594521436 0.40874001723064124
0.7811511210119946 0.573766600320917 0.3922942023839717
0.8290677323581548 0.70231153866367 0.5203287777914517
0.9070412008933654 0.5964660690133863 0.49152205580944663
0.9023440966246407 0.6754820594521436 0.40874001723064124
-0.018848878988005427 0.773766600320917 0.3922942023839717
0.029067732358154838 0.9023115386636701 0.5203287777914517
0.10704120089336529 0.7964660690133862 0.49152205580944663
0.10234409662464057 0.8754820594521435 0.40874001723064124
0.1811511210119946 0.773766600320917 0.3922942023839717
0.22906773235815484 0.9023115386636701 0.5203287777914517
0.30704120089336534 0.7964660690133862 0.49152205580944663
0.30234409662464057 0.8754820594521435 0.40874001723064124
0.3811511210119946 0.773766600320917 0.3922942023839717
0.4290677323581549 0.9023115386636701 0.5203287777914517
0.5070412008933654 0.7964660690133862 0.49152205580944663
0.5023440966246405 0.8754820594521435 0.40874001723064124
0.5811511210119946 0.773766600320917 0.3922942023839717
0.6290677323581549 0.9023115386636701 0.5203287777914517
0.7070412008933653 0.7964660690133862 0.49152205580944663
0.7023440966246406 0.8754820594521435 0.40874001723064124
0.7811511210119946 0.773766600320917 0.3922942023839717
0.8290677323581548 0.9023115386636701 0.5203287777914517
0.9070412008933654 0.7964660690133862 0.49152205580944663
0.9023440966246407 0.8754820594521435 0.40874001723064124
-0.018848878988005427 -0.026233399679083044 0.5922942023839717
0.029067732358154838 0.10231153866366999 0.7203287777914517
0.10704120089336529 -0.0035339309866137983 0.6915220558094467
0.10234409662464057 0.07548205945214348 0.6087400172306413
0.1811511210119946 -0.026233399679083044 0.5922942023839717
0.22906773235815484 0.10231153866366999 0.7203287777914517
0.30704120089336534 -0.0035339309866137983 0.6915220558094467
0.30234409662464057 0.07548205945214348 0.6087400172306413
0.3811511210119946 -0.026233399679083044 0.5922942023839717
0.4290677323581549 0.10231153866366999 0.7203287777914517
0.5070412008933654 -0.0035339309866137983 0.6915220558094467
0.5023440966246405 0.07548205945214348 0.6087400172306413
0.5811511210119946 -0.026233399679083044 0.5922942023839717
0.6290677323581549 0.10231153866366999 0.7203287777914517
0.7070412008933653 -0.0035339309866137983 0.6915220558094467
0.7023440966246406 0.07548205945214348 0.6087400172306413
0.7811511210119946 -0.026233399679083044 0.5922942023839717
0.8290677323581548 0.10231153866366999 0.7203287777914517
0.9070412008933654 -0.0035339309866137983 0.6915220558094467
0.9023440966246407 0.07548205945214348 0.6087400172306413
-0.018848878988005427 0.17376660032091695 0.5922942023839717
0.029067732358154838 0.30231153866367 0.7203287777914517
0.10704120089336529 0.1964660690133862 0.6915220558094467
0.10234409662464057 0.2754820594521435 0.6087400172306413
0.1811511210119946 0.17376660032091695 0.5922942023839717
0.22906773235815484 0.30231153866367 0.7203287777914517
0.30704120089336534 0.1964660690133862 0.6915220558094467
0.30234409662464057 0.2754820594521435 0.6087400172306413
0.3811511210119946 0.17376660032091695 0.5922942023839717
0.4290677323581549 0.30231153866367 0.7203287777914517
0.5070412008933654 0.1964660690133862 0.6915220558094467
0.5023440966246405 0.2754820594521435 0.6087400172306413
0.5811511210119946 0.17376660032091695 0.5922942023839717
0.6290677323581549 0.30231153866367 0.7203287777914517
0.7070412008933653 0.1964660690133862 0.6915220558094467
0.7023440966246406 0.2754820594521435 0.6087400172306413
0.7811511210119946 0.17376660032091695 0.5922942023839717
0.8290677323581548 0.30231153866367 0.7203287777914517
0.9070412008933654 0.1964660690133862 0.6915220558094467
0.9023440966246407 0.2754820594521435 0.6087400172306413
-0.018848878988005427 0.373766600320917 0.5922942023839717
0.029067732358154838 0.5023115386636701 0.7203287777914517
0.10704120089336529 0.3964660690133862 0.6915220558094467
0.10234409662464057 0.47548205945214356 0.6087400172306413
0.1811511210119946 0.373766600320917 0.5922942023839717
0.22906773235815484 0.5023115386636701 0.7203287777914517
0.30704120089336534 0.3964660690133862 0.6915220558094467
0.30234409662464057 0.47548205945214356 0.6087400172306413
0.3811511210119946 0.373766600320917 0.5922942023839717
0.4290677323581549 0.5023115386636701 0.7203287777914517
0.5070412008933654 0.3964660690133862 0.6915220558094467
0.5023440966246405 0.47548205945214356 0.6087400172306413
0.5811511210119946 0.373766600320917 0.5922942023839717
0.6290677323581549 0.5023115386636701 0.7203287777914517
0.7070412008933653 0.3964660690133862 0.6915220558094467
0.7023440966246406 0.47548205945214356 0.6087400172306413
0.7811511210119946 0.373766600320917 0.5922942023839717
0.8290677323581548 0.5023115386636701 0.7203287777914517
0.9070412008933654 0.3964660690133862 0.6915220558094467
0.9023440966246407 0.47548205945214356 0.6087400172306413
-0.018848878988005427 0.573766600320917 0.5922942023839717
0.029067732358154838 0.70231153866367 0.7203287777914517
0.10704120089336529 0.5964660690133863 0.6915220558094467
0.10234409662464057 0.6754820594521436 0.6087400172306413
0.1811511210119946 0.573766600320917 0.5922942023839717
0.22906773235815484 0.70231153866367 0.7203287777914517
0.30704120089336534 0.5964660690133863 0.6915220558094467
0.30234409662464057 0.6754820594521436 0.6087400172306413
0.3811511210119946 0.573766600320917 0.5922942023839717
0.4290677323581549 0.70231153866367 0.7203287777914517
0.5070412008933654 0.5964660690133863 0.6915220558094467
0.5023440966246405 0.6754820594521436 0.6087400172306413
0.5811511210119946 0.573766600320917 0.5922942023839717
0.6290677323581549 0.70231153866367 0.7203287777914517
0.7070412008933653 0.5964660690133863 0.6915220558094467
0.7023440966246406 0.6754820594521436 0.6087400172306413
0.7811511210119946 0.573766600320917 0.5922942023839717
0.8290677323581548 0.70231153866367 0.7203287777914517
0.9070412008933654 0.5964660690133863 0.6915220558094467
0.9023440966246407 0.6754820594521436 0.6087400172306413
-0.018848878988005427 0.773766600320917 0.5922942023839717
0.029067732358154838 0.9023115386636701 0.7203287777914517
0.10704120089336529 0.7964660690133862 0.6915220558094467
0.10234409662464057 0.8754820594521435 0.6087400172306413
0.1811511210119946 0.773766600320917 0.5922942023839717
0.22906773235815484 0.9023115386636701 0.7203287777914517
0.30704120089336534 0.7964660690133862 0.6915220558094467
0.30234409662464057 0.8754820594521435 0.6087400172306413
0.3811511210119946 0.773766600320917 0.5922942023839717
0.4290677323581549 0.9023115386636701 0.7203287777914517
0.5070412008933654 0.7964660690133862 0.6915220558094467
0.5023440966246405 0.8754820594521435 0.6087400172306413
0.5811511210119946 0.773766600320917 0.5922942023839717
0.6290677323581549 0.9023115386636701 0.7203287777914517
0.7070412008933653 0.7964660690133862 0.6915220558094467
0.7023440966246406 0.8754820594521435 0.6087400172306413
0.7811511210119946 0.773766600320917 0.5922942023839717
0.8290677323581548 0.9023115386636701 0.7203287777914517
0.9070412008933654 0.7964660690133862 0.6915220558094467
0.9023440966246407 0.8754820594521435 0.6087400172306413
-0.018848878988005427 -0.026233399679083044 0.7922942023839717
0.029067732358154838 0.10231153866366999 0.9203287777914517
0.10704120089336529 -0.0035339309866137983 0.8915220558094467
0.10234409662464057 0.07548205945214348 0.8087400172306414
0.1811511210119946 -0.026233399679083044 0.7922942023839717
0.22906773235815484 0.10231153866366999 0.9203287777914517
0.30704120089336534 -0.0035339309866137983 0.8915220558094467
0.30234409662464057 0.07548205945214348 0.8087400172306414
0.3811511210119946 -0.026233399679083044 0.7922942023839717
0.4290677323581549 0.10231153866366999 0.9203287777914517
0.5070412008933654 -0.0035339309866137983 0.8915220558094467
0.5023440966246405 0.07548205945214348 0.8087400172306414
0.5811511210119946 -0.026233399679083044 0.7922942023839717
0.6290677323581549 0.10231153866366999 0.9203287777914517
0.7070412008933653 -0.0035339309866137983 0.8915220558094467
0.7023440966246406 0.07548205945214348 0.8087400172306414
0.7811511210119946 -0.026233399679083044 0.7922942023839717
0.8290677323581548 0.10231153866366999 0.9203287777914517
0.9070412008933654 -0.0035339309866137983 0.8915220558094467
0.9023440966246407 0.07548205945214348 0.8087400172306414
-0.018848878988005427 0.17376660032091695 0.7922942023839717
0.029067732358154838 0.30231153866367 0.9203287777914517
0.10704120089336529 0.1964660690133862 0.8915220558094467
0.10234409662464057 0.2754820594521435 0.8087400172306414
0.1811511210119946 0.17376660032091695 0.7922942023839717
0.22906773235815484 0.30231153866367 0.9203287777914517
0.30704120089336534 0.1964660690133862 0.8915220558094467
0.30234409662464057 0.2754820594521435 0.8087400172306414
0.3811511210119946 0.17376660032091695 0.7922942023839717
0.4290677323581549 0.30231153866367 0.9203287777914517
0.5070412008933654 0.1964660690133862 0.8915220558094467
0.5023440966246405 0.2754820594521435 0.8087400172306414
0.5811511210119946 0.17376660032091695 0.7922942023839717
0.6290677323581549 0.30231153866367 0.9203287777914517
0.7070412008933653 0.1964660690133862 0.8915220558094467
0.7023440966246406 0.2754820594521435 0.8087400172306414
0.7811511210119946 0.17376660032091695 0.7922942023839717
0.8290677323581548 0.30231153866367 0.9203287777914517
0.9070412008933654 0.1964660690133862 0.8915220558094467
0.9023440966246407 0.2754820594521435 0.8087400172306414
-0.018848878988005427 0.373766600320917 0.7922942023839717
0.029067732358154838 0.5023115386636701 0.9203287777914517
0.10704120089336529 0.3964660690133862 0.8915220558094467
0.10234409662464057 0.47548205945214356 0.8087400172306414
0.1811511210119946 0.373766600320917 0.7922942023839717
0.22906773235815484 0.5023115386636701 0.9203287777914517
0.30704120089336534 0.3964660690133862 0.8915220558094467
0.30234409662464057 0.47548205945214356 0.8087400172306414
0.3811511210119946 0.373766600320917 0.7922942023839717
0.4290677323581549 0.5023115386636701 0.9203287777914517
0.5070412008933654 0.3964660690133862 0.8915220558094467
0.5023440966246405 0.47548205945214356 0.8087400172306414
0.5811511210119946 0.373766600320917 0.7922942023839717
0.6290677323581549 0.5023115386636701 0.9203287777914517
0.7070412008933653 0.3964660690133862 0.8915220558094467
0.7023440966246406 0.47548205945214356 0.8087400172306414
0.7811511210119946 0.373766600320917 0.7922942023839717
0.8290677323581548 0.5023115386636701 0.9203287777914517
0.9070412008933654 0.3964660690133862 0.8915220558094467
0.9023440966246407 0.47548205945214356 0.8087400172306414
-0.018848878988005427 0.573766600320917 0.7922942023839717
0.029067732358154838 0.70231153866367 0.9203287777914517
0.10704120089336529 0.5964660690133863 0.8915220558094467
0.10234409662464057 0.6754820594521436 0.8087400172306414
0.1811511210119946 0.573766600320917 0.7922942023839717
0.22906773235815484 0.70231153866367 0.9203287777914517
0.30704120089336534 0.5964660690133863 0.8915220558094467
0.30234409662464057 0.6754820594521436 0.8087400172306414
0.3811511210119946 0.573766600320917 0.7922942023839717
0.4290677323581549 0.70231153866367 0.9203287777914517
0.5070412008933654 0.5964660690133863 0.8915220558094467
0.5023440966246405 0.6754820594521436 0.8087400172306414
0.5811511210119946 0.573766600320917 0.7922942023839717
0.6290677323581549 0.70231153866367 0.9203287777914517
0.7070412008933653 0.5964660690133863 0.8915220558094467
0.7023440966246406 0.6754820594521436 0.8087400172306414
0.7811511210119946 0.573766600320917 0.7922942023839717
0.8290677323581548 0.70231153866367 0.9203287777914517
0.9070412008933654 0.5964660690133863 0.8915220558094467
0.9023440966246407 0.6754820594521436 0.8087400172306414
-0.018848878988005427 0.773766600320917 0.7922942023839717
0.029067732358154838 0.9023115386636701 0.9203287777914517
0.10704120089336529 0.7964660690133862 0.8915220558094467
0.10234409662464057 0.8754820594521435 0.8087400172306414
0.1811511210119946 0.773766600320917 0.7922942023839717
0.22906773235815484 0.9023115386636701 0.9203287777914517
0.30704120089336534 0.7964660690133862 0.8915220558094467
0.30234409662464057 0.8754820594521435 0.8087400172306414
0.3811511210119946 0.773766600320917 0.7922942023839717
0.4290677323581549 0.9023115386636701 0.9203287777914517
0.5070412008933654 0.7964660690133862 0.8915220558094467
0.5023440966246405 0.8754820594521435 0.8087400172306414
0.5811511210119946 0.773766600320917 0.7922942023839717
0.6290677323581549 0.9023115386636701 0.9203287777914517
0.7070412008933653 0.7964660690133862 0.8915220558094467
0.7023440966246406 0.8754820594521435 0.8087400172306414
0.7811511210119946 0.773766600320917 0.7922942023839717
0.8290677323581548 0.9023115386636701 0.9203287777914517
0.9070412008933654 0.7964660690133862 0.8915220558094467
0.9023440966246407 0.8754820594521435 0.8087400172306414
0.1179865512622854 -0.009478150640200522 -0.01124786997077942
-0.010789753899196576 0.12475256088664502 -0.016859360365052523
0.004725505389496288 0.012202328806431623 0.11571892818260483
0.11150155800255333 0.10629343527542046 0.09375740583962835
0.3179865512622854 -0.009478150640200522 -0.01124786997077942
0.18921024610080345 0.12475256088664502 -0.016859360365052523
0.2047255053894963 0.012202328806431623 0.11571892818260483
0.3115015580025533 0.10629343527542046 0.09375740583962835
0.5179865512622854 -0.009478150640200522 -0.01124786997077942
0.38921024610080346 0.12475256088664502 -0.016859360365052523
0.4047255053894963 0.012202328806431623 0.11571892818260483
0.5115015580025534 0.10629343527542046 0.09375740583962835
0.7179865512622854 -0.009478150640200522 -0.01124786997077942
0.5892102461008034 0.12475256088664502 -0.016859360365052523
0.6047255053894963 0.012202328806431623 0.11571892818260483
0.7115015580025533 0.10629343527542046 0.09375740583962835
0.9179865512622855 -0.009478150640200522 -0.01124786997077942
0.7892102461008035 0.12475256088664502 -0.016859360365052523
0.8047255053894964 0.012202328806431623 0.11571892818260483
0.9115015580025534 0.10629343527542046 0.09375740583962835
0.1179865512622854 0.1905218493597995 -0.01124786997077942
-0.010789753899196576 0.32475256088664506 -0.016859360365052523
0.004725505389496288 0.21220232880643164 0.11571892818260483
0.11150155800255333 0.3062934352754205 0.09375740583962835
0.3179865512622854 0.1905218493597995 -0.01124786997077942
0.18921024610080345 0.32475256088664506 -0.016859360365052523
0.2047255053894963 0.21220232880643164 0.11571892818260483
0.3115015580025533 0.3062934352754205 0.09375740583962835
0.5179865512622854 0.1905218493597995 -0.01124786997077942
0.38921024610080346 0.32475256088664506 -0.016859360365052523
0.4047255053894963 0.21220232880643164 0.11571892818260483
0.5115015580025534 0.3062934352754205 0.09375740583962835
0.7179865512622854 0.1905218493597995 -0.01124786997077942
0.5892102461008034 0.32475256088664506 -0.016859360365052523
0.6047255053894963 0.21220232880643164 0.11571892818260483
0.7115015580025533 0.3062934352754205 0.09375740583962835
0.9179865512622855 0.1905218493597995 -0.01124786997077942
0.7892102461008035 0.32475256088664506 -0.016859360365052523
0.8047255053894964 0.21220232880643164 0.11571892818260483
0.9115015580025534 0.3062934352754205 0.09375740583962835
0.1179865512622854 0.3905218493597995 -0.01124786997077942
-0.010789753899196576 0.524752560886645 -0.016859360365052523
0.004725505389496288 0.4122023288064316 0.11571892818260483
0.11150155800255333 0.5062934352754205 0.09375740583962835
0.3179865512622854 0.3905218493597995 -0.01124786997077942
0.18921024610080345 0.524752560886645 -0.016859360365052523
0.2047255053894963 0.4122023288064316 0.11571892818260483
0.3115015580025533 0.5062934352754205 0.09375740583962835
0.5179865512622854 0.3905218493597995 -0.01124786997077942
0.38921024610080346 0.524752560886645 -0.016859360365052523
0.4047255053894963 0.4122023288064316 0.11571892818260483
0.5115015580025534 0.5062934352754205 0.09375740583962835
0.7179865512622854 0.3905218493597995 -0.01124786997077942
0.5892102461008034 0.524752560886645 -0.016859360365052523
0.6047255053894963 0.4122023288064316 0.11571892818260483
0.7115015580025533 0.5062934352754205 0.09375740583962835
0.9179865512622855 0.3905218493597995 -0.01124786997077942
0.7892102461008035 0.524752560886645 -0.016859360365052523
0.8047255053894964 0.4122023288064316 0.11571892818260483
0.9115015580025534 0.5062934352754205 0.09375740583962835
0.1179865512622854 0.5905218493597996 -0.01124786997077942
-0.010789753899196576 0.7247525608866451 -0.016859360365052523
0.004725505389496288 0.6122023288064317 0.11571892818260483
0.11150155800255333 0.7062934352754205 0.09375740583962835
0.3179865512622854 0.5905218493597996 -0.01124786997077942
0.18921024610080345 0.7247525608866451 -0.016859360365052523
0.2047255053894963 0.6122023288064317 0.11571892818260483
0.3115015580025533 0.7062934352754205 0.09375740583962835
0.5179865512622854 0.5905218493597996 -0.01124786997077942
0.38921024610080346 0.7247525608866451 -0.016859360365052523
0.4047255053894963 0.6122023288064317 0.11571892818260483
0.5115015580025534 0.7062934352754205 0.09375740583962835
0.7179865512622854 0.5905218493597996 -0.01124786997077942
0.5892102461008034 0.7247525608866451 -0.016859360365052523
0.6047255053894963 0.6122023288064317 0.11571892818260483
0.7115015580025533 0.7062934352754205 0.09375740583962835
0.9179865512622855 0.5905218493597996 -0.01124786997077942
0.7892102461008035 0.7247525608866451 -0.016859360365052523
0.8047255053894964 0.6122023288064317 0.11571892818260483
0.9115015580025534 0.7062934352754205 0.09375740583962835
0.1179865512622854 0.7905218493597995 -0.01124786997077942
-0.010789753899196576 0.924752560886645 -0.016859360365052523
0.004725505389496288 0.8122023288064316 0.11571892818260483
0.11150155800255333 0.9062934352754205 0.09375740583962835
0.3179865512622854 0.7905218493597995 -0.01124786997077942
0.18921024610080345 0.924752560886645 -0.016859360365052523
0.2047255053894963 0.8122023288064316 0.11571892818260483
0.3115015580025533 0.9062934352754205 0.09375740583962835
0.5179865512622854 0.7905218493597995 -0.01124786997077942
0.38921024610080346 0.924752560886645 -0.016859360365052523
0.4047255053894963 0.8122023288064316 0.11571892818260483
0.5115015580025534 0.9062934352754205 0.09375740583962835
0.7179865512622854 0.7905218493597995 -0.01124786997077942
0.5892102461008034 0.924752560886645 -0.016859360365052523
0.6047255053894963 0.8122023288064316 0.11571892818260483
0.7115015580025533 0.9062934352754205 0.09375740583962835
0.9179865512622855 0.7905218493597995 -0.01124786997077942
0.7892102461008035 0.924752560886645 -0.016859360365052523
0.8047255053894964 0.8122023288064316 0.11571892818260483
0.9115015580025534 0.9062934352754205 0.09375740583962835
0.1179865512622854 -0.009478150640200522 0.1887521300292206
-0.010789753899196576 0.12475256088664502 0.1831406396349475
0.004725505389496288 0.012202328806431623 0.3157189281826049
0.11150155800255333 0.10629343527542046 0.29375740583962834
0.3179865512622854 -0.009478150640200522 0.1887521300292206
0.18921024610080345 0.12475256088664502 0.1831406396349475
0.2047255053894963 0.012202328806431623 0.3157189281826049
0.3115015580025533 0.10629343527542046 0.29375740583962834
0.5179865512622854 -0.009478150640200522 0.1887521300292206
0.38921024610080346 0.12475256088664502 0.1831406396349475
0.4047255053894963 0.012202328806431623 0.3157189281826049
0.5115015580025534 0.10629343527542046 0.29375740583962834
0.7179865512622854 -0.009478150640200522 0.1887521300292206
0.5892102461008034 0.12475256088664502 0.1831406396349475
0.6047255053894963 0.012202328806431623 0.3157189281826049
0.7115015580025533 0.10629343527542046 0.29375740583962834
0.9179865512622855 -0.009478150640200522 0.1887521300292206
0.7892102461008035 0.12475256088664502 0.1831406396349475
0.8047255053894964 0.012202328806431623 0.3157189281826049
0.9115015580025534 0.10629343527542046 0.29375740583962834
0.1179865512622854 0.1905218493597995 0.1887521300292206
-0.010789753899196576 0.32475256088664506 0.1831406396349475
0.004725505389496288 0.21220232880643164 0.3157189281826049
0.11150155800255333 0.3062934352754205 0.29375740583962834
0.3179865512622854 0.1905218493597995 0.1887521300292206
0.18921024610080345 0.32475256088664506 0.1831406396349475
0.2047255053894963 0.21220232880643164 0.3157189281826049
0.3115015580025533 0.3062934352754205 0.29375740583962834
0.5179865512622854 0.1905218493597995 0.1887521300292206
0.38921024610080346 0.32475256088664506 0.1831406396349475
0.4047255053894963 0.21220232880643164 0.3157189281826049
0.5115015580025534 0.3062934352754205 0.29375740583962834
0.7179865512622854 0.1905218493597995 0.1887521300292206
0.5892102461008034 0.32475256088664506 0.1831406396349475
0.6047255053894963 0.21220232880643164 0.3157189281826049
0.7115015580025533 0.3062934352754205 0.29375740583962834
0.9179865512622855 0.1905218493597995 0.1887521300292206
0.7892102461008035 0.32475256088664506 0.1831406396349475
0.8047255053894964 0.21220232880643164 0.3157189281826049
0.9115015580025534 0.3062934352754205 0.29375740583962834
0.1179865512622854 0.3905218493597995 0.1887521300292206
-0.010789753899196576 0.524752560886645 0.1831406396349475
0.004725505389496288 0.4122023288064316 0.3157189281826049
0.11150155800255333 0.5062934352754205 0.29375740583962834
0.3179865512622854 0.3905218493597995 0.1887521300292206
0.18921024610080345 0.524752560886645 0.1831406396349475
0.2047255053894963 0.4122023288064316 0.3157189281826049
0.3115015580025533 0.5062934352754205 0.29375740583962834
0.5179865512622854 0.3905218493597995 0.1887521300292206
0.38921024610080346 0.524752560886645 0.1831406396349475
0.4047255053894963 0.4122023288064316 0.3157189281826049
0.5115015580025534 0.5062934352754205 0.29375740583962834
0.7179865512622854 0.3905218493597995 0.1887521300292206
0.5892102461008034 0.524752560886645 0.1831406396349475
0.6047255053894963 0.4122023288064316 0.3157189281826049
0.7115015580025533 0.5062934352754205 0.29375740583962834
0.9179865512622855 0.3905218493597995 0.1887521300292206
0.7892102461008035 0.524752560886645 0.1831406396349475
0.8047255053894964 0.4122023288064316 0.3157189281826049
0.9115015580025534 0.5062934352754205 0.29375740583962834
0.1179865512622854 0.5905218493597996 0.1887521300292206
-0.010789753899196576 0.7247525608866451 0.1831406396349475
0.004725505389496288 0.6122023288064317 0.3157189281826049
0.11150155800255333 0.7062934352754205 0.29375740583962834
0.3179865512622854 0.5905218493597996 0.1887521300292206
0.18921024610080345 0.7247525608866451 0.1831406396349475
0.2047255053894963 0.6122023288064317 0.3157189281826049
0.3115015580025533 0.7062934352754205 0.29375740583962834
0.5179865512622854 0.5905218493597996 0.1887521300292206
0.38921024610080346 0.7247525608866451 0.1831406396349475
0.4047255053894963 0.6122023288064317 0.3157189281826049
0.5115015580025534 0.7062934352754205 0.29375740583962834
0.7179865512622854 0.5905218493597996 0.1887521300292206
0.5892102461008034 0.7247525608866451 0.1831406396349475
0.6047255053894963 0.6122023288064317 0.3157189281826049
0.7115015580025533 0.7062934352754205 0.29375740583962834
0.9179865512622855 0.5905218493597996 0.1887521300292206
0.7892102461008035 0.7247525608866451 0.1831406396349475
0.8047255053894964 0.6122023288064317 0.3157189281826049
0.9115015580025534 0.7062934352754205 0.29375740583962834
0.1179865512622854 0.7905218493597995 0.1887521300292206
-0.010789753899196576 0.924752560886645 0.1831406396349475
0.004725505389496288 0.8122023288064316 0.3157189281826049
0.11150155800255333 0.9062934352754205 0.29375740583962834
0.3179865512622854 0.7905218493597995 0.1887521300292206
0.18921024610080345 0.924752560886645 0.1831406396349475
0.2047255053894963 0.8122023288064316 0.3157189281826049
0.3115015580025533 0.9062934352754205 0.29375740583962834
0.5179865512622854 0.7905218493597995 0.1887521300292206
0.38921024610080346 0.924752560886645 0.1831406396349475
0.4047255053894963 0.8122023288064316 0.3157189281826049
0.5115015580025534 0.9062934352754205 0.29375740583962834
0.7179865512622854 0.7905218493597995 0.1887521300292206
0.5892102461008034 0.924752560886645 0.1831406396349475
0.6047255053894963 0.8122023288064316 0.3157189281826049
0.7115015580025533 0.9062934352754205 0.29375740583962834
0.9179865512622855 0.7905218493597995 0.1887521300292206
0.7892102461008035 0.924752560886645 0.1831406396349475
0.8047255053894964 0.8122023288064316 0.3157189281826049
0.9115015580025534 0.9062934352754205 0.29375740583962834
0.1179865512622854 -0.009478150640200522 0.3887521300292206
-0.010789753899196576 0.12475256088664502 0.3831406396349475
0.004725505389496288 0.012202328806431623 0.5157189281826049
0.11150155800255333 0.10629343527542046 0.49375740583962835
0.3179865512622854 -0.009478150640200522 0.3887521300292206
0.18921024610080345 0.12475256088664502 0.3831406396349475
0.2047255053894963 0.012202328806431623 0.5157189281826049
0.3115015580025533 0.10629343527542046 0.49375740583962835
0.5179865512622854 -0.009478150640200522 0.3887521300292206
0.38921024610080346 0.12475256088664502 0.3831406396349475
0.4047255053894963 0.012202328806431623 0.5157189281826049
0.5115015580025534 0.10629343527542046 0.49375740583962835
0.7179865512622854 -0.009478150640200522 0.3887521300292206
0.5892102461008034 0.12475256088664502 0.3831406396349475
0.6047255053894963 0.012202328806431623 0.5157189281826049
0.7115015580025533 0.10629343527542046 0.49375740583962835
0.9179865512622855 -0.009478150640200522 0.3887521300292206
0.7892102461008035 0.12475256088664502 0.3831406396349475
0.8047255053894964 0.012202328806431623 0.5157189281826049
0.9115015580025534 0.10629343527542046 0.49375740583962835
0.1179865512622854 0.1905218493597995 0.3887521300292206
-0.010789753899196576 0.32475256088664506 0.3831406396349475
0.004725505389496288 0.21220232880643164 0.5157189281826049
0.11150155800255333 0.3062934352754205 0.49375740583962835
0.3179865512622854 0.1905218493597995 0.3887521300292206
0.18921024610080345 0.32475256088664506 0.3831406396349475
0.2047255053894963 0.21220232880643164 0.5157189281826049
0.3115015580025533 0.3062934352754205 0.49375740583962835
0.5179865512622854 0.1905218493597995 0.3887521300292206
0.38921024610080346 0.32475256088664506 0.3831406396349475
0.4047255053894963 0.21220232880643164 0.5157189281826049
0.5115015580025534 0.3062934352754205 0.49375740583962835
0.7179865512622854 0.1905218493597995 0.3887521300292206
0.5892102461008034 0.32475256088664506 0.3831406396349475
0.6047255053894963 0.21220232880643164 0.5157189281826049
0.7115015580025533 0.3062934352754205 0.49375740583962835
0.9179865512622855 0.1905218493597995 0.3887521300292206
0.7892102461008035 0.32475256088664506 0.3831406396349475
0.8047255053894964 0.21220232880643164 0.5157189281826049
0.9115015580025534 0.3062934352754205 0.49375740583962835
0.1179865512622854 0.3905218493597995 0.3887521300292206
-0.010789753899196576 0.524752560886645 0.3831406396349475
0.004725505389496288 0.4122023288064316 0.5157189281826049
0.11150155800255333 0.5062934352754205 0.49375740583962835
0.3179865512622854 0.3905218493597995 0.3887521300292206
0.18921024610080345 0.524752560886645 0.3831406396349475
0.2047255053894963 0.4122023288064316 0.5157189281826049
0.3115015580025533 0.5062934352754205 0.49375740583962835
0.5179865512622854 0.3905218493597995 0.3887521300292206
0.38921024610080346 0.524752560886645 0.3831406396349475
0.4047255053894963 0.4122023288064316 0.5157189281826049
0.5115015580025534 0.5062934352754205 0.49375740583962835
0.7179865512622854 0.3905218493597995 0.3887521300292206
0.5892102461008034 0.524752560886645 0.3831406396349475
0.6047255053894963 0.4122023288064316 0.5157189281826049
0.7115015580025533 0.5062934352754205 0.49375740583962835
0.9179865512622855 0.3905218493597995 0.3887521300292206
0.7892102461008035 0.524752560886645 0.3831406396349475
0.8047255053894964 0.4122023288064316 0.5157189281826049
0.9115015580025534 0.5062934352754205 0.49375740583962835
0.1179865512622854 0.5905218493597996 0.3887521300292206
-0.010789753899196576 0.7247525608866451 0.3831406396349475
0.004725505389496288 0.6122023288064317 0.5157189281826049
0.11150155800255333 0.7062934352754205 0.49375740583962835
0.3179865512622854 0.5905218493597996 0.3887521300292206
0.18921024610080345 0.7247525608866451 0.3831406396349475
0.2047255053894963 0.6122023288064317 0.5157189281826049
0.3115015580025533 0.7062934352754205 0.49375740583962835
0.5179865512622854 0.5905218493597996 0.3887521300292206
0.38921024610080346 0.7247525608866451 0.3831406396349475
0.4047255053894963 0.6122023288064317 0.5157189281826049
0.5115015580025534 0.7062934352754205 0.49375740583962835
0.7179865512622854 0.5905218493597996 0.3887521300292206
0.5892102461008034 0.7247525608866451 0.3831406396349475
0.6047255053894963 0.6122023288064317 0.5157189281826049
0.7115015580025533 0.7062934352754205 0.49375740583962835
0.9179865512622855 0.5905218493597996 0.3887521300292206
0.7892102461008035 0.7247525608866451 0.3831406396349475
0.8047255053894964 0.6122023288064317 0.5157189281826049
0.9115015580025534 0.7062934352754205 0.49375740583962835
0.1179865512622854 0.7905218493597995 0.3887521300292206
-0.010789753899196576 0.924752560886645 0.3831406396349475
0.004725505389496288 0.8122023288064316 0.5157189281826049
0.11150155800255333 0.9062934352754205 0.49375740583962835
0.3179865512622854 0.7905218493597995 0.3887521300292206
0.18921024610080345 0.924752560886645 0.3831406396349475
0.2047255053894963 0.8122023288064316 0.5157189281826049
0.3115015580025533 0.9062934352754205 0.49375740583962835
0.5179865512622854 0.7905218493597995 0.3887521300292206
0.38921024610080346 0.924752560886645 0.3831406396349475
0.4047255053894963 0.8122023288064316 0.5157189281826049
0.5115015580025534 0.9062934352754205 0.49375740583962835
0.7179865512622854 0.7905218493597995 0.3887521300292206
0.5892102461008034 0.924752560886645 0.3831406396349475
0.6047255053894963 0.8122023288064316 0.5157189281826049
0.7115015580025533 0.9062934352754205 0.49375740583962835
0.9179865512622855 0.7905218493597995 0.3887521300292206
0.7892102461008035 0.924752560886645 0.3831406396349475
0.8047255053894964 0.8122023288064316 0.5157189281826049
0.9115015580025534 0.9062934352754205 0.49375740583962835
0.1179865512622854 -0.009478150640200522 0.5887521300292206
-0.010789753899196576 0.12475256088664502 0.5831406396349474
0.004725505389496288 0.012202328806431623 0.7157189281826049
0.11150155800255333 0.10629343527542046 0.6937574058396283
0.3179865512622854 -0.009478150640200522 0.5887521300292206
0.18921024610080345 0.12475256088664502 0.5831406396349474
0.2047255053894963 0.012202328806431623 0.7157189281826049
0.3115015580025533 0.10629343527542046 0.6937574058396283
0.5179865512622854 -0.009478150640200522 0.5887521300292206
0.38921024610080346 0.12475256088664502 0.5831406396349474
0.4047255053894963 0.012202328806431623 0.7157189281826049
0.5115015580025534 0.10629343527542046 0.6937574058396283
0.7179865512622854 -0.009478150640200522 0.5887521300292206
0.5892102461008034 0.12475256088664502 0.5831406396349474
0.6047255053894963 0.012202328806431623 0.7157189281826049
0.7115015580025533 0.10629343527542046 0.6937574058396283
0.9179865512622855 -0.009478150640200522 0.5887521300292206
0.7892102461008035 0.12475256088664502 0.5831406396349474
0.8047255053894964 0.012202328806431623 0.7157189281826049
0.9115015580025534 0.10629343527542046 0.6937574058396283
0.1179865512622854 0.1905218493597995 0.5887521300292206
-0.010789753899196576 0.32475256088664506 0.5831406396349474
0.004725505389496288 0.21220232880643164 0.7157189281826049
0.11150155800255333 0.3062934352754205 0.6937574058396283
0.3179865512622854 0.1905218493597995 0.5887521300292206
0.18921024610080345 0.32475256088664506 0.5831406396349474
0.2047255053894963 0.21220232880643164 0.7157189281826049
0.3115015580025533 0.3062934352754205 0.6937574058396283
0.5179865512622854 0.1905218493597995 0.5887521300292206
0.38921024610080346 0.32475256088664506 0.5831406396349474
0.4047255053894963 0.21220232880643164 0.7157189281826049
0.5115015580025534 0.3062934352754205 0.6937574058396283
0.7179865512622854 0.1905218493597995 0.5887521300292206
0.5892102461008034 0.32475256088664506 0.5831406396349474
0.6047255053894963 0.21220232880643164 0.7157189281826049
0.7115015580025533 0.3062934352754205 0.6937574058396283
0.9179865512622855 0.1905218493597995 0.5887521300292206
0.7892102461008035 0.32475256088664506 0.5831406396349474
0.8047255053894964 0.21220232880643164 0.7157189281826049
0.9115015580025534 0.3062934352754205 0.6937574058396283
0.1179865512622854 0.3905218493597995 0.5887521300292206
-0.010789753899196576 0.524752560886645 0.5831406396349474
0.004725505389496288 0.4122023288064316 0.7157189281826049
0.11150155800255333 0.5062934352754205 0.6937574058396283
0.3179865512622854 0.3905218493597995 0.5887521300292206
0.18921024610080345 0.524752560886645 0.5831406396349474
0.2047255053894963 0.4122023288064316 0.7157189281826049
0.3115015580025533 0.5062934352754205 0.6937574058396283
0.5179865512622854 0.3905218493597995 0.5887521300292206
0.38921024610080346 0.524752560886645 0.5831406396349474
0.4047255053894963 0.4122023288064316 0.7157189281826049
0.5115015580025534 0.5062934352754205 0.6937574058396283
0.7179865512622854 0.3905218493597995 0.5887521300292206
0.5892102461008034 0.524752560886645 0.5831406396349474
0.6047255053894963 0.4122023288064316 0.7157189281826049
0.7115015580025533 0.5062934352754205 0.6937574058396283
0.9179865512622855 0.3905218493597995 0.5887521300292206
0.7892102461008035 0.524752560886645 0.5831406396349474
0.8047255053894964 0.4122023288064316 0.7157189281826049
0.9115015580025534 0.5062934352754205 0.6937574058396283
0.1179865512622854 0.5905218493597996 0.5887521300292206
-0.010789753899196576 0.7247525608866451 0.5831406396349474
0.004725505389496288 0.6122023288064317 0.7157189281826049
0.11150155800255333 0.7062934352754205 0.6937574058396283
0.3179865512622854 0.5905218493597996 0.5887521300292206
0.18921024610080345 0.7247525608866451 0.5831406396349474
0.2047255053894963 0.6122023288064317 0.7157189281826049
0.3115015580025533 0.7062934352754205 0.6937574058396283
0.5179865512622854 0.5905218493597996 0.5887521300292206
0.38921024610080346 0.7247525608866451 0.5831406396349474
0.4047255053894963 0.6122023288064317 0.7157189281826049
0.5115015580025534 0.7062934352754205 0.6937574058396283
0.7179865512622854 0.5905218493597996 0.5887521300292206
0.5892102461008034 0.7247525608866451 0.5831406396349474
0.6047255053894963 0.6122023288064317 0.7157189281826049
0.7115015580025533 0.7062934352754205 0.6937574058396283
0.9179865512622855 0.5905218493597996 0.5887521300292206
0.7892102461008035 0.7247525608866451 0.5831406396349474
0.8047255053894964 0.6122023288064317 0.7157189281826049
0.9115015580025534 0.7062934352754205 0.6937574058396283
0.1179865512622854 0.7905218493597995 0.5887521300292206
-0.010789753899196576 0.924752560886645 0.5831406396349474
0.004725505389496288 0.8122023288064316 0.7157189281826049
0.11150155800255333 0.9062934352754205 0.6937574058396283
0.3179865512622854 0.7905218493597995 0.5887521300292206
0.18921024610080345 0.924752560886645 0.5831406396349474
0.2047255053894963 0.8122023288064316 0.7157189281826049
0.3115015580025533 0.9062934352754205 0.6937574058396283
0.5179865512622854 0.7905218493597995 0.5887521300292206
0.38921024610080346 0.924752560886645 0.5831406396349474
0.4047255053894963 0.8122023288064316 0.7157189281826049
0.5115015580025534 0.9062934352754205 0.6937574058396283
0.7179865512622854 0.7905218493597995 0.5887521300292206
0.5892102461008034 0.924752560886645 0.5831406396349474
0.6047255053894963 0.8122023288064316 0.7157189281826049
0.7115015580025533 0.9062934352754205 0.6937574058396283
0.9179865512622855 0.7905218493597995 0.5887521300292206
0.7892102461008035 0.924752560886645 0.5831406396349474
0.8047255053894964 0.8122023288064316 0.7157189281826049
0.9115015580025534 0.9062934352754205 0.6937574058396283
0.1179865512622854 -0.009478150640200522 0.7887521300292206
-0.010789753899196576 0.12475256088664502 0.7831406396349475
0.004725505389496288 0.012202328806431623 0.9157189281826048
0.11150155800255333 0.10629343527542046 0.8937574058396284
0.3179865512622854 -0.009478150640200522 0.7887521300292206
0.18921024610080345 0.12475256088664502 0.7831406396349475
0.2047255053894963 0.012202328806431623 0.9157189281826048
0.3115015580025533 0.10629343527542046 0.8937574058396284
0.5179865512622854 -0.009478150640200522 0.7887521300292206
0.38921024610080346 0.12475256088664502 0.7831406396349475
0.4047255053894963 0.012202328806431623 0.9157189281826048
0.5115015580025534 0.10629343527542046 0.8937574058396284
0.7179865512622854 -0.009478150640200522 0.7887521300292206
0.5892102461008034 0.12475256088664502 0.7831406396349475
0.6047255053894963 0.012202328806431623 0.9157189281826048
0.7115015580025533 0.10629343527542046 0.8937574058396284
0.9179865512622855 -0.009478150640200522 0.7887521300292206
0.7892102461008035 0.12475256088664502 0.7831406396349475
0.8047255053894964 0.012202328806431623 0.9157189281826048
0.9115015580025534 0.10629343527542046 0.8937574058396284
0.1179865512622854 0.1905218493597995 0.7887521300292206
-0.010789753899196576 0.32475256088664506 0.7831406396349475
0.004725505389496288 0.21220232880643164 0.9157189281826048
0.11150155800255333 0.3062934352754205 0.8937574058396284
0.3179865512622854 0.1905218493597995 0.7887521300292206
0.18921024610080345 0.32475256088664506 0.7831406396349475
0.2047255053894963 0.21220232880643164 0.9157189281826048
0.3115015580025533 0.3062934352754205 0.8937574058396284
0.5179865512622854 0.1905218493597995 0.7887521300292206
0.38921024610080346 0.32475256088664506 0.7831406396349475
0.4047255053894963 0.21220232880643164 0.9157189281826048
0.5115015580025534 0.3062934352754205 0.8937574058396284
0.7179865512622854 0.1905218493597995 0.7887521300292206
0.5892102461008034 0.32475256088664506 0.7831406396349475
0.6047255053894963 0.21220232880643164 0.9157189281826048
0.7115015580025533 0.3062934352754205 0.8937574058396284
0.9179865512622855 0.1905218493597995 0.7887521300292206
0.7892102461008035 0.32475256088664506 0.7831406396349475
0.8047255053894964 0.21220232880643164 0.9157189281826048
0.9115015580025534 0.3062934352754205 0.8937574058396284
0.1179865512622854 0.3905218493597995 0.7887521300292206
-0.010789753899196576 0.524752560886645 0.7831406396349475
0.004725505389496288 0.4122023288064316 0.9157189281826048
0.11150155800255333 0.5062934352754205 0.8937574058396284
0.3179865512622854 0.3905218493597995 0.7887521300292206
0.18921024610080345 0.524752560886645 0.7831406396349475
0.2047255053894963 0.4122023288064316 0.9157189281826048
0.3115015580025533 0.5062934352754205 0.8937574058396284
0.5179865512622854 0.3905218493597995 0.7887521300292206
0.38921024610080346 0.524752560886645 0.7831406396349475
0.4047255053894963 0.4122023288064316 0.9157189281826048
0.5115015580025534 0.5062934352754205 0.8937574058396284
0.7179865512622854 0.3905218493597995 0.7887521300292206
0.5892102461008034 0.524752560886645 0.7831406396349475
0.6047255053894963 0.4122023288064316 0.9157189281826048
0.7115015580025533 0.5062934352754205 0.8937574058396284
0.9179865512622855 0.3905218493597995 0.7887521300292206
0.7892102461008035 0.524752560886645 0.7831406396349475
0.8047255053894964 0.4122023288064316 0.9157189281826048
0.9115015580025534 0.5062934352754205 0.8937574058396284
0.1179865512622854 0.5905218493597996 0.7887521300292206
-0.010789753899196576 0.7247525608866451 0.7831406396349475
0.004725505389496288 0.6122023288064317 0.9157189281826048
0.11150155800255333 0.7062934352754205 0.8937574058396284
0.3179865512622854 0.5905218493597996 0.7887521300292206
0.18921024610080345 0.7247525608866451 0.7831406396349475
0.2047255053894963 0.6122023288064317 0.9157189281826048
0.3115015580025533 0.7062934352754205 0.8937574058396284
0.5179865512622854 0.5905218493597996 0.7887521300292206
0.38921024610080346 0.7247525608866451 0.7831406396349475
0.4047255053894963 0.6122023288064317 0.9157189281826048
0.5115015580025534 0.7062934352754205 0.8937574058396284
0.7179865512622854 0.5905218493597996 0.7887521300292206
0.5892102461008034 0.7247525608866451 0.7831406396349475
0.6047255053894963 0.6122023288064317 0.9157189281826048
0.7115015580025533 0.7062934352754205 0.8937574058396284
0.9179865512622855 0.5905218493597996 0.7887521300292206
0.7892102461008035 0.7247525608866451 0.7831406396349475
0.8047255053894964 0.6122023288064317 0.9157189281826048
0.9115015580025534 0.7062934352754205 0.8937574058396284
0.1179865512622854 0.7905218493597995 0.7887521300292206
-0.010789753899196576 0.924752560886645 0.7831406396349475
0.004725505389496288 0.8122023288064316 0.9157189281826048
0.11150155800255333 0.9062934352754205 0.8937574058396284
0.3179865512622854 0.7905218493597995 0.7887521300292206
0.18921024610080345 0.924752560886645 0.7831406396349475
0.2047255053894963 0.8122023288064316 0.9157189281826048
0.3115015580025533 0.9062934352754205 0.8937574058396284
0.5179865512622854 0.7905218493597995 0.7887521300292206
0.38921024610080346 0.924752560886645 0.7831406396349475
0.4047255053894963 0.8122023288064316 0.9157189281826048
0.5115015580025534 0.9062934352754205 0.8937574058396284
0.7179865512622854 0.7905218493597995 0.7887521300292206
0.5892102461008034 0.924752560886645 0.7831406396349475
0.6047255053894963 0.8122023288064316 0.9157189281826048
0.7115015580025533 0.9062934352754205 0.8937574058396284
0.9179865512622855 0.7905218493597995 0.7887521300292206
0.7892102461008035 0.924752560886645 0.7831406396349475
0.8047255053894964 0.8122023288064316 0.9157189281826048
0.9115015580025534 0.9062934352754205 0.8937574058396284
