FCC BaO
3.971
5.0 0.0 0.0
0.0 5.0 0.0
0.0 0.0 5.0
Ba O 
500 500 
Direct
0.007500108008377428 0.0018118600745577606 0.017940859008434226
0.005863771111520654 0.12919727932928296 0.08250163291974498
0.12015536939528289 0.007641527272478047 0.10743010803907296
0.10292629309102148 0.11063730135285116 0.015550531321642552
0.20750010800837743 0.0018118600745577606 0.017940859008434226
0.20586377111152065 0.12919727932928296 0.08250163291974498
0.32015536939528294 0.007641527272478047 0.10743010803907296
0.3029262930910215 0.11063730135285116 0.015550531321642552
0.4075001080083775 0.0018118600745577606 0.017940859008434226
0.4058637711115207 0.12919727932928296 0.08250163291974498
0.520155369395283 0.007641527272478047 0.10743010803907296
0.5029262930910215 0.11063730135285116 0.015550531321642552
0.6075001080083775 0.0018118600745577606 0.017940859008434226
0.6058637711115207 0.12919727932928296 0.08250163291974498
0.7201553693952829 0.007641527272478047 0.10743010803907296
0.7029262930910215 0.11063730135285116 0.015550531321642552
0.8075001080083775 0.0018118600745577606 0.017940859008434226
0.8058637711115207 0.12919727932928296 0.08250163291974498
0.9201553693952829 0.007641527272478047 0.10743010803907296
0.9029262930910215 0.11063730135285116 0.015550531321642552
0.007500108008377428 0.20181186007455776 0.017940859008434226
0.005863771111520654 0.329197279329283 0.08250163291974498
0.12015536939528289 0.20764152727247806 0.10743010803907296
0.10292629309102148 0.31063730135285117 0.015550531321642552
0.20750010800837743 0.20181186007455776 0.017940859008434226
0.20586377111152065 0.329197279329283 0.08250163291974498
0.32015536939528294 0.20764152727247806 0.10743010803907296
0.3029262930910215 0.31063730135285117 0.015550531321642552
0.4075001080083775 0.20181186007455776 0.017940859008434226
0.4058637711115207 0.329197279329283 0.08250163291974498
0.520155369395283 0.20764152727247806 0.10743010803907296
0.5029262930910215 0.31063730135285117 0.015550531321642552
0.6075001080083775 0.20181186007455776 0.017940859008434226
0.6058637711115207 0.329197279329283 0.08250163291974498
0.7201553693952829 0.20764152727247806 0.10743010803907296
0.7029262930910215 0.31063730135285117 0.015550531321642552
0.8075001080083775 0.20181186007455776 0.017940859008434226
0.8058637711115207 0.329197279329283 0.08250163291974498
0.9201553693952829 0.20764152727247806 0.10743010803907296
0.9029262930910215 0.31063730135285117 0.015550531321642552
0.007500108008377428 0.4018118600745578 0.017940859008434226
0.005863771111520654 0.5291972793292831 0.08250163291974498
0.12015536939528289 0.40764152727247804 0.10743010803907296
0.10292629309102148 0.5106373013528511 0.015550531321642552
0.20750010800837743 0.4018118600745578 0.017940859008434226
0.20586377111152065 0.5291972793292831 0.08250163291974498
0.32015536939528294 0.40764152727247804 0.10743010803907296
0.3029262930910215 0.5106373013528511 0.015550531321642552
0.4075001080083775 0.4018118600745578 0.017940859008434226
0.4058637711115207 0.5291972793292831 0.08250163291974498
0.520155369395283 0.40764152727247804 0.10743010803907296
0.5029262930910215 0.5106373013528511 0.015550531321642552
0.6075001080083775 0.4018118600745578 0.017940859008434226
0.6058637711115207 0.5291972793292831 0.08250163291974498
0.7201553693952829 0.40764152727247804 0.10743010803907296
0.7029262930910215 0.5106373013528511 0.015550531321642552
0.8075001080083775 0.4018118600745578 0.017940859008434226
0.8058637711115207 0.5291972793292831 0.08250163291974498
0.9201553693952829 0.40764152727247804 0.10743010803907296
0.9029262930910215 0.5106373013528511 0.015550531321642552
0.007500108008377428 0.6018118600745579 0.017940859008434226
0.005863771111520654 0.729197279329283 0.08250163291974498
0.12015536939528289 0.6076415272724781 0.10743010803907296
0.10292629309102148 0.7106373013528512 0.015550531321642552
0.20750010800837743 0.6018118600745579 0.017940859008434226
0.20586377111152065 0.729197279329283 0.08250163291974498
0.32015536939528294 0.6076415272724781 0.10743010803907296
0.3029262930910215 0.7106373013528512 0.015550531321642552
0.4075001080083775 0.6018118600745579 0.017940859008434226
0.4058637711115207 0.729197279329283 0.08250163291974498
0.520155369395283 0.6076415272724781 0.10743010803907296
0.5029262930910215 0.7106373013528512 0.015550531321642552
0.6075001080083775 0.6018118600745579 0.017940859008434226
0.6058637711115207 0.729197279329283 0.08250163291974498
0.7201553693952829 0.6076415272724781 0.10743010803907296
0.7029262930910215 0.7106373013528512 0.015550531321642552
0.8075001080083775 0.6018118600745579 0.017940859008434226
0.8058637711115207 0.729197279329283 0.08250163291974498
0.9201553693952829 0.6076415272724781 0.10743010803907296
0.9029262930910215 0.7106373013528512 0.015550531321642552
0.007500108008377428 0.8018118600745577 0.017940859008434226
0.005863771111520654 0.9291972793292831 0.08250163291974498
0.12015536939528289 0.8076415272724781 0.10743010803907296
0.10292629309102148 0.9106373013528511 0.015550531321642552
0.20750010800837743 0.8018118600745577 0.017940859008434226
0.20586377111152065 0.9291972793292831 0.08250163291974498
0.32015536939528294 0.8076415272724781 0.10743010803907296
0.3029262930910215 0.9106373013528511 0.015550531321642552
0.4075001080083775 0.8018118600745577 0.017940859008434226
0.4058637711115207 0.9291972793292831 0.08250163291974498
0.520155369395283 0.8076415272724781 0.10743010803907296
0.5029262930910215 0.9106373013528511 0.015550531321642552
0.6075001080083775 0.8018118600745577 0.017940859008434226
0.6058637711115207 0.9291972793292831 0.08250163291974498
0.7201553693952829 0.8076415272724781 0.10743010803907296
0.7029262930910215 0.9106373013528511 0.015550531321642552
0.8075001080083775 0.8018118600745577 0.017940859008434226
0.8058637711115207 0.9291972793292831 0.08250163291974498
0.9201553693952829 0.8076415272724781 0.10743010803907296
0.9029262930910215 0.9106373013528511 0.015550531321642552
0.007500108008377428 0.0018118600745577606 0.21794085900843424
0.005863771111520654 0.12919727932928296 0.28250163291974495
0.12015536939528289 0.007641527272478047 0.307430108039073
0.10292629309102148 0.11063730135285116 0.21555053132164256
0.20750010800837743 0.0018118600745577606 0.21794085900843424
0.20586377111152065 0.12919727932928296 0.28250163291974495
0.32015536939528294 0.007641527272478047 0.307430108039073
0.3029262930910215 0.11063730135285116 0.21555053132164256
0.4075001080083775 0.0018118600745577606 0.21794085900843424
0.4058637711115207 0.12919727932928296 0.28250163291974495
0.520155369395283 0.007641527272478047 0.307430108039073
0.5029262930910215 0.11063730135285116 0.21555053132164256
0.6075001080083775 0.0018118600745577606 0.21794085900843424
0.6058637711115207 0.12919727932928296 0.28250163291974495
0.7201553693952829 0.007641527272478047 0.307430108039073
0.7029262930910215 0.11063730135285116 0.21555053132164256
0.8075001080083775 0.0018118600745577606 0.21794085900843424
0.8058637711115207 0.12919727932928296 0.28250163291974495
0.9201553693952829 0.007641527272478047 0.307430108039073
0.9029262930910215 0.11063730135285116 0.21555053132164256
0.007500108008377428 0.20181186007455776 0.21794085900843424
0.005863771111520654 0.329197279329283 0.28250163291974495
0.12015536939528289 0.20764152727247806 0.307430108039073
0.10292629309102148 0.31063730135285117 0.21555053132164256
0.20750010800837743 0.20181186007455776 0.21794085900843424
0.20586377111152065 0.329197279329283 0.28250163291974495
0.32015536939528294 0.20764152727247806 0.307430108039073
0.3029262930910215 0.31063730135285117 0.21555053132164256
0.4075001080083775 0.20181186007455776 0.21794085900843424
0.4058637711115207 0.329197279329283 0.28250163291974495
0.520155369395283 0.20764152727247806 0.307430108039073
0.5029262930910215 0.31063730135285117 0.21555053132164256
0.6075001080083775 0.20181186007455776 0.21794085900843424
0.6058637711115207 0.329197279329283 0.28250163291974495
0.7201553693952829 0.20764152727247806 0.307430108039073
0.7029262930910215 0.31063730135285117 0.21555053132164256
0.8075001080083775 0.20181186007455776 0.21794085900843424
0.8058637711115207 0.329197279329283 0.28250163291974495
0.9201553693952829 0.20764152727247806 0.307430108039073
0.9029262930910215 0.31063730135285117 0.21555053132164256
0.007500108008377428 0.4018118600745578 0.21794085900843424
0.005863771111520654 0.5291972793292831 0.28250163291974495
0.12015536939528289 0.40764152727247804 0.307430108039073
0.10292629309102148 0.5106373013528511 0.21555053132164256
0.20750010800837743 0.4018118600745578 0.21794085900843424
0.20586377111152065 0.5291972793292831 0.28250163291974495
0.32015536939528294 0.40764152727247804 0.307430108039073
0.3029262930910215 0.5106373013528511 0.21555053132164256
0.4075001080083775 0.4018118600745578 0.21794085900843424
0.4058637711115207 0.5291972793292831 0.28250163291974495
0.520155369395283 0.40764152727247804 0.307430108039073
0.5029262930910215 0.5106373013528511 0.21555053132164256
0.6075001080083775 0.4018118600745578 0.21794085900843424
0.6058637711115207 0.5291972793292831 0.28250163291974495
0.7201553693952829 0.40764152727247804 0.307430108039073
0.7029262930910215 0.5106373013528511 0.21555053132164256
0.8075001080083775 0.4018118600745578 0.21794085900843424
0.8058637711115207 0.5291972793292831 0.28250163291974495
0.9201553693952829 0.40764152727247804 0.307430108039073
0.9029262930910215 0.5106373013528511 0.21555053132164256
0.007500108008377428 0.6018118600745579 0.21794085900843424
0.005863771111520654 0.729197279329283 0.28250163291974495
0.12015536939528289 0.6076415272724781 0.307430108039073
0.10292629309102148 0.7106373013528512 0.21555053132164256
0.20750010800837743 0.6018118600745579 0.21794085900843424
0.20586377111152065 0.729197279329283 0.28250163291974495
0.32015536939528294 0.6076415272724781 0.307430108039073
0.3029262930910215 0.7106373013528512 0.21555053132164256
0.4075001080083775 0.6018118600745579 0.21794085900843424
0.4058637711115207 0.729197279329283 0.28250163291974495
0.520155369395283 0.6076415272724781 0.307430108039073
0.5029262930910215 0.7106373013528512 0.21555053132164256
0.6075001080083775 0.6018118600745579 0.21794085900843424
0.6058637711115207 0.729197279329283 0.28250163291974495
0.7201553693952829 0.6076415272724781 0.307430108039073
0.7029262930910215 0.7106373013528512 0.21555053132164256
0.8075001080083775 0.6018118600745579 0.21794085900843424
0.8058637711115207 0.729197279329283 0.28250163291974495
0.9201553693952829 0.6076415272724781 0.307430108039073
0.9029262930910215 0.7106373013528512 0.21555053132164256
0.007500108008377428 0.8018118600745577 0.21794085900843424
0.005863771111520654 0.9291972793292831 0.28250163291974495
0.12015536939528289 0.8076415272724781 0.307430108039073
0.10292629309102148 0.9106373013528511 0.21555053132164256
0.20750010800837743 0.8018118600745577 0.21794085900843424
0.20586377111152065 0.9291972793292831 0.28250163291974495
0.32015536939528294 0.8076415272724781 0.307430108039073
0.3029262930910215 0.9106373013528511 0.21555053132164256
0.4075001080083775 0.8018118600745577 0.21794085900843424
0.4058637711115207 0.9291972793292831 0.28250163291974495
0.520155369395283 0.8076415272724781 0.307430108039073
0.5029262930910215 0.9106373013528511 0.21555053132164256
0.6075001080083775 0.8018118600745577 0.21794085900843424
0.6058637711115207 0.9291972793292831 0.28250163291974495
0.7201553693952829 0.8076415272724781 0.307430108039073
0.7029262930910215 0.9106373013528511 0.21555053132164256
0.8075001080083775 0.8018118600745577 0.21794085900843424
0.8058637711115207 0.9291972793292831 0.28250163291974495
0.9201553693952829 0.8076415272724781 0.307430108039073
0.9029262930910215 0.9106373013528511 0.21555053132164256
0.007500108008377428 0.0018118600745577606 0.4179408590084342
0.005863771111520654 0.12919727932928296 0.48250163291974496
0.12015536939528289 0.007641527272478047 0.507430108039073
0.10292629309102148 0.11063730135285116 0.4155505313216426
0.20750010800837743 0.0018118600745577606 0.4179408590084342
0.20586377111152065 0.12919727932928296 0.48250163291974496
0.32015536939528294 0.007641527272478047 0.507430108039073
0.3029262930910215 0.11063730135285116 0.4155505313216426
0.4075001080083775 0.0018118600745577606 0.4179408590084342
0.4058637711115207 0.12919727932928296 0.48250163291974496
0.520155369395283 0.007641527272478047 0.507430108039073
0.5029262930910215 0.11063730135285116 0.4155505313216426
0.6075001080083775 0.0018118600745577606 0.4179408590084342
0.6058637711115207 0.12919727932928296 0.48250163291974496
0.7201553693952829 0.007641527272478047 0.507430108039073
0.7029262930910215 0.11063730135285116 0.4155505313216426
0.8075001080083775 0.0018118600745577606 0.4179408590084342
0.8058637711115207 0.12919727932928296 0.48250163291974496
0.9201553693952829 0.007641527272478047 0.507430108039073
0.9029262930910215 0.11063730135285116 0.4155505313216426
0.007500108008377428 0.20181186007455776 0.4179408590084342
0.005863771111520654 0.329197279329283 0.48250163291974496
0.12015536939528289 0.20764152727247806 0.507430108039073
0.10292629309102148 0.31063730135285117 0.4155505313216426
0.20750010800837743 0.20181186007455776 0.4179408590084342
0.20586377111152065 0.329197279329283 0.48250163291974496
0.32015536939528294 0.20764152727247806 0.507430108039073
0.3029262930910215 0.31063730135285117 0.4155505313216426
0.4075001080083775 0.20181186007455776 0.4179408590084342
0.4058637711115207 0.329197279329283 0.48250163291974496
0.520155369395283 0.20764152727247806 0.507430108039073
0.5029262930910215 0.31063730135285117 0.4155505313216426
0.6075001080083775 0.20181186007455776 0.4179408590084342
0.6058637711115207 0.329197279329283 0.48250163291974496
0.7201553693952829 0.20764152727247806 0.507430108039073
0.7029262930910215 0.31063730135285117 0.4155505313216426
0.8075001080083775 0.20181186007455776 0.4179408590084342
0.8058637711115207 0.329197279329283 0.48250163291974496
0.9201553693952829 0.20764152727247806 0.507430108039073
0.9029262930910215 0.31063730135285117 0.4155505313216426
0.007500108008377428 0.4018118600745578 0.4179408590084342
0.005863771111520654 0.5291972793292831 0.48250163291974496
0.12015536939528289 0.40764152727247804 0.507430108039073
0.10292629309102148 0.5106373013528511 0.4155505313216426
0.20750010800837743 0.4018118600745578 0.4179408590084342
0.20586377111152065 0.5291972793292831 0.48250163291974496
0.32015536939528294 0.40764152727247804 0.507430108039073
0.3029262930910215 0.5106373013528511 0.4155505313216426
0.4075001080083775 0.4018118600745578 0.4179408590084342
0.4058637711115207 0.5291972793292831 0.48250163291974496
0.520155369395283 0.40764152727247804 0.507430108039073
0.5029262930910215 0.5106373013528511 0.4155505313216426
0.6075001080083775 0.4018118600745578 0.4179408590084342
0.6058637711115207 0.5291972793292831 0.48250163291974496
0.7201553693952829 0.40764152727247804 0.507430108039073
0.7029262930910215 0.5106373013528511 0.4155505313216426
0.8075001080083775 0.4018118600745578 0.4179408590084342
0.8058637711115207 0.5291972793292831 0.48250163291974496
0.9201553693952829 0.40764152727247804 0.507430108039073
0.9029262930910215 0.5106373013528511 0.4155505313216426
0.007500108008377428 0.6018118600745579 0.4179408590084342
0.005863771111520654 0.729197279329283 0.48250163291974496
0.12015536939528289 0.6076415272724781 0.507430108039073
0.10292629309102148 0.7106373013528512 0.4155505313216426
0.20750010800837743 0.6018118600745579 0.4179408590084342
0.20586377111152065 0.729197279329283 0.48250163291974496
0.32015536939528294 0.6076415272724781 0.507430108039073
0.3029262930910215 0.7106373013528512 0.4155505313216426
0.4075001080083775 0.6018118600745579 0.4179408590084342
0.4058637711115207 0.729197279329283 0.48250163291974496
0.520155369395283 0.6076415272724781 0.507430108039073
0.5029262930910215 0.7106373013528512 0.4155505313216426
0.6075001080083775 0.6018118600745579 0.4179408590084342
0.6058637711115207 0.729197279329283 0.48250163291974496
0.7201553693952829 0.6076415272724781 0.507430108039073
0.7029262930910215 0.7106373013528512 0.4155505313216426
0.8075001080083775 0.6018118600745579 0.4179408590084342
0.8058637711115207 0.729197279329283 0.48250163291974496
0.9201553693952829 0.6076415272724781 0.507430108039073
0.9029262930910215 0.7106373013528512 0.4155505313216426
0.007500108008377428 0.8018118600745577 0.4179408590084342
0.005863771111520654 0.9291972793292831 0.48250163291974496
0.12015536939528289 0.8076415272724781 0.507430108039073
0.10292629309102148 0.9106373013528511 0.4155505313216426
0.20750010800837743 0.8018118600745577 0.4179408590084342
0.20586377111152065 0.9291972793292831 0.48250163291974496
0.32015536939528294 0.8076415272724781 0.507430108039073
0.3029262930910215 0.9106373013528511 0.4155505313216426
0.4075001080083775 0.8018118600745577 0.4179408590084342
0.4058637711115207 0.9291972793292831 0.48250163291974496
0.520155369395283 0.8076415272724781 0.507430108039073
0.5029262930910215 0.9106373013528511 0.4155505313216426
0.6075001080083775 0.8018118600745577 0.4179408590084342
0.6058637711115207 0.9291972793292831 0.48250163291974496
0.7201553693952829 0.8076415272724781 0.507430108039073
0.7029262930910215 0.9106373013528511 0.4155505313216426
0.8075001080083775 0.8018118600745577 0.4179408590084342
0.8058637711115207 0.9291972793292831 0.48250163291974496
0.9201553693952829 0.8076415272724781 0.507430108039073
0.9029262930910215 0.9106373013528511 0.4155505313216426
0.007500108008377428 0.0018118600745577606 0.6179408590084342
0.005863771111520654 0.12919727932928296 0.682501632919745
0.12015536939528289 0.007641527272478047 0.707430108039073
0.10292629309102148 0.11063730135285116 0.6155505313216426
0.20750010800837743 0.0018118600745577606 0.6179408590084342
0.20586377111152065 0.12919727932928296 0.682501632919745
0.32015536939528294 0.007641527272478047 0.707430108039073
0.3029262930910215 0.11063730135285116 0.6155505313216426
0.4075001080083775 0.0018118600745577606 0.6179408590084342
0.4058637711115207 0.12919727932928296 0.682501632919745
0.520155369395283 0.007641527272478047 0.707430108039073
0.5029262930910215 0.11063730135285116 0.6155505313216426
0.6075001080083775 0.0018118600745577606 0.6179408590084342
0.6058637711115207 0.12919727932928296 0.682501632919745
0.7201553693952829 0.007641527272478047 0.707430108039073
0.7029262930910215 0.11063730135285116 0.6155505313216426
0.8075001080083775 0.0018118600745577606 0.6179408590084342
0.8058637711115207 0.12919727932928296 0.682501632919745
0.9201553693952829 0.007641527272478047 0.707430108039073
0.9029262930910215 0.11063730135285116 0.6155505313216426
0.007500108008377428 0.20181186007455776 0.6179408590084342
0.005863771111520654 0.329197279329283 0.682501632919745
0.12015536939528289 0.20764152727247806 0.707430108039073
0.10292629309102148 0.31063730135285117 0.6155505313216426
0.20750010800837743 0.20181186007455776 0.6179408590084342
0.20586377111152065 0.329197279329283 0.682501632919745
0.32015536939528294 0.20764152727247806 0.707430108039073
0.3029262930910215 0.31063730135285117 0.6155505313216426
0.4075001080083775 0.20181186007455776 0.6179408590084342
0.4058637711115207 0.329197279329283 0.682501632919745
0.520155369395283 0.20764152727247806 0.707430108039073
0.5029262930910215 0.31063730135285117 0.6155505313216426
0.6075001080083775 0.20181186007455776 0.6179408590084342
0.6058637711115207 0.329197279329283 0.682501632919745
0.7201553693952829 0.20764152727247806 0.707430108039073
0.7029262930910215 0.31063730135285117 0.6155505313216426
0.8075001080083775 0.20181186007455776 0.6179408590084342
0.8058637711115207 0.329197279329283 0.682501632919745
0.9201553693952829 0.20764152727247806 0.707430108039073
0.9029262930910215 0.31063730135285117 0.6155505313216426
0.007500108008377428 0.4018118600745578 0.6179408590084342
0.005863771111520654 0.5291972793292831 0.682501632919745
0.12015536939528289 0.40764152727247804 0.707430108039073
0.10292629309102148 0.5106373013528511 0.6155505313216426
0.20750010800837743 0.4018118600745578 0.6179408590084342
0.20586377111152065 0.5291972793292831 0.682501632919745
0.32015536939528294 0.40764152727247804 0.707430108039073
0.3029262930910215 0.5106373013528511 0.6155505313216426
0.4075001080083775 0.4018118600745578 0.6179408590084342
0.4058637711115207 0.5291972793292831 0.682501632919745
0.520155369395283 0.40764152727247804 0.707430108039073
0.5029262930910215 0.5106373013528511 0.6155505313216426
0.6075001080083775 0.4018118600745578 0.6179408590084342
0.6058637711115207 0.5291972793292831 0.682501632919745
0.7201553693952829 0.40764152727247804 0.707430108039073
0.7029262930910215 0.5106373013528511 0.6155505313216426
0.8075001080083775 0.4018118600745578 0.6179408590084342
0.8058637711115207 0.5291972793292831 0.682501632919745
0.9201553693952829 0.40764152727247804 0.707430108039073
0.9029262930910215 0.5106373013528511 0.6155505313216426
0.007500108008377428 0.6018118600745579 0.6179408590084342
0.005863771111520654 0.729197279329283 0.682501632919745
0.12015536939528289 0.6076415272724781 0.707430108039073
0.10292629309102148 0.7106373013528512 0.6155505313216426
0.20750010800837743 0.6018118600745579 0.6179408590084342
0.20586377111152065 0.729197279329283 0.682501632919745
0.32015536939528294 0.6076415272724781 0.707430108039073
0.3029262930910215 0.7106373013528512 0.6155505313216426
0.4075001080083775 0.6018118600745579 0.6179408590084342
0.4058637711115207 0.729197279329283 0.682501632919745
0.520155369395283 0.6076415272724781 0.707430108039073
0.5029262930910215 0.7106373013528512 0.6155505313216426
0.6075001080083775 0.6018118600745579 0.6179408590084342
0.6058637711115207 0.729197279329283 0.682501632919745
0.7201553693952829 0.6076415272724781 0.707430108039073
0.7029262930910215 0.7106373013528512 0.6155505313216426
0.8075001080083775 0.6018118600745579 0.6179408590084342
0.8058637711115207 0.729197279329283 0.682501632919745
0.9201553693952829 0.6076415272724781 0.707430108039073
0.9029262930910215 0.7106373013528512 0.6155505313216426
0.007500108008377428 0.8018118600745577 0.6179408590084342
0.005863771111520654 0.9291972793292831 0.682501632919745
0.12015536939528289 0.8076415272724781 0.707430108039073
0.10292629309102148 0.9106373013528511 0.6155505313216426
0.20750010800837743 0.8018118600745577 0.6179408590084342
0.20586377111152065 0.9291972793292831 0.682501632919745
0.32015536939528294 0.8076415272724781 0.707430108039073
0.3029262930910215 0.9106373013528511 0.6155505313216426
0.4075001080083775 0.8018118600745577 0.6179408590084342
0.4058637711115207 0.9291972793292831 0.682501632919745
0.520155369395283 0.8076415272724781 0.707430108039073
0.5029262930910215 0.9106373013528511 0.6155505313216426
0.6075001080083775 0.8018118600745577 0.6179408590084342
0.6058637711115207 0.9291972793292831 0.682501632919745
0.7201553693952829 0.8076415272724781 0.707430108039073
0.7029262930910215 0.9106373013528511 0.6155505313216426
0.8075001080083775 0.8018118600745577 0.6179408590084342
0.8058637711115207 0.9291972793292831 0.682501632919745
0.9201553693952829 0.8076415272724781 0.707430108039073
0.9029262930910215 0.9106373013528511 0.6155505313216426
0.007500108008377428 0.0018118600745577606 0.8179408590084343
0.005863771111520654 0.12919727932928296 0.882501632919745
0.12015536939528289 0.007641527272478047 0.907430108039073
0.10292629309102148 0.11063730135285116 0.8155505313216426
0.20750010800837743 0.0018118600745577606 0.8179408590084343
0.20586377111152065 0.12919727932928296 0.882501632919745
0.32015536939528294 0.007641527272478047 0.907430108039073
0.3029262930910215 0.11063730135285116 0.8155505313216426
0.4075001080083775 0.0018118600745577606 0.8179408590084343
0.4058637711115207 0.12919727932928296 0.882501632919745
0.520155369395283 0.007641527272478047 0.907430108039073
0.5029262930910215 0.11063730135285116 0.8155505313216426
0.6075001080083775 0.0018118600745577606 0.8179408590084343
0.6058637711115207 0.12919727932928296 0.882501632919745
0.7201553693952829 0.007641527272478047 0.907430108039073
0.7029262930910215 0.11063730135285116 0.8155505313216426
0.8075001080083775 0.0018118600745577606 0.8179408590084343
0.8058637711115207 0.12919727932928296 0.882501632919745
0.9201553693952829 0.007641527272478047 0.907430108039073
0.9029262930910215 0.11063730135285116 0.8155505313216426
0.007500108008377428 0.20181186007455776 0.8179408590084343
0.005863771111520654 0.329197279329283 0.882501632919745
0.12015536939528289 0.20764152727247806 0.907430108039073
0.10292629309102148 0.31063730135285117 0.8155505313216426
0.20750010800837743 0.20181186007455776 0.8179408590084343
0.20586377111152065 0.329197279329283 0.882501632919745
0.32015536939528294 0.20764152727247806 0.907430108039073
0.3029262930910215 0.31063730135285117 0.8155505313216426
0.4075001080083775 0.20181186007455776 0.8179408590084343
0.4058637711115207 0.329197279329283 0.882501632919745
0.520155369395283 0.20764152727247806 0.907430108039073
0.5029262930910215 0.31063730135285117 0.8155505313216426
0.6075001080083775 0.20181186007455776 0.8179408590084343
0.6058637711115207 0.329197279329283 0.882501632919745
0.7201553693952829 0.20764152727247806 0.907430108039073
0.7029262930910215 0.31063730135285117 0.8155505313216426
0.8075001080083775 0.20181186007455776 0.8179408590084343
0.8058637711115207 0.329197279329283 0.882501632919745
0.9201553693952829 0.20764152727247806 0.907430108039073
0.9029262930910215 0.31063730135285117 0.8155505313216426
0.007500108008377428 0.4018118600745578 0.8179408590084343
0.005863771111520654 0.5291972793292831 0.882501632919745
0.12015536939528289 0.40764152727247804 0.907430108039073
0.10292629309102148 0.5106373013528511 0.8155505313216426
0.20750010800837743 0.4018118600745578 0.8179408590084343
0.20586377111152065 0.5291972793292831 0.882501632919745
0.32015536939528294 0.40764152727247804 0.907430108039073
0.3029262930910215 0.5106373013528511 0.8155505313216426
0.4075001080083775 0.4018118600745578 0.8179408590084343
0.4058637711115207 0.5291972793292831 0.882501632919745
0.520155369395283 0.40764152727247804 0.907430108039073
0.5029262930910215 0.5106373013528511 0.8155505313216426
0.6075001080083775 0.4018118600745578 0.8179408590084343
0.6058637711115207 0.5291972793292831 0.882501632919745
0.7201553693952829 0.40764152727247804 0.907430108039073
0.7029262930910215 0.5106373013528511 0.8155505313216426
0.8075001080083775 0.4018118600745578 0.8179408590084343
0.8058637711115207 0.5291972793292831 0.882501632919745
0.9201553693952829 0.40764152727247804 0.907430108039073
0.9029262930910215 0.5106373013528511 0.8155505313216426
0.007500108008377428 0.6018118600745579 0.8179408590084343
0.005863771111520654 0.729197279329283 0.882501632919745
0.12015536939528289 0.6076415272724781 0.907430108039073
0.10292629309102148 0.7106373013528512 0.8155505313216426
0.20750010800837743 0.6018118600745579 0.8179408590084343
0.20586377111152065 0.729197279329283 0.882501632919745
0.32015536939528294 0.6076415272724781 0.907430108039073
0.3029262930910215 0.7106373013528512 0.8155505313216426
0.4075001080083775 0.6018118600745579 0.8179408590084343
0.4058637711115207 0.729197279329283 0.882501632919745
0.520155369395283 0.6076415272724781 0.907430108039073
0.5029262930910215 0.7106373013528512 0.8155505313216426
0.6075001080083775 0.6018118600745579 0.8179408590084343
0.6058637711115207 0.729197279329283 0.882501632919745
0.7201553693952829 0.6076415272724781 0.907430108039073
0.7029262930910215 0.7106373013528512 0.8155505313216426
0.8075001080083775 0.6018118600745579 0.8179408590084343
0.8058637711115207 0.729197279329283 0.882501632919745
0.9201553693952829 0.6076415272724781 0.907430108039073
0.9029262930910215 0.7106373013528512 0.8155505313216426
0.007500108008377428 0.8018118600745577 0.8179408590084343
0.005863771111520654 0.9291972793292831 0.882501632919745
0.12015536939528289 0.8076415272724781 0.907430108039073
0.10292629309102148 0.9106373013528511 0.8155505313216426
0.20750010800837743 0.8018118600745577 0.8179408590084343
0.20586377111152065 0.9291972793292831 0.882501632919745
0.32015536939528294 0.8076415272724781 0.907430108039073
0.3029262930910215 0.9106373013528511 0.8155505313216426
0.4075001080083775 0.8018118600745577 0.8179408590084343
0.4058637711115207 0.9291972793292831 0.882501632919745
0.520155369395283 0.8076415272724781 0.907430108039073
0.5029262930910215 0.9106373013528511 0.8155505313216426
0.6075001080083775 0.8018118600745577 0.8179408590084343
0.6058637711115207 0.9291972793292831 0.882501632919745
0.7201553693952829 0.8076415272724781 0.907430108039073
0.7029262930910215 0.9106373013528511 0.8155505313216426
0.8075001080083775 0.8018118600745577 0.8179408590084343
0.8058637711115207 0.9291972793292831 0.882501632919745
0.9201553693952829 0.8076415272724781 0.907430108039073
0.9029262930910215 0.9106373013528511 0.8155505313216426
0.1074858533431966 -0.001224054215397027 0.0047280638338938795
-0.02858825965764816 0.08111052724110915 -0.02926023916969714
-0.0038840549682661674 0.01194107396889869 0.09046968038203368
0.11464663705190861 0.07404439518945526 0.10160494210606451
0.3074858533431966 -0.001224054215397027 0.0047280638338938795
0.17141174034235185 0.08111052724110915 -0.02926023916969714
0.19611594503173385 0.01194107396889869 0.09046968038203368
0.3146466370519086 0.07404439518945526 0.10160494210606451
0.5074858533431966 -0.001224054215397027 0.0047280638338938795
0.37141174034235186 0.08111052724110915 -0.02926023916969714
0.39611594503173386 0.01194107396889869 0.09046968038203368
0.5146466370519086 0.07404439518945526 0.10160494210606451
0.7074858533431967 -0.001224054215397027 0.0047280638338938795
0.5714117403423519 0.08111052724110915 -0.02926023916969714
0.5961159450317338 0.01194107396889869 0.09046968038203368
0.7146466370519087 0.07404439518945526 0.10160494210606451
0.9074858533431966 -0.001224054215397027 0.0047280638338938795
0.7714117403423519 0.08111052724110915 -0.02926023916969714
0.7961159450317339 0.01194107396889869 0.09046968038203368
0.9146466370519086 0.07404439518945526 0.10160494210606451
0.1074858533431966 0.198775945784603 0.0047280638338938795
-0.02858825965764816 0.28111052724110913 -0.02926023916969714
-0.0038840549682661674 0.2119410739688987 0.09046968038203368
0.11464663705190861 0.2740443951894553 0.10160494210606451
0.3074858533431966 0.198775945784603 0.0047280638338938795
0.17141174034235185 0.28111052724110913 -0.02926023916969714
0.19611594503173385 0.2119410739688987 0.09046968038203368
0.3146466370519086 0.2740443951894553 0.10160494210606451
0.5074858533431966 0.198775945784603 0.0047280638338938795
0.37141174034235186 0.28111052724110913 -0.02926023916969714
0.39611594503173386 0.2119410739688987 0.09046968038203368
0.5146466370519086 0.2740443951894553 0.10160494210606451
0.7074858533431967 0.198775945784603 0.0047280638338938795
0.5714117403423519 0.28111052724110913 -0.02926023916969714
0.5961159450317338 0.2119410739688987 0.09046968038203368
0.7146466370519087 0.2740443951894553 0.10160494210606451
0.9074858533431966 0.198775945784603 0.0047280638338938795
0.7714117403423519 0.28111052724110913 -0.02926023916969714
0.7961159450317339 0.2119410739688987 0.09046968038203368
0.9146466370519086 0.2740443951894553 0.10160494210606451
0.1074858533431966 0.39877594578460296 0.0047280638338938795
-0.02858825965764816 0.48111052724110914 -0.02926023916969714
-0.0038840549682661674 0.4119410739688987 0.09046968038203368
0.11464663705190861 0.4740443951894553 0.10160494210606451
0.3074858533431966 0.39877594578460296 0.0047280638338938795
0.17141174034235185 0.48111052724110914 -0.02926023916969714
0.19611594503173385 0.4119410739688987 0.09046968038203368
0.3146466370519086 0.4740443951894553 0.10160494210606451
0.5074858533431966 0.39877594578460296 0.0047280638338938795
0.37141174034235186 0.48111052724110914 -0.02926023916969714
0.39611594503173386 0.4119410739688987 0.09046968038203368
0.5146466370519086 0.4740443951894553 0.10160494210606451
0.7074858533431967 0.39877594578460296 0.0047280638338938795
0.5714117403423519 0.48111052724110914 -0.02926023916969714
0.5961159450317338 0.4119410739688987 0.09046968038203368
0.7146466370519087 0.4740443951894553 0.10160494210606451
0.9074858533431966 0.39877594578460296 0.0047280638338938795
0.7714117403423519 0.48111052724110914 -0.02926023916969714
0.7961159450317339 0.4119410739688987 0.09046968038203368
0.9146466370519086 0.4740443951894553 0.10160494210606451
0.1074858533431966 0.598775945784603 0.0047280638338938795
-0.02858825965764816 0.6811105272411092 -0.02926023916969714
-0.0038840549682661674 0.6119410739688987 0.09046968038203368
0.11464663705190861 0.6740443951894552 0.10160494210606451
0.3074858533431966 0.598775945784603 0.0047280638338938795
0.17141174034235185 0.6811105272411092 -0.02926023916969714
0.19611594503173385 0.6119410739688987 0.09046968038203368
0.3146466370519086 0.6740443951894552 0.10160494210606451
0.5074858533431966 0.598775945784603 0.0047280638338938795
0.37141174034235186 0.6811105272411092 -0.02926023916969714
0.39611594503173386 0.6119410739688987 0.09046968038203368
0.5146466370519086 0.6740443951894552 0.10160494210606451
0.7074858533431967 0.598775945784603 0.0047280638338938795
0.5714117403423519 0.6811105272411092 -0.02926023916969714
0.5961159450317338 0.6119410739688987 0.09046968038203368
0.7146466370519087 0.6740443951894552 0.10160494210606451
0.9074858533431966 0.598775945784603 0.0047280638338938795
0.7714117403423519 0.6811105272411092 -0.02926023916969714
0.7961159450317339 0.6119410739688987 0.09046968038203368
0.9146466370519086 0.6740443951894552 0.10160494210606451
0.1074858533431966 0.7987759457846031 0.0047280638338938795
-0.02858825965764816 0.881110527241109 -0.02926023916969714
-0.0038840549682661674 0.8119410739688988 0.09046968038203368
0.11464663705190861 0.8740443951894552 0.10160494210606451
0.3074858533431966 0.7987759457846031 0.0047280638338938795
0.17141174034235185 0.881110527241109 -0.02926023916969714
0.19611594503173385 0.8119410739688988 0.09046968038203368
0.3146466370519086 0.8740443951894552 0.10160494210606451
0.5074858533431966 0.7987759457846031 0.0047280638338938795
0.37141174034235186 0.881110527241109 -0.02926023916969714
0.39611594503173386 0.8119410739688988 0.09046968038203368
0.5146466370519086 0.8740443951894552 0.10160494210606451
0.7074858533431967 0.7987759457846031 0.0047280638338938795
0.5714117403423519 0.881110527241109 -0.02926023916969714
0.5961159450317338 0.8119410739688988 0.09046968038203368
0.7146466370519087 0.8740443951894552 0.10160494210606451
0.9074858533431966 0.7987759457846031 0.0047280638338938795
0.7714117403423519 0.881110527241109 -0.02926023916969714
0.7961159450317339 0.8119410739688988 0.09046968038203368
0.9146466370519086 0.8740443951894552 0.10160494210606451
0.1074858533431966 -0.001224054215397027 0.2047280638338939
-0.02858825965764816 0.08111052724110915 0.17073976083030287
-0.0038840549682661674 0.01194107396889869 0.2904696803820337
0.11464663705190861 0.07404439518945526 0.3016049421060645
0.3074858533431966 -0.001224054215397027 0.2047280638338939
0.17141174034235185 0.08111052724110915 0.17073976083030287
0.19611594503173385 0.01194107396889869 0.2904696803820337
0.3146466370519086 0.07404439518945526 0.3016049421060645
0.5074858533431966 -0.001224054215397027 0.2047280638338939
0.37141174034235186 0.08111052724110915 0.17073976083030287
0.39611594503173386 0.01194107396889869 0.2904696803820337
0.5146466370519086 0.07404439518945526 0.3016049421060645
0.7074858533431967 -0.001224054215397027 0.2047280638338939
0.5714117403423519 0.08111052724110915 0.17073976083030287
0.5961159450317338 0.01194107396889869 0.2904696803820337
0.7146466370519087 0.07404439518945526 0.3016049421060645
0.9074858533431966 -0.001224054215397027 0.2047280638338939
0.7714117403423519 0.08111052724110915 0.17073976083030287
0.7961159450317339 0.01194107396889869 0.2904696803820337
0.9146466370519086 0.07404439518945526 0.3016049421060645
0.1074858533431966 0.198775945784603 0.2047280638338939
-0.02858825965764816 0.28111052724110913 0.17073976083030287
-0.0038840549682661674 0.2119410739688987 0.2904696803820337
0.11464663705190861 0.2740443951894553 0.3016049421060645
0.3074858533431966 0.198775945784603 0.2047280638338939
0.17141174034235185 0.28111052724110913 0.17073976083030287
0.19611594503173385 0.2119410739688987 0.2904696803820337
0.3146466370519086 0.2740443951894553 0.3016049421060645
0.5074858533431966 0.198775945784603 0.2047280638338939
0.37141174034235186 0.28111052724110913 0.17073976083030287
0.39611594503173386 0.2119410739688987 0.2904696803820337
0.5146466370519086 0.2740443951894553 0.3016049421060645
0.7074858533431967 0.198775945784603 0.2047280638338939
0.5714117403423519 0.28111052724110913 0.17073976083030287
0.5961159450317338 0.2119410739688987 0.2904696803820337
0.7146466370519087 0.2740443951894553 0.3016049421060645
0.9074858533431966 0.198775945784603 0.2047280638338939
0.7714117403423519 0.28111052724110913 0.17073976083030287
0.7961159450317339 0.2119410739688987 0.2904696803820337
0.9146466370519086 0.2740443951894553 0.3016049421060645
0.1074858533431966 0.39877594578460296 0.2047280638338939
-0.02858825965764816 0.48111052724110914 0.17073976083030287
-0.0038840549682661674 0.4119410739688987 0.2904696803820337
0.11464663705190861 0.4740443951894553 0.3016049421060645
0.3074858533431966 0.39877594578460296 0.2047280638338939
0.17141174034235185 0.48111052724110914 0.17073976083030287
0.19611594503173385 0.4119410739688987 0.2904696803820337
0.3146466370519086 0.4740443951894553 0.3016049421060645
0.5074858533431966 0.39877594578460296 0.2047280638338939
0.37141174034235186 0.48111052724110914 0.17073976083030287
0.39611594503173386 0.4119410739688987 0.2904696803820337
0.5146466370519086 0.4740443951894553 0.3016049421060645
0.7074858533431967 0.39877594578460296 0.2047280638338939
0.5714117403423519 0.48111052724110914 0.17073976083030287
0.5961159450317338 0.4119410739688987 0.2904696803820337
0.7146466370519087 0.4740443951894553 0.3016049421060645
0.9074858533431966 0.39877594578460296 0.2047280638338939
0.7714117403423519 0.48111052724110914 0.17073976083030287
0.7961159450317339 0.4119410739688987 0.2904696803820337
0.9146466370519086 0.4740443951894553 0.3016049421060645
0.1074858533431966 0.598775945784603 0.2047280638338939
-0.02858825965764816 0.6811105272411092 0.17073976083030287
-0.0038840549682661674 0.6119410739688987 0.2904696803820337
0.11464663705190861 0.6740443951894552 0.3016049421060645
0.3074858533431966 0.598775945784603 0.2047280638338939
0.17141174034235185 0.6811105272411092 0.17073976083030287
0.19611594503173385 0.6119410739688987 0.2904696803820337
0.3146466370519086 0.6740443951894552 0.3016049421060645
0.5074858533431966 0.598775945784603 0.2047280638338939
0.37141174034235186 0.6811105272411092 0.17073976083030287
0.39611594503173386 0.6119410739688987 0.2904696803820337
0.5146466370519086 0.6740443951894552 0.3016049421060645
0.7074858533431967 0.598775945784603 0.2047280638338939
0.5714117403423519 0.6811105272411092 0.17073976083030287
0.5961159450317338 0.6119410739688987 0.2904696803820337
0.7146466370519087 0.6740443951894552 0.3016049421060645
0.9074858533431966 0.598775945784603 0.2047280638338939
0.7714117403423519 0.6811105272411092 0.17073976083030287
0.7961159450317339 0.6119410739688987 0.2904696803820337
0.9146466370519086 0.6740443951894552 0.3016049421060645
0.1074858533431966 0.7987759457846031 0.2047280638338939
-0.02858825965764816 0.881110527241109 0.17073976083030287
-0.0038840549682661674 0.8119410739688988 0.2904696803820337
0.11464663705190861 0.8740443951894552 0.3016049421060645
0.3074858533431966 0.7987759457846031 0.2047280638338939
0.17141174034235185 0.881110527241109 0.17073976083030287
0.19611594503173385 0.8119410739688988 0.2904696803820337
0.3146466370519086 0.8740443951894552 0.3016049421060645
0.5074858533431966 0.7987759457846031 0.2047280638338939
0.37141174034235186 0.881110527241109 0.17073976083030287
0.39611594503173386 0.8119410739688988 0.2904696803820337
0.5146466370519086 0.8740443951894552 0.3016049421060645
0.7074858533431967 0.7987759457846031 0.2047280638338939
0.5714117403423519 0.881110527241109 0.17073976083030287
0.5961159450317338 0.8119410739688988 0.2904696803820337
0.7146466370519087 0.8740443951894552 0.3016049421060645
0.9074858533431966 0.7987759457846031 0.2047280638338939
0.7714117403423519 0.881110527241109 0.17073976083030287
0.7961159450317339 0.8119410739688988 0.2904696803820337
0.9146466370519086 0.8740443951894552 0.3016049421060645
0.1074858533431966 -0.001224054215397027 0.4047280638338939
-0.02858825965764816 0.08111052724110915 0.3707397608303029
-0.0038840549682661674 0.01194107396889869 0.4904696803820337
0.11464663705190861 0.07404439518945526 0.5016049421060645
0.3074858533431966 -0.001224054215397027 0.4047280638338939
0.17141174034235185 0.08111052724110915 0.3707397608303029
0.19611594503173385 0.01194107396889869 0.4904696803820337
0.3146466370519086 0.07404439518945526 0.5016049421060645
0.5074858533431966 -0.001224054215397027 0.4047280638338939
0.37141174034235186 0.08111052724110915 0.3707397608303029
0.39611594503173386 0.01194107396889869 0.4904696803820337
0.5146466370519086 0.07404439518945526 0.5016049421060645
0.7074858533431967 -0.001224054215397027 0.4047280638338939
0.5714117403423519 0.08111052724110915 0.3707397608303029
0.5961159450317338 0.01194107396889869 0.4904696803820337
0.7146466370519087 0.07404439518945526 0.5016049421060645
0.9074858533431966 -0.001224054215397027 0.4047280638338939
0.7714117403423519 0.08111052724110915 0.3707397608303029
0.7961159450317339 0.01194107396889869 0.4904696803820337
0.9146466370519086 0.07404439518945526 0.5016049421060645
0.1074858533431966 0.198775945784603 0.4047280638338939
-0.02858825965764816 0.28111052724110913 0.3707397608303029
-0.0038840549682661674 0.2119410739688987 0.4904696803820337
0.11464663705190861 0.2740443951894553 0.5016049421060645
0.3074858533431966 0.198775945784603 0.4047280638338939
0.17141174034235185 0.28111052724110913 0.3707397608303029
0.19611594503173385 0.2119410739688987 0.4904696803820337
0.3146466370519086 0.2740443951894553 0.5016049421060645
0.5074858533431966 0.198775945784603 0.4047280638338939
0.37141174034235186 0.28111052724110913 0.3707397608303029
0.39611594503173386 0.2119410739688987 0.4904696803820337
0.5146466370519086 0.2740443951894553 0.5016049421060645
0.7074858533431967 0.198775945784603 0.4047280638338939
0.5714117403423519 0.28111052724110913 0.3707397608303029
0.5961159450317338 0.2119410739688987 0.4904696803820337
0.7146466370519087 0.2740443951894553 0.5016049421060645
0.9074858533431966 0.198775945784603 0.4047280638338939
0.7714117403423519 0.28111052724110913 0.3707397608303029
0.7961159450317339 0.2119410739688987 0.4904696803820337
0.9146466370519086 0.2740443951894553 0.5016049421060645
0.1074858533431966 0.39877594578460296 0.4047280638338939
-0.02858825965764816 0.48111052724110914 0.3707397608303029
-0.0038840549682661674 0.4119410739688987 0.4904696803820337
0.11464663705190861 0.4740443951894553 0.5016049421060645
0.3074858533431966 0.39877594578460296 0.4047280638338939
0.17141174034235185 0.48111052724110914 0.3707397608303029
0.19611594503173385 0.4119410739688987 0.4904696803820337
0.3146466370519086 0.4740443951894553 0.5016049421060645
0.5074858533431966 0.39877594578460296 0.4047280638338939
0.37141174034235186 0.48111052724110914 0.3707397608303029
0.39611594503173386 0.4119410739688987 0.4904696803820337
0.5146466370519086 0.4740443951894553 0.5016049421060645
0.7074858533431967 0.39877594578460296 0.4047280638338939
0.5714117403423519 0.48111052724110914 0.3707397608303029
0.5961159450317338 0.4119410739688987 0.4904696803820337
0.7146466370519087 0.4740443951894553 0.5016049421060645
0.9074858533431966 0.39877594578460296 0.4047280638338939
0.7714117403423519 0.48111052724110914 0.3707397608303029
0.7961159450317339 0.4119410739688987 0.4904696803820337
0.9146466370519086 0.4740443951894553 0.5016049421060645
0.1074858533431966 0.598775945784603 0.4047280638338939
-0.02858825965764816 0.6811105272411092 0.3707397608303029
-0.0038840549682661674 0.6119410739688987 0.4904696803820337
0.11464663705190861 0.6740443951894552 0.5016049421060645
0.3074858533431966 0.598775945784603 0.4047280638338939
0.17141174034235185 0.6811105272411092 0.3707397608303029
0.19611594503173385 0.6119410739688987 0.4904696803820337
0.3146466370519086 0.6740443951894552 0.5016049421060645
0.5074858533431966 0.598775945784603 0.4047280638338939
0.37141174034235186 0.6811105272411092 0.3707397608303029
0.39611594503173386 0.6119410739688987 0.4904696803820337
0.5146466370519086 0.6740443951894552 0.5016049421060645
0.7074858533431967 0.598775945784603 0.4047280638338939
0.5714117403423519 0.6811105272411092 0.3707397608303029
0.5961159450317338 0.6119410739688987 0.4904696803820337
0.7146466370519087 0.6740443951894552 0.5016049421060645
0.9074858533431966 0.598775945784603 0.4047280638338939
0.7714117403423519 0.6811105272411092 0.3707397608303029
0.7961159450317339 0.6119410739688987 0.4904696803820337
0.9146466370519086 0.6740443951894552 0.5016049421060645
0.1074858533431966 0.7987759457846031 0.4047280638338939
-0.02858825965764816 0.881110527241109 0.3707397608303029
-0.0038840549682661674 0.8119410739688988 0.4904696803820337
0.11464663705190861 0.8740443951894552 0.5016049421060645
0.3074858533431966 0.7987759457846031 0.4047280638338939
0.17141174034235185 0.881110527241109 0.3707397608303029
0.19611594503173385 0.8119410739688988 0.4904696803820337
0.3146466370519086 0.8740443951894552 0.5016049421060645
0.5074858533431966 0.7987759457846031 0.4047280638338939
0.37141174034235186 0.881110527241109 0.3707397608303029
0.39611594503173386 0.8119410739688988 0.4904696803820337
0.5146466370519086 0.8740443951894552 0.5016049421060645
0.7074858533431967 0.7987759457846031 0.4047280638338939
0.5714117403423519 0.881110527241109 0.3707397608303029
0.5961159450317338 0.8119410739688988 0.4904696803820337
0.7146466370519087 0.8740443951894552 0.5016049421060645
0.9074858533431966 0.7987759457846031 0.4047280638338939
0.7714117403423519 0.881110527241109 0.3707397608303029
0.7961159450317339 0.8119410739688988 0.4904696803820337
0.9146466370519086 0.8740443951894552 0.5016049421060645
0.1074858533431966 -0.001224054215397027 0.6047280638338939
-0.02858825965764816 0.08111052724110915 0.5707397608303029
-0.0038840549682661674 0.01194107396889869 0.6904696803820337
0.11464663705190861 0.07404439518945526 0.7016049421060645
0.3074858533431966 -0.001224054215397027 0.6047280638338939
0.17141174034235185 0.08111052724110915 0.5707397608303029
0.19611594503173385 0.01194107396889869 0.6904696803820337
0.3146466370519086 0.07404439518945526 0.7016049421060645
0.5074858533431966 -0.001224054215397027 0.6047280638338939
0.37141174034235186 0.08111052724110915 0.5707397608303029
0.39611594503173386 0.01194107396889869 0.6904696803820337
0.5146466370519086 0.07404439518945526 0.7016049421060645
0.7074858533431967 -0.001224054215397027 0.6047280638338939
0.5714117403423519 0.08111052724110915 0.5707397608303029
0.5961159450317338 0.01194107396889869 0.6904696803820337
0.7146466370519087 0.07404439518945526 0.7016049421060645
0.9074858533431966 -0.001224054215397027 0.6047280638338939
0.7714117403423519 0.08111052724110915 0.5707397608303029
0.7961159450317339 0.01194107396889869 0.6904696803820337
0.9146466370519086 0.07404439518945526 0.7016049421060645
0.1074858533431966 0.198775945784603 0.6047280638338939
-0.02858825965764816 0.28111052724110913 0.5707397608303029
-0.0038840549682661674 0.2119410739688987 0.6904696803820337
0.11464663705190861 0.2740443951894553 0.7016049421060645
0.3074858533431966 0.198775945784603 0.6047280638338939
0.17141174034235185 0.28111052724110913 0.5707397608303029
0.19611594503173385 0.2119410739688987 0.6904696803820337
0.3146466370519086 0.2740443951894553 0.7016049421060645
0.5074858533431966 0.198775945784603 0.6047280638338939
0.37141174034235186 0.28111052724110913 0.5707397608303029
0.39611594503173386 0.2119410739688987 0.6904696803820337
0.5146466370519086 0.2740443951894553 0.7016049421060645
0.7074858533431967 0.198775945784603 0.6047280638338939
0.5714117403423519 0.28111052724110913 0.5707397608303029
0.5961159450317338 0.2119410739688987 0.6904696803820337
0.7146466370519087 0.2740443951894553 0.7016049421060645
0.9074858533431966 0.198775945784603 0.6047280638338939
0.7714117403423519 0.28111052724110913 0.5707397608303029
0.7961159450317339 0.2119410739688987 0.6904696803820337
0.9146466370519086 0.2740443951894553 0.7016049421060645
0.1074858533431966 0.39877594578460296 0.6047280638338939
-0.02858825965764816 0.48111052724110914 0.5707397608303029
-0.0038840549682661674 0.4119410739688987 0.6904696803820337
0.11464663705190861 0.4740443951894553 0.7016049421060645
0.3074858533431966 0.39877594578460296 0.6047280638338939
0.17141174034235185 0.48111052724110914 0.5707397608303029
0.19611594503173385 0.4119410739688987 0.6904696803820337
0.3146466370519086 0.4740443951894553 0.7016049421060645
0.5074858533431966 0.39877594578460296 0.6047280638338939
0.37141174034235186 0.48111052724110914 0.5707397608303029
0.39611594503173386 0.4119410739688987 0.6904696803820337
0.5146466370519086 0.4740443951894553 0.7016049421060645
0.7074858533431967 0.39877594578460296 0.6047280638338939
0.5714117403423519 0.48111052724110914 0.5707397608303029
0.5961159450317338 0.4119410739688987 0.6904696803820337
0.7146466370519087 0.4740443951894553 0.7016049421060645
0.9074858533431966 0.39877594578460296 0.6047280638338939
0.7714117403423519 0.48111052724110914 0.5707397608303029
0.7961159450317339 0.4119410739688987 0.6904696803820337
0.9146466370519086 0.4740443951894553 0.7016049421060645
0.1074858533431966 0.598775945784603 0.6047280638338939
-0.02858825965764816 0.6811105272411092 0.5707397608303029
-0.0038840549682661674 0.6119410739688987 0.6904696803820337
0.11464663705190861 0.6740443951894552 0.7016049421060645
0.3074858533431966 0.598775945784603 0.6047280638338939
0.17141174034235185 0.6811105272411092 0.5707397608303029
0.19611594503173385 0.6119410739688987 0.6904696803820337
0.3146466370519086 0.6740443951894552 0.7016049421060645
0.5074858533431966 0.598775945784603 0.6047280638338939
0.37141174034235186 0.6811105272411092 0.5707397608303029
0.39611594503173386 0.6119410739688987 0.6904696803820337
0.5146466370519086 0.6740443951894552 0.7016049421060645
0.7074858533431967 0.598775945784603 0.6047280638338939
0.5714117403423519 0.6811105272411092 0.5707397608303029
0.5961159450317338 0.6119410739688987 0.6904696803820337
0.7146466370519087 0.6740443951894552 0.7016049421060645
0.9074858533431966 0.598775945784603 0.6047280638338939
0.7714117403423519 0.6811105272411092 0.5707397608303029
0.7961159450317339 0.6119410739688987 0.6904696803820337
0.9146466370519086 0.6740443951894552 0.7016049421060645
0.1074858533431966 0.7987759457846031 0.6047280638338939
-0.02858825965764816 0.881110527241109 0.5707397608303029
-0.0038840549682661674 0.8119410739688988 0.6904696803820337
0.11464663705190861 0.8740443951894552 0.7016049421060645
0.3074858533431966 0.7987759457846031 0.6047280638338939
0.17141174034235185 0.881110527241109 0.5707397608303029
0.19611594503173385 0.8119410739688988 0.6904696803820337
0.3146466370519086 0.8740443951894552 0.7016049421060645
0.5074858533431966 0.7987759457846031 0.6047280638338939
0.37141174034235186 0.881110527241109 0.5707397608303029
0.39611594503173386 0.8119410739688988 0.6904696803820337
0.5146466370519086 0.8740443951894552 0.7016049421060645
0.7074858533431967 0.7987759457846031 0.6047280638338939
0.5714117403423519 0.881110527241109 0.5707397608303029
0.5961159450317338 0.8119410739688988 0.6904696803820337
0.7146466370519087 0.8740443951894552 0.7016049421060645
0.9074858533431966 0.7987759457846031 0.6047280638338939
0.7714117403423519 0.881110527241109 0.5707397608303029
0.7961159450317339 0.8119410739688988 0.6904696803820337
0.9146466370519086 0.8740443951894552 0.7016049421060645
0.1074858533431966 -0.001224054215397027 0.8047280638338938
-0.02858825965764816 0.08111052724110915 0.7707397608303029
-0.0038840549682661674 0.01194107396889869 0.8904696803820337
0.11464663705190861 0.07404439518945526 0.9016049421060646
0.3074858533431966 -0.001224054215397027 0.8047280638338938
0.17141174034235185 0.08111052724110915 0.7707397608303029
0.19611594503173385 0.01194107396889869 0.8904696803820337
0.3146466370519086 0.07404439518945526 0.9016049421060646
0.5074858533431966 -0.001224054215397027 0.8047280638338938
0.37141174034235186 0.08111052724110915 0.7707397608303029
0.39611594503173386 0.01194107396889869 0.8904696803820337
0.5146466370519086 0.07404439518945526 0.9016049421060646
0.7074858533431967 -0.001224054215397027 0.8047280638338938
0.5714117403423519 0.08111052724110915 0.7707397608303029
0.5961159450317338 0.01194107396889869 0.8904696803820337
0.7146466370519087 0.07404439518945526 0.9016049421060646
0.9074858533431966 -0.001224054215397027 0.8047280638338938
0.7714117403423519 0.08111052724110915 0.7707397608303029
0.7961159450317339 0.01194107396889869 0.8904696803820337
0.9146466370519086 0.07404439518945526 0.9016049421060646
0.1074858533431966 0.198775945784603 0.8047280638338938
-0.02858825965764816 0.28111052724110913 0.7707397608303029
-0.0038840549682661674 0.2119410739688987 0.8904696803820337
0.11464663705190861 0.2740443951894553 0.9016049421060646
0.3074858533431966 0.198775945784603 0.8047280638338938
0.17141174034235185 0.28111052724110913 0.7707397608303029
0.19611594503173385 0.2119410739688987 0.8904696803820337
0.3146466370519086 0.2740443951894553 0.9016049421060646
0.5074858533431966 0.198775945784603 0.8047280638338938
0.37141174034235186 0.28111052724110913 0.7707397608303029
0.39611594503173386 0.2119410739688987 0.8904696803820337
0.5146466370519086 0.2740443951894553 0.9016049421060646
0.7074858533431967 0.198775945784603 0.8047280638338938
0.5714117403423519 0.28111052724110913 0.7707397608303029
0.5961159450317338 0.2119410739688987 0.8904696803820337
0.7146466370519087 0.2740443951894553 0.9016049421060646
0.9074858533431966 0.198775945784603 0.8047280638338938
0.7714117403423519 0.28111052724110913 0.7707397608303029
0.7961159450317339 0.2119410739688987 0.8904696803820337
0.9146466370519086 0.2740443951894553 0.9016049421060646
0.1074858533431966 0.39877594578460296 0.8047280638338938
-0.02858825965764816 0.48111052724110914 0.7707397608303029
-0.0038840549682661674 0.4119410739688987 0.8904696803820337
0.11464663705190861 0.4740443951894553 0.9016049421060646
0.3074858533431966 0.39877594578460296 0.8047280638338938
0.17141174034235185 0.48111052724110914 0.7707397608303029
0.19611594503173385 0.4119410739688987 0.8904696803820337
0.3146466370519086 0.4740443951894553 0.9016049421060646
0.5074858533431966 0.39877594578460296 0.8047280638338938
0.37141174034235186 0.48111052724110914 0.7707397608303029
0.39611594503173386 0.4119410739688987 0.8904696803820337
0.5146466370519086 0.4740443951894553 0.9016049421060646
0.7074858533431967 0.39877594578460296 0.8047280638338938
0.5714117403423519 0.48111052724110914 0.7707397608303029
0.5961159450317338 0.4119410739688987 0.8904696803820337
0.7146466370519087 0.4740443951894553 0.9016049421060646
0.9074858533431966 0.39877594578460296 0.8047280638338938
0.7714117403423519 0.48111052724110914 0.7707397608303029
0.7961159450317339 0.4119410739688987 0.8904696803820337
0.9146466370519086 0.4740443951894553 0.9016049421060646
0.1074858533431966 0.598775945784603 0.8047280638338938
-0.02858825965764816 0.6811105272411092 0.7707397608303029
-0.0038840549682661674 0.6119410739688987 0.8904696803820337
0.11464663705190861 0.6740443951894552 0.9016049421060646
0.3074858533431966 0.598775945784603 0.8047280638338938
0.17141174034235185 0.6811105272411092 0.7707397608303029
0.19611594503173385 0.6119410739688987 0.8904696803820337
0.3146466370519086 0.6740443951894552 0.9016049421060646
0.5074858533431966 0.598775945784603 0.8047280638338938
0.37141174034235186 0.6811105272411092 0.7707397608303029
0.39611594503173386 0.6119410739688987 0.8904696803820337
0.5146466370519086 0.6740443951894552 0.9016049421060646
0.7074858533431967 0.598775945784603 0.8047280638338938
0.5714117403423519 0.6811105272411092 0.7707397608303029
0.5961159450317338 0.6119410739688987 0.8904696803820337
0.7146466370519087 0.6740443951894552 0.9016049421060646
0.9074858533431966 0.598775945784603 0.8047280638338938
0.7714117403423519 0.6811105272411092 0.7707397608303029
0.7961159450317339 0.6119410739688987 0.8904696803820337
0.9146466370519086 0.6740443951894552 0.9016049421060646
0.1074858533431966 0.7987759457846031 0.8047280638338938
-0.02858825965764816 0.881110527241109 0.7707397608303029
-0.0038840549682661674 0.8119410739688988 0.8904696803820337
0.11464663705190861 0.8740443951894552 0.9016049421060646
0.3074858533431966 0.7987759457846031 0.8047280638338938
0.17141174034235185 0.881110527241109 0.7707397608303029
0.19611594503173385 0.8119410739688988 0.8904696803820337
0.3146466370519086 0.8740443951894552 0.9016049421060646
0.5074858533431966 0.7987759457846031 0.8047280638338938
0.37141174034235186 0.881110527241109 0.7707397608303029
0.39611594503173386 0.8119410739688988 0.8904696803820337
0.5146466370519086 0.8740443951894552 0.9016049421060646
0.7074858533431967 0.7987759457846031 0.8047280638338938
0.5714117403423519 0.881110527241109 0.7707397608303029
0.5961159450317338 0.8119410739688988 0.8904696803820337
0.7146466370519087 0.8740443951894552 0.9016049421060646
0.9074858533431966 0.7987759457846031 0.8047280638338938
0.7714117403423519 0.881110527241109 0.7707397608303029
0.7961159450317339 0.8119410739688988 0.8904696803820337
0.9146466370519086 0.8740443951894552 0.9016049421060646
