FCC BaO
3.971
5.0 0.0 0.0
0.0 5.0 0.0
0.0 0.0 5.0
Ba O 
500 500 
Direct
-0.024032527893790838 -0.003006050316241765 0.004292331196205951
-0.019274479387598298 0.12149262334396921 0.07119298667277157
0.08012622706012096 0.0251518944436489 0.09385060289497232
0.1213958029600827 0.1185492317785025 0.0025539853467692365
0.17596747210620917 -0.003006050316241765 0.004292331196205951
0.1807255206124017 0.12149262334396921 0.07119298667277157
0.28012622706012097 0.0251518944436489 0.09385060289497232
0.32139580296008274 0.1185492317785025 0.0025539853467692365
0.3759674721062092 -0.003006050316241765 0.004292331196205951
0.3807255206124017 0.12149262334396921 0.07119298667277157
0.480126227060121 0.0251518944436489 0.09385060289497232
0.5213958029600827 0.1185492317785025 0.0025539853467692365
0.5759674721062091 -0.003006050316241765 0.004292331196205951
0.5807255206124017 0.12149262334396921 0.07119298667277157
0.6801262270601209 0.0251518944436489 0.09385060289497232
0.7213958029600827 0.1185492317785025 0.0025539853467692365
0.7759674721062092 -0.003006050316241765 0.004292331196205951
0.7807255206124017 0.12149262334396921 0.07119298667277157
0.8801262270601211 0.0251518944436489 0.09385060289497232
0.9213958029600827 0.1185492317785025 0.0025539853467692365
-0.024032527893790838 0.19699394968375825 0.004292331196205951
-0.019274479387598298 0.3214926233439692 0.07119298667277157
0.08012622706012096 0.22515189444364891 0.09385060289497232
0.1213958029600827 0.31854923177850253 0.0025539853467692365
0.17596747210620917 0.19699394968375825 0.004292331196205951
0.1807255206124017 0.3214926233439692 0.07119298667277157
0.28012622706012097 0.22515189444364891 0.09385060289497232
0.32139580296008274 0.31854923177850253 0.0025539853467692365
0.3759674721062092 0.19699394968375825 0.004292331196205951
0.3807255206124017 0.3214926233439692 0.07119298667277157
0.480126227060121 0.22515189444364891 0.09385060289497232
0.5213958029600827 0.31854923177850253 0.0025539853467692365
0.5759674721062091 0.19699394968375825 0.004292331196205951
0.5807255206124017 0.3214926233439692 0.07119298667277157
0.6801262270601209 0.22515189444364891 0.09385060289497232
0.7213958029600827 0.31854923177850253 0.0025539853467692365
0.7759674721062092 0.19699394968375825 0.004292331196205951
0.7807255206124017 0.3214926233439692 0.07119298667277157
0.8801262270601211 0.22515189444364891 0.09385060289497232
0.9213958029600827 0.31854923177850253 0.0025539853467692365
-0.024032527893790838 0.39699394968375823 0.004292331196205951
-0.019274479387598298 0.5214926233439692 0.07119298667277157
0.08012622706012096 0.4251518944436489 0.09385060289497232
0.1213958029600827 0.5185492317785025 0.0025539853467692365
0.17596747210620917 0.39699394968375823 0.004292331196205951
0.1807255206124017 0.5214926233439692 0.07119298667277157
0.28012622706012097 0.4251518944436489 0.09385060289497232
0.32139580296008274 0.5185492317785025 0.0025539853467692365
0.3759674721062092 0.39699394968375823 0.004292331196205951
0.3807255206124017 0.5214926233439692 0.07119298667277157
0.480126227060121 0.4251518944436489 0.09385060289497232
0.5213958029600827 0.5185492317785025 0.0025539853467692365
0.5759674721062091 0.39699394968375823 0.004292331196205951
0.5807255206124017 0.5214926233439692 0.07119298667277157
0.6801262270601209 0.4251518944436489 0.09385060289497232
0.7213958029600827 0.5185492317785025 0.0025539853467692365
0.7759674721062092 0.39699394968375823 0.004292331196205951
0.7807255206124017 0.5214926233439692 0.07119298667277157
0.8801262270601211 0.4251518944436489 0.09385060289497232
0.9213958029600827 0.5185492317785025 0.0025539853467692365
-0.024032527893790838 0.5969939496837583 0.004292331196205951
-0.019274479387598298 0.7214926233439692 0.07119298667277157
0.08012622706012096 0.6251518944436489 0.09385060289497232
0.1213958029600827 0.7185492317785025 0.0025539853467692365
0.17596747210620917 0.5969939496837583 0.004292331196205951
0.1807255206124017 0.7214926233439692 0.07119298667277157
0.28012622706012097 0.6251518944436489 0.09385060289497232
0.32139580296008274 0.7185492317785025 0.0025539853467692365
0.3759674721062092 0.5969939496837583 0.004292331196205951
0.3807255206124017 0.7214926233439692 0.07119298667277157
0.480126227060121 0.6251518944436489 0.09385060289497232
0.5213958029600827 0.7185492317785025 0.0025539853467692365
0.5759674721062091 0.5969939496837583 0.004292331196205951
0.5807255206124017 0.7214926233439692 0.07119298667277157
0.6801262270601209 0.6251518944436489 0.09385060289497232
0.7213958029600827 0.7185492317785025 0.0025539853467692365
0.7759674721062092 0.5969939496837583 0.004292331196205951
0.7807255206124017 0.7214926233439692 0.07119298667277157
0.8801262270601211 0.6251518944436489 0.09385060289497232
0.9213958029600827 0.7185492317785025 0.0025539853467692365
-0.024032527893790838 0.7969939496837584 0.004292331196205951
-0.019274479387598298 0.9214926233439693 0.07119298667277157
0.08012622706012096 0.8251518944436489 0.09385060289497232
0.1213958029600827 0.9185492317785026 0.0025539853467692365
0.17596747210620917 0.7969939496837584 0.004292331196205951
0.1807255206124017 0.9214926233439693 0.07119298667277157
0.28012622706012097 0.8251518944436489 0.09385060289497232
0.32139580296008274 0.9185492317785026 0.0025539853467692365
0.3759674721062092 0.7969939496837584 0.004292331196205951
0.3807255206124017 0.9214926233439693 0.07119298667277157
0.480126227060121 0.8251518944436489 0.09385060289497232
0.5213958029600827 0.9185492317785026 0.0025539853467692365
0.5759674721062091 0.7969939496837584 0.004292331196205951
0.5807255206124017 0.9214926233439693 0.07119298667277157
0.6801262270601209 0.8251518944436489 0.09385060289497232
0.7213958029600827 0.9185492317785026 0.0025539853467692365
0.7759674721062092 0.7969939496837584 0.004292331196205951
0.7807255206124017 0.9214926233439693 0.07119298667277157
0.8801262270601211 0.8251518944436489 0.09385060289497232
0.9213958029600827 0.9185492317785026 0.0025539853467692365
-0.024032527893790838 -0.003006050316241765 0.20429233119620593
-0.019274479387598298 0.12149262334396921 0.2711929866727716
0.08012622706012096 0.0251518944436489 0.2938506028949723
0.1213958029600827 0.1185492317785025 0.20255398534676924
0.17596747210620917 -0.003006050316241765 0.20429233119620593
0.1807255206124017 0.12149262334396921 0.2711929866727716
0.28012622706012097 0.0251518944436489 0.2938506028949723
0.32139580296008274 0.1185492317785025 0.20255398534676924
0.3759674721062092 -0.003006050316241765 0.20429233119620593
0.3807255206124017 0.12149262334396921 0.2711929866727716
0.480126227060121 0.0251518944436489 0.2938506028949723
0.5213958029600827 0.1185492317785025 0.20255398534676924
0.5759674721062091 -0.003006050316241765 0.20429233119620593
0.5807255206124017 0.12149262334396921 0.2711929866727716
0.6801262270601209 0.0251518944436489 0.2938506028949723
0.7213958029600827 0.1185492317785025 0.20255398534676924
0.7759674721062092 -0.003006050316241765 0.20429233119620593
0.7807255206124017 0.12149262334396921 0.2711929866727716
0.8801262270601211 0.0251518944436489 0.2938506028949723
0.9213958029600827 0.1185492317785025 0.20255398534676924
-0.024032527893790838 0.19699394968375825 0.20429233119620593
-0.019274479387598298 0.3214926233439692 0.2711929866727716
0.08012622706012096 0.22515189444364891 0.2938506028949723
0.1213958029600827 0.31854923177850253 0.20255398534676924
0.17596747210620917 0.19699394968375825 0.20429233119620593
0.1807255206124017 0.3214926233439692 0.2711929866727716
0.28012622706012097 0.22515189444364891 0.2938506028949723
0.32139580296008274 0.31854923177850253 0.20255398534676924
0.3759674721062092 0.19699394968375825 0.20429233119620593
0.3807255206124017 0.3214926233439692 0.2711929866727716
0.480126227060121 0.22515189444364891 0.2938506028949723
0.5213958029600827 0.31854923177850253 0.20255398534676924
0.5759674721062091 0.19699394968375825 0.20429233119620593
0.5807255206124017 0.3214926233439692 0.2711929866727716
0.6801262270601209 0.22515189444364891 0.2938506028949723
0.7213958029600827 0.31854923177850253 0.20255398534676924
0.7759674721062092 0.19699394968375825 0.20429233119620593
0.7807255206124017 0.3214926233439692 0.2711929866727716
0.8801262270601211 0.22515189444364891 0.2938506028949723
0.9213958029600827 0.31854923177850253 0.20255398534676924
-0.024032527893790838 0.39699394968375823 0.20429233119620593
-0.019274479387598298 0.5214926233439692 0.2711929866727716
0.08012622706012096 0.4251518944436489 0.2938506028949723
0.1213958029600827 0.5185492317785025 0.20255398534676924
0.17596747210620917 0.39699394968375823 0.20429233119620593
0.1807255206124017 0.5214926233439692 0.2711929866727716
0.28012622706012097 0.4251518944436489 0.2938506028949723
0.32139580296008274 0.5185492317785025 0.20255398534676924
0.3759674721062092 0.39699394968375823 0.20429233119620593
0.3807255206124017 0.5214926233439692 0.2711929866727716
0.480126227060121 0.4251518944436489 0.2938506028949723
0.5213958029600827 0.5185492317785025 0.20255398534676924
0.5759674721062091 0.39699394968375823 0.20429233119620593
0.5807255206124017 0.5214926233439692 0.2711929866727716
0.6801262270601209 0.4251518944436489 0.2938506028949723
0.7213958029600827 0.5185492317785025 0.20255398534676924
0.7759674721062092 0.39699394968375823 0.20429233119620593
0.7807255206124017 0.5214926233439692 0.2711929866727716
0.8801262270601211 0.4251518944436489 0.2938506028949723
0.9213958029600827 0.5185492317785025 0.20255398534676924
-0.024032527893790838 0.5969939496837583 0.20429233119620593
-0.019274479387598298 0.7214926233439692 0.2711929866727716
0.08012622706012096 0.6251518944436489 0.2938506028949723
0.1213958029600827 0.7185492317785025 0.20255398534676924
0.17596747210620917 0.5969939496837583 0.20429233119620593
0.1807255206124017 0.7214926233439692 0.2711929866727716
0.28012622706012097 0.6251518944436489 0.2938506028949723
0.32139580296008274 0.7185492317785025 0.20255398534676924
0.3759674721062092 0.5969939496837583 0.20429233119620593
0.3807255206124017 0.7214926233439692 0.2711929866727716
0.480126227060121 0.6251518944436489 0.2938506028949723
0.5213958029600827 0.7185492317785025 0.20255398534676924
0.5759674721062091 0.5969939496837583 0.20429233119620593
0.5807255206124017 0.7214926233439692 0.2711929866727716
0.6801262270601209 0.6251518944436489 0.2938506028949723
0.7213958029600827 0.7185492317785025 0.20255398534676924
0.7759674721062092 0.5969939496837583 0.20429233119620593
0.7807255206124017 0.7214926233439692 0.2711929866727716
0.8801262270601211 0.6251518944436489 0.2938506028949723
0.9213958029600827 0.7185492317785025 0.20255398534676924
-0.024032527893790838 0.7969939496837584 0.20429233119620593
-0.019274479387598298 0.9214926233439693 0.2711929866727716
0.08012622706012096 0.8251518944436489 0.2938506028949723
0.1213958029600827 0.9185492317785026 0.20255398534676924
0.17596747210620917 0.7969939496837584 0.20429233119620593
0.1807255206124017 0.9214926233439693 0.2711929866727716
0.28012622706012097 0.8251518944436489 0.2938506028949723
0.32139580296008274 0.9185492317785026 0.20255398534676924
0.3759674721062092 0.7969939496837584 0.20429233119620593
0.3807255206124017 0.9214926233439693 0.2711929866727716
0.480126227060121 0.8251518944436489 0.2938506028949723
0.5213958029600827 0.9185492317785026 0.20255398534676924
0.5759674721062091 0.7969939496837584 0.20429233119620593
0.5807255206124017 0.9214926233439693 0.2711929866727716
0.6801262270601209 0.8251518944436489 0.2938506028949723
0.7213958029600827 0.9185492317785026 0.20255398534676924
0.7759674721062092 0.7969939496837584 0.20429233119620593
0.7807255206124017 0.9214926233439693 0.2711929866727716
0.8801262270601211 0.8251518944436489 0.2938506028949723
0.9213958029600827 0.9185492317785026 0.20255398534676924
-0.024032527893790838 -0.003006050316241765 0.404292331196206
-0.019274479387598298 0.12149262334396921 0.4711929866727716
0.08012622706012096 0.0251518944436489 0.4938506028949723
0.1213958029600827 0.1185492317785025 0.4025539853467692
0.17596747210620917 -0.003006050316241765 0.404292331196206
0.1807255206124017 0.12149262334396921 0.4711929866727716
0.28012622706012097 0.0251518944436489 0.4938506028949723
0.32139580296008274 0.1185492317785025 0.4025539853467692
0.3759674721062092 -0.003006050316241765 0.404292331196206
0.3807255206124017 0.12149262334396921 0.4711929866727716
0.480126227060121 0.0251518944436489 0.4938506028949723
0.5213958029600827 0.1185492317785025 0.4025539853467692
0.5759674721062091 -0.003006050316241765 0.404292331196206
0.5807255206124017 0.12149262334396921 0.4711929866727716
0.6801262270601209 0.0251518944436489 0.4938506028949723
0.7213958029600827 0.1185492317785025 0.4025539853467692
0.7759674721062092 -0.003006050316241765 0.404292331196206
0.7807255206124017 0.12149262334396921 0.4711929866727716
0.8801262270601211 0.0251518944436489 0.4938506028949723
0.9213958029600827 0.1185492317785025 0.4025539853467692
-0.024032527893790838 0.19699394968375825 0.404292331196206
-0.019274479387598298 0.3214926233439692 0.4711929866727716
0.08012622706012096 0.22515189444364891 0.4938506028949723
0.1213958029600827 0.31854923177850253 0.4025539853467692
0.17596747210620917 0.19699394968375825 0.404292331196206
0.1807255206124017 0.3214926233439692 0.4711929866727716
0.28012622706012097 0.22515189444364891 0.4938506028949723
0.32139580296008274 0.31854923177850253 0.4025539853467692
0.3759674721062092 0.19699394968375825 0.404292331196206
0.3807255206124017 0.3214926233439692 0.4711929866727716
0.480126227060121 0.22515189444364891 0.4938506028949723
0.5213958029600827 0.31854923177850253 0.4025539853467692
0.5759674721062091 0.19699394968375825 0.404292331196206
0.5807255206124017 0.3214926233439692 0.4711929866727716
0.6801262270601209 0.22515189444364891 0.4938506028949723
0.7213958029600827 0.31854923177850253 0.4025539853467692
0.7759674721062092 0.19699394968375825 0.404292331196206
0.7807255206124017 0.3214926233439692 0.4711929866727716
0.8801262270601211 0.22515189444364891 0.4938506028949723
0.9213958029600827 0.31854923177850253 0.4025539853467692
-0.024032527893790838 0.39699394968375823 0.404292331196206
-0.019274479387598298 0.5214926233439692 0.4711929866727716
0.08012622706012096 0.4251518944436489 0.4938506028949723
0.1213958029600827 0.5185492317785025 0.4025539853467692
0.17596747210620917 0.39699394968375823 0.404292331196206
0.1807255206124017 0.5214926233439692 0.4711929866727716
0.28012622706012097 0.4251518944436489 0.4938506028949723
0.32139580296008274 0.5185492317785025 0.4025539853467692
0.3759674721062092 0.39699394968375823 0.404292331196206
0.3807255206124017 0.5214926233439692 0.4711929866727716
0.480126227060121 0.4251518944436489 0.4938506028949723
0.5213958029600827 0.5185492317785025 0.4025539853467692
0.5759674721062091 0.39699394968375823 0.404292331196206
0.5807255206124017 0.5214926233439692 0.4711929866727716
0.6801262270601209 0.4251518944436489 0.4938506028949723
0.7213958029600827 0.5185492317785025 0.4025539853467692
0.7759674721062092 0.39699394968375823 0.404292331196206
0.7807255206124017 0.5214926233439692 0.4711929866727716
0.8801262270601211 0.4251518944436489 0.4938506028949723
0.9213958029600827 0.5185492317785025 0.4025539853467692
-0.024032527893790838 0.5969939496837583 0.404292331196206
-0.019274479387598298 0.7214926233439692 0.4711929866727716
0.08012622706012096 0.6251518944436489 0.4938506028949723
0.1213958029600827 0.7185492317785025 0.4025539853467692
0.17596747210620917 0.5969939496837583 0.404292331196206
0.1807255206124017 0.7214926233439692 0.4711929866727716
0.28012622706012097 0.6251518944436489 0.4938506028949723
0.32139580296008274 0.7185492317785025 0.4025539853467692
0.3759674721062092 0.5969939496837583 0.404292331196206
0.3807255206124017 0.7214926233439692 0.4711929866727716
0.480126227060121 0.6251518944436489 0.4938506028949723
0.5213958029600827 0.7185492317785025 0.4025539853467692
0.5759674721062091 0.5969939496837583 0.404292331196206
0.5807255206124017 0.7214926233439692 0.4711929866727716
0.6801262270601209 0.6251518944436489 0.4938506028949723
0.7213958029600827 0.7185492317785025 0.4025539853467692
0.7759674721062092 0.5969939496837583 0.404292331196206
0.7807255206124017 0.7214926233439692 0.4711929866727716
0.8801262270601211 0.6251518944436489 0.4938506028949723
0.9213958029600827 0.7185492317785025 0.4025539853467692
-0.024032527893790838 0.7969939496837584 0.404292331196206
-0.019274479387598298 0.9214926233439693 0.4711929866727716
0.08012622706012096 0.8251518944436489 0.4938506028949723
0.1213958029600827 0.9185492317785026 0.4025539853467692
0.17596747210620917 0.7969939496837584 0.404292331196206
0.1807255206124017 0.9214926233439693 0.4711929866727716
0.28012622706012097 0.8251518944436489 0.4938506028949723
0.32139580296008274 0.9185492317785026 0.4025539853467692
0.3759674721062092 0.7969939496837584 0.404292331196206
0.3807255206124017 0.9214926233439693 0.4711929866727716
0.480126227060121 0.8251518944436489 0.4938506028949723
0.5213958029600827 0.9185492317785026 0.4025539853467692
0.5759674721062091 0.7969939496837584 0.404292331196206
0.5807255206124017 0.9214926233439693 0.4711929866727716
0.6801262270601209 0.8251518944436489 0.4938506028949723
0.7213958029600827 0.9185492317785026 0.4025539853467692
0.7759674721062092 0.7969939496837584 0.404292331196206
0.7807255206124017 0.9214926233439693 0.4711929866727716
0.8801262270601211 0.8251518944436489 0.4938506028949723
0.9213958029600827 0.9185492317785026 0.4025539853467692
-0.024032527893790838 -0.003006050316241765 0.6042923311962061
-0.019274479387598298 0.12149262334396921 0.6711929866727716
0.08012622706012096 0.0251518944436489 0.6938506028949724
0.1213958029600827 0.1185492317785025 0.6025539853467693
0.17596747210620917 -0.003006050316241765 0.6042923311962061
0.1807255206124017 0.12149262334396921 0.6711929866727716
0.28012622706012097 0.0251518944436489 0.6938506028949724
0.32139580296008274 0.1185492317785025 0.6025539853467693
0.3759674721062092 -0.003006050316241765 0.6042923311962061
0.3807255206124017 0.12149262334396921 0.6711929866727716
0.480126227060121 0.0251518944436489 0.6938506028949724
0.5213958029600827 0.1185492317785025 0.6025539853467693
0.5759674721062091 -0.003006050316241765 0.6042923311962061
0.5807255206124017 0.12149262334396921 0.6711929866727716
0.6801262270601209 0.0251518944436489 0.6938506028949724
0.7213958029600827 0.1185492317785025 0.6025539853467693
0.7759674721062092 -0.003006050316241765 0.6042923311962061
0.7807255206124017 0.12149262334396921 0.6711929866727716
0.8801262270601211 0.0251518944436489 0.6938506028949724
0.9213958029600827 0.1185492317785025 0.6025539853467693
-0.024032527893790838 0.19699394968375825 0.6042923311962061
-0.019274479387598298 0.3214926233439692 0.6711929866727716
0.08012622706012096 0.22515189444364891 0.6938506028949724
0.1213958029600827 0.31854923177850253 0.6025539853467693
0.17596747210620917 0.19699394968375825 0.6042923311962061
0.1807255206124017 0.3214926233439692 0.6711929866727716
0.28012622706012097 0.22515189444364891 0.6938506028949724
0.32139580296008274 0.31854923177850253 0.6025539853467693
0.3759674721062092 0.19699394968375825 0.6042923311962061
0.3807255206124017 0.3214926233439692 0.6711929866727716
0.480126227060121 0.22515189444364891 0.6938506028949724
0.5213958029600827 0.31854923177850253 0.6025539853467693
0.5759674721062091 0.19699394968375825 0.6042923311962061
0.5807255206124017 0.3214926233439692 0.6711929866727716
0.6801262270601209 0.22515189444364891 0.6938506028949724
0.7213958029600827 0.31854923177850253 0.6025539853467693
0.7759674721062092 0.19699394968375825 0.6042923311962061
0.7807255206124017 0.3214926233439692 0.6711929866727716
0.8801262270601211 0.22515189444364891 0.6938506028949724
0.9213958029600827 0.31854923177850253 0.6025539853467693
-0.024032527893790838 0.39699394968375823 0.6042923311962061
-0.019274479387598298 0.5214926233439692 0.6711929866727716
0.08012622706012096 0.4251518944436489 0.6938506028949724
0.1213958029600827 0.5185492317785025 0.6025539853467693
0.17596747210620917 0.39699394968375823 0.6042923311962061
0.1807255206124017 0.5214926233439692 0.6711929866727716
0.28012622706012097 0.4251518944436489 0.6938506028949724
0.32139580296008274 0.5185492317785025 0.6025539853467693
0.3759674721062092 0.39699394968375823 0.6042923311962061
0.3807255206124017 0.5214926233439692 0.6711929866727716
0.480126227060121 0.4251518944436489 0.6938506028949724
0.5213958029600827 0.5185492317785025 0.6025539853467693
0.5759674721062091 0.39699394968375823 0.6042923311962061
0.5807255206124017 0.5214926233439692 0.6711929866727716
0.6801262270601209 0.4251518944436489 0.6938506028949724
0.7213958029600827 0.5185492317785025 0.6025539853467693
0.7759674721062092 0.39699394968375823 0.6042923311962061
0.7807255206124017 0.5214926233439692 0.6711929866727716
0.8801262270601211 0.4251518944436489 0.6938506028949724
0.9213958029600827 0.5185492317785025 0.6025539853467693
-0.024032527893790838 0.5969939496837583 0.6042923311962061
-0.019274479387598298 0.7214926233439692 0.6711929866727716
0.08012622706012096 0.6251518944436489 0.6938506028949724
0.1213958029600827 0.7185492317785025 0.6025539853467693
0.17596747210620917 0.5969939496837583 0.6042923311962061
0.1807255206124017 0.7214926233439692 0.6711929866727716
0.28012622706012097 0.6251518944436489 0.6938506028949724
0.32139580296008274 0.7185492317785025 0.6025539853467693
0.3759674721062092 0.5969939496837583 0.6042923311962061
0.3807255206124017 0.7214926233439692 0.6711929866727716
0.480126227060121 0.6251518944436489 0.6938506028949724
0.5213958029600827 0.7185492317785025 0.6025539853467693
0.5759674721062091 0.5969939496837583 0.6042923311962061
0.5807255206124017 0.7214926233439692 0.6711929866727716
0.6801262270601209 0.6251518944436489 0.6938506028949724
0.7213958029600827 0.7185492317785025 0.6025539853467693
0.7759674721062092 0.5969939496837583 0.6042923311962061
0.7807255206124017 0.7214926233439692 0.6711929866727716
0.8801262270601211 0.6251518944436489 0.6938506028949724
0.9213958029600827 0.7185492317785025 0.6025539853467693
-0.024032527893790838 0.7969939496837584 0.6042923311962061
-0.019274479387598298 0.9214926233439693 0.6711929866727716
0.08012622706012096 0.8251518944436489 0.6938506028949724
0.1213958029600827 0.9185492317785026 0.6025539853467693
0.17596747210620917 0.7969939496837584 0.6042923311962061
0.1807255206124017 0.9214926233439693 0.6711929866727716
0.28012622706012097 0.8251518944436489 0.6938506028949724
0.32139580296008274 0.9185492317785026 0.6025539853467693
0.3759674721062092 0.7969939496837584 0.6042923311962061
0.3807255206124017 0.9214926233439693 0.6711929866727716
0.480126227060121 0.8251518944436489 0.6938506028949724
0.5213958029600827 0.9185492317785026 0.6025539853467693
0.5759674721062091 0.7969939496837584 0.6042923311962061
0.5807255206124017 0.9214926233439693 0.6711929866727716
0.6801262270601209 0.8251518944436489 0.6938506028949724
0.7213958029600827 0.9185492317785026 0.6025539853467693
0.7759674721062092 0.7969939496837584 0.6042923311962061
0.7807255206124017 0.9214926233439693 0.6711929866727716
0.8801262270601211 0.8251518944436489 0.6938506028949724
0.9213958029600827 0.9185492317785026 0.6025539853467693
-0.024032527893790838 -0.003006050316241765 0.804292331196206
-0.019274479387598298 0.12149262334396921 0.8711929866727716
0.08012622706012096 0.0251518944436489 0.8938506028949723
0.1213958029600827 0.1185492317785025 0.8025539853467694
0.17596747210620917 -0.003006050316241765 0.804292331196206
0.1807255206124017 0.12149262334396921 0.8711929866727716
0.28012622706012097 0.0251518944436489 0.8938506028949723
0.32139580296008274 0.1185492317785025 0.8025539853467694
0.3759674721062092 -0.003006050316241765 0.804292331196206
0.3807255206124017 0.12149262334396921 0.8711929866727716
0.480126227060121 0.0251518944436489 0.8938506028949723
0.5213958029600827 0.1185492317785025 0.8025539853467694
0.5759674721062091 -0.003006050316241765 0.804292331196206
0.5807255206124017 0.12149262334396921 0.8711929866727716
0.6801262270601209 0.0251518944436489 0.8938506028949723
0.7213958029600827 0.1185492317785025 0.8025539853467694
0.7759674721062092 -0.003006050316241765 0.804292331196206
0.7807255206124017 0.12149262334396921 0.8711929866727716
0.8801262270601211 0.0251518944436489 0.8938506028949723
0.9213958029600827 0.1185492317785025 0.8025539853467694
-0.024032527893790838 0.19699394968375825 0.804292331196206
-0.019274479387598298 0.3214926233439692 0.8711929866727716
0.08012622706012096 0.22515189444364891 0.8938506028949723
0.1213958029600827 0.31854923177850253 0.8025539853467694
0.17596747210620917 0.19699394968375825 0.804292331196206
0.1807255206124017 0.3214926233439692 0.8711929866727716
0.28012622706012097 0.22515189444364891 0.8938506028949723
0.32139580296008274 0.31854923177850253 0.8025539853467694
0.3759674721062092 0.19699394968375825 0.804292331196206
0.3807255206124017 0.3214926233439692 0.8711929866727716
0.480126227060121 0.22515189444364891 0.8938506028949723
0.5213958029600827 0.31854923177850253 0.8025539853467694
0.5759674721062091 0.19699394968375825 0.804292331196206
0.5807255206124017 0.3214926233439692 0.8711929866727716
0.6801262270601209 0.22515189444364891 0.8938506028949723
0.7213958029600827 0.31854923177850253 0.8025539853467694
0.7759674721062092 0.19699394968375825 0.804292331196206
0.7807255206124017 0.3214926233439692 0.8711929866727716
0.8801262270601211 0.22515189444364891 0.8938506028949723
0.9213958029600827 0.31854923177850253 0.8025539853467694
-0.024032527893790838 0.39699394968375823 0.804292331196206
-0.019274479387598298 0.5214926233439692 0.8711929866727716
0.08012622706012096 0.4251518944436489 0.8938506028949723
0.1213958029600827 0.5185492317785025 0.8025539853467694
0.17596747210620917 0.39699394968375823 0.804292331196206
0.1807255206124017 0.5214926233439692 0.8711929866727716
0.28012622706012097 0.4251518944436489 0.8938506028949723
0.32139580296008274 0.5185492317785025 0.8025539853467694
0.3759674721062092 0.39699394968375823 0.804292331196206
0.3807255206124017 0.5214926233439692 0.8711929866727716
0.480126227060121 0.4251518944436489 0.8938506028949723
0.5213958029600827 0.5185492317785025 0.8025539853467694
0.5759674721062091 0.39699394968375823 0.804292331196206
0.5807255206124017 0.5214926233439692 0.8711929866727716
0.6801262270601209 0.4251518944436489 0.8938506028949723
0.7213958029600827 0.5185492317785025 0.8025539853467694
0.7759674721062092 0.39699394968375823 0.804292331196206
0.7807255206124017 0.5214926233439692 0.8711929866727716
0.8801262270601211 0.4251518944436489 0.8938506028949723
0.9213958029600827 0.5185492317785025 0.8025539853467694
-0.024032527893790838 0.5969939496837583 0.804292331196206
-0.019274479387598298 0.7214926233439692 0.8711929866727716
0.08012622706012096 0.6251518944436489 0.8938506028949723
0.1213958029600827 0.7185492317785025 0.8025539853467694
0.17596747210620917 0.5969939496837583 0.804292331196206
0.1807255206124017 0.7214926233439692 0.8711929866727716
0.28012622706012097 0.6251518944436489 0.8938506028949723
0.32139580296008274 0.7185492317785025 0.8025539853467694
0.3759674721062092 0.5969939496837583 0.804292331196206
0.3807255206124017 0.7214926233439692 0.8711929866727716
0.480126227060121 0.6251518944436489 0.8938506028949723
0.5213958029600827 0.7185492317785025 0.8025539853467694
0.5759674721062091 0.5969939496837583 0.804292331196206
0.5807255206124017 0.7214926233439692 0.8711929866727716
0.6801262270601209 0.6251518944436489 0.8938506028949723
0.7213958029600827 0.7185492317785025 0.8025539853467694
0.7759674721062092 0.5969939496837583 0.804292331196206
0.7807255206124017 0.7214926233439692 0.8711929866727716
0.8801262270601211 0.6251518944436489 0.8938506028949723
0.9213958029600827 0.7185492317785025 0.8025539853467694
-0.024032527893790838 0.7969939496837584 0.804292331196206
-0.019274479387598298 0.9214926233439693 0.8711929866727716
0.08012622706012096 0.8251518944436489 0.8938506028949723
0.1213958029600827 0.9185492317785026 0.8025539853467694
0.17596747210620917 0.7969939496837584 0.804292331196206
0.1807255206124017 0.9214926233439693 0.8711929866727716
0.28012622706012097 0.8251518944436489 0.8938506028949723
0.32139580296008274 0.9185492317785026 0.8025539853467694
0.3759674721062092 0.7969939496837584 0.804292331196206
0.3807255206124017 0.9214926233439693 0.8711929866727716
0.480126227060121 0.8251518944436489 0.8938506028949723
0.5213958029600827 0.9185492317785026 0.8025539853467694
0.5759674721062091 0.7969939496837584 0.804292331196206
0.5807255206124017 0.9214926233439693 0.8711929866727716
0.6801262270601209 0.8251518944436489 0.8938506028949723
0.7213958029600827 0.9185492317785026 0.8025539853467694
0.7759674721062092 0.7969939496837584 0.804292331196206
0.7807255206124017 0.9214926233439693 0.8711929866727716
0.8801262270601211 0.8251518944436489 0.8938506028949723
0.9213958029600827 0.9185492317785026 0.8025539853467694
0.07563314225327651 0.01141077531696849 -0.017713626260643166
0.00397313967781802 0.11565067943242052 0.007546268974687711
-0.027188504232585238 -0.009735405978695263 0.10978146124600696
0.0985543724824997 0.115303281342603 0.1040920325718129
0.2756331422532765 0.01141077531696849 -0.017713626260643166
0.20397313967781805 0.11565067943242052 0.007546268974687711
0.17281149576741478 -0.009735405978695263 0.10978146124600696
0.29855437248249966 0.115303281342603 0.1040920325718129
0.4756331422532766 0.01141077531696849 -0.017713626260643166
0.403973139677818 0.11565067943242052 0.007546268974687711
0.3728114957674148 -0.009735405978695263 0.10978146124600696
0.49855437248249973 0.115303281342603 0.1040920325718129
0.6756331422532766 0.01141077531696849 -0.017713626260643166
0.6039731396778181 0.11565067943242052 0.007546268974687711
0.5728114957674147 -0.009735405978695263 0.10978146124600696
0.6985543724824997 0.115303281342603 0.1040920325718129
0.8756331422532766 0.01141077531696849 -0.017713626260643166
0.803973139677818 0.11565067943242052 0.007546268974687711
0.7728114957674148 -0.009735405978695263 0.10978146124600696
0.8985543724824997 0.115303281342603 0.1040920325718129
0.07563314225327651 0.2114107753169685 -0.017713626260643166
0.00397313967781802 0.31565067943242053 0.007546268974687711
-0.027188504232585238 0.19026459402130474 0.10978146124600696
0.0985543724824997 0.31530328134260305 0.1040920325718129
0.2756331422532765 0.2114107753169685 -0.017713626260643166
0.20397313967781805 0.31565067943242053 0.007546268974687711
0.17281149576741478 0.19026459402130474 0.10978146124600696
0.29855437248249966 0.31530328134260305 0.1040920325718129
0.4756331422532766 0.2114107753169685 -0.017713626260643166
0.403973139677818 0.31565067943242053 0.007546268974687711
0.3728114957674148 0.19026459402130474 0.10978146124600696
0.49855437248249973 0.31530328134260305 0.1040920325718129
0.6756331422532766 0.2114107753169685 -0.017713626260643166
0.6039731396778181 0.31565067943242053 0.007546268974687711
0.5728114957674147 0.19026459402130474 0.10978146124600696
0.6985543724824997 0.31530328134260305 0.1040920325718129
0.8756331422532766 0.2114107753169685 -0.017713626260643166
0.803973139677818 0.31565067943242053 0.007546268974687711
0.7728114957674148 0.19026459402130474 0.10978146124600696
0.8985543724824997 0.31530328134260305 0.1040920325718129
0.07563314225327651 0.41141077531696846 -0.017713626260643166
0.00397313967781802 0.5156506794324205 0.007546268974687711
-0.027188504232585238 0.39026459402130476 0.10978146124600696
0.0985543724824997 0.5153032813426031 0.1040920325718129
0.2756331422532765 0.41141077531696846 -0.017713626260643166
0.20397313967781805 0.5156506794324205 0.007546268974687711
0.17281149576741478 0.39026459402130476 0.10978146124600696
0.29855437248249966 0.5153032813426031 0.1040920325718129
0.4756331422532766 0.41141077531696846 -0.017713626260643166
0.403973139677818 0.5156506794324205 0.007546268974687711
0.3728114957674148 0.39026459402130476 0.10978146124600696
0.49855437248249973 0.5153032813426031 0.1040920325718129
0.6756331422532766 0.41141077531696846 -0.017713626260643166
0.6039731396778181 0.5156506794324205 0.007546268974687711
0.5728114957674147 0.39026459402130476 0.10978146124600696
0.6985543724824997 0.5153032813426031 0.1040920325718129
0.8756331422532766 0.41141077531696846 -0.017713626260643166
0.803973139677818 0.5156506794324205 0.007546268974687711
0.7728114957674148 0.39026459402130476 0.10978146124600696
0.8985543724824997 0.5153032813426031 0.1040920325718129
0.07563314225327651 0.6114107753169685 -0.017713626260643166
0.00397313967781802 0.7156506794324206 0.007546268974687711
-0.027188504232585238 0.5902645940213048 0.10978146124600696
0.0985543724824997 0.715303281342603 0.1040920325718129
0.2756331422532765 0.6114107753169685 -0.017713626260643166
0.20397313967781805 0.7156506794324206 0.007546268974687711
0.17281149576741478 0.5902645940213048 0.10978146124600696
0.29855437248249966 0.715303281342603 0.1040920325718129
0.4756331422532766 0.6114107753169685 -0.017713626260643166
0.403973139677818 0.7156506794324206 0.007546268974687711
0.3728114957674148 0.5902645940213048 0.10978146124600696
0.49855437248249973 0.715303281342603 0.1040920325718129
0.6756331422532766 0.6114107753169685 -0.017713626260643166
0.6039731396778181 0.7156506794324206 0.007546268974687711
0.5728114957674147 0.5902645940213048 0.10978146124600696
0.6985543724824997 0.715303281342603 0.1040920325718129
0.8756331422532766 0.6114107753169685 -0.017713626260643166
0.803973139677818 0.7156506794324206 0.007546268974687711
0.7728114957674148 0.5902645940213048 0.10978146124600696
0.8985543724824997 0.715303281342603 0.1040920325718129
0.07563314225327651 0.8114107753169686 -0.017713626260643166
0.00397313967781802 0.9156506794324205 0.007546268974687711
-0.027188504232585238 0.7902645940213048 0.10978146124600696
0.0985543724824997 0.9153032813426031 0.1040920325718129
0.2756331422532765 0.8114107753169686 -0.017713626260643166
0.20397313967781805 0.9156506794324205 0.007546268974687711
0.17281149576741478 0.7902645940213048 0.10978146124600696
0.29855437248249966 0.9153032813426031 0.1040920325718129
0.4756331422532766 0.8114107753169686 -0.017713626260643166
0.403973139677818 0.9156506794324205 0.007546268974687711
0.3728114957674148 0.7902645940213048 0.10978146124600696
0.49855437248249973 0.9153032813426031 0.1040920325718129
0.6756331422532766 0.8114107753169686 -0.017713626260643166
0.6039731396778181 0.9156506794324205 0.007546268974687711
0.5728114957674147 0.7902645940213048 0.10978146124600696
0.6985543724824997 0.9153032813426031 0.1040920325718129
0.8756331422532766 0.8114107753169686 -0.017713626260643166
0.803973139677818 0.9156506794324205 0.007546268974687711
0.7728114957674148 0.7902645940213048 0.10978146124600696
0.8985543724824997 0.9153032813426031 0.1040920325718129
0.07563314225327651 0.01141077531696849 0.18228637373935686
0.00397313967781802 0.11565067943242052 0.20754626897468775
-0.027188504232585238 -0.009735405978695263 0.30978146124600703
0.0985543724824997 0.115303281342603 0.3040920325718129
0.2756331422532765 0.01141077531696849 0.18228637373935686
0.20397313967781805 0.11565067943242052 0.20754626897468775
0.17281149576741478 -0.009735405978695263 0.30978146124600703
0.29855437248249966 0.115303281342603 0.3040920325718129
0.4756331422532766 0.01141077531696849 0.18228637373935686
0.403973139677818 0.11565067943242052 0.20754626897468775
0.3728114957674148 -0.009735405978695263 0.30978146124600703
0.49855437248249973 0.115303281342603 0.3040920325718129
0.6756331422532766 0.01141077531696849 0.18228637373935686
0.6039731396778181 0.11565067943242052 0.20754626897468775
0.5728114957674147 -0.009735405978695263 0.30978146124600703
0.6985543724824997 0.115303281342603 0.3040920325718129
0.8756331422532766 0.01141077531696849 0.18228637373935686
0.803973139677818 0.11565067943242052 0.20754626897468775
0.7728114957674148 -0.009735405978695263 0.30978146124600703
0.8985543724824997 0.115303281342603 0.3040920325718129
0.07563314225327651 0.2114107753169685 0.18228637373935686
0.00397313967781802 0.31565067943242053 0.20754626897468775
-0.027188504232585238 0.19026459402130474 0.30978146124600703
0.0985543724824997 0.31530328134260305 0.3040920325718129
0.2756331422532765 0.2114107753169685 0.18228637373935686
0.20397313967781805 0.31565067943242053 0.20754626897468775
0.17281149576741478 0.19026459402130474 0.30978146124600703
0.29855437248249966 0.31530328134260305 0.3040920325718129
0.4756331422532766 0.2114107753169685 0.18228637373935686
0.403973139677818 0.31565067943242053 0.20754626897468775
0.3728114957674148 0.19026459402130474 0.30978146124600703
0.49855437248249973 0.31530328134260305 0.3040920325718129
0.6756331422532766 0.2114107753169685 0.18228637373935686
0.6039731396778181 0.31565067943242053 0.20754626897468775
0.5728114957674147 0.19026459402130474 0.30978146124600703
0.6985543724824997 0.31530328134260305 0.3040920325718129
0.8756331422532766 0.2114107753169685 0.18228637373935686
0.803973139677818 0.31565067943242053 0.20754626897468775
0.7728114957674148 0.19026459402130474 0.30978146124600703
0.8985543724824997 0.31530328134260305 0.3040920325718129
0.07563314225327651 0.41141077531696846 0.18228637373935686
0.00397313967781802 0.5156506794324205 0.20754626897468775
-0.027188504232585238 0.39026459402130476 0.30978146124600703
0.0985543724824997 0.5153032813426031 0.3040920325718129
0.2756331422532765 0.41141077531696846 0.18228637373935686
0.20397313967781805 0.5156506794324205 0.20754626897468775
0.17281149576741478 0.39026459402130476 0.30978146124600703
0.29855437248249966 0.5153032813426031 0.3040920325718129
0.4756331422532766 0.41141077531696846 0.18228637373935686
0.403973139677818 0.5156506794324205 0.20754626897468775
0.3728114957674148 0.39026459402130476 0.30978146124600703
0.49855437248249973 0.5153032813426031 0.3040920325718129
0.6756331422532766 0.41141077531696846 0.18228637373935686
0.6039731396778181 0.5156506794324205 0.20754626897468775
0.5728114957674147 0.39026459402130476 0.30978146124600703
0.6985543724824997 0.5153032813426031 0.3040920325718129
0.8756331422532766 0.41141077531696846 0.18228637373935686
0.803973139677818 0.5156506794324205 0.20754626897468775
0.7728114957674148 0.39026459402130476 0.30978146124600703
0.8985543724824997 0.5153032813426031 0.3040920325718129
0.07563314225327651 0.6114107753169685 0.18228637373935686
0.00397313967781802 0.7156506794324206 0.20754626897468775
-0.027188504232585238 0.5902645940213048 0.30978146124600703
0.0985543724824997 0.715303281342603 0.3040920325718129
0.2756331422532765 0.6114107753169685 0.18228637373935686
0.20397313967781805 0.7156506794324206 0.20754626897468775
0.17281149576741478 0.5902645940213048 0.30978146124600703
0.29855437248249966 0.715303281342603 0.3040920325718129
0.4756331422532766 0.6114107753169685 0.18228637373935686
0.403973139677818 0.7156506794324206 0.20754626897468775
0.3728114957674148 0.5902645940213048 0.30978146124600703
0.49855437248249973 0.715303281342603 0.3040920325718129
0.6756331422532766 0.6114107753169685 0.18228637373935686
0.6039731396778181 0.7156506794324206 0.20754626897468775
0.5728114957674147 0.5902645940213048 0.30978146124600703
0.6985543724824997 0.715303281342603 0.3040920325718129
0.8756331422532766 0.6114107753169685 0.18228637373935686
0.803973139677818 0.7156506794324206 0.20754626897468775
0.7728114957674148 0.5902645940213048 0.30978146124600703
0.8985543724824997 0.715303281342603 0.3040920325718129
0.07563314225327651 0.8114107753169686 0.18228637373935686
0.00397313967781802 0.9156506794324205 0.20754626897468775
-0.027188504232585238 0.7902645940213048 0.30978146124600703
0.0985543724824997 0.9153032813426031 0.3040920325718129
0.2756331422532765 0.8114107753169686 0.18228637373935686
0.20397313967781805 0.9156506794324205 0.20754626897468775
0.17281149576741478 0.7902645940213048 0.30978146124600703
0.29855437248249966 0.9153032813426031 0.3040920325718129
0.4756331422532766 0.8114107753169686 0.18228637373935686
0.403973139677818 0.9156506794324205 0.20754626897468775
0.3728114957674148 0.7902645940213048 0.30978146124600703
0.49855437248249973 0.9153032813426031 0.3040920325718129
0.6756331422532766 0.8114107753169686 0.18228637373935686
0.6039731396778181 0.9156506794324205 0.20754626897468775
0.5728114957674147 0.7902645940213048 0.30978146124600703
0.6985543724824997 0.9153032813426031 0.3040920325718129
0.8756331422532766 0.8114107753169686 0.18228637373935686
0.803973139677818 0.9156506794324205 0.20754626897468775
0.7728114957674148 0.7902645940213048 0.30978146124600703
0.8985543724824997 0.9153032813426031 0.3040920325718129
0.07563314225327651 0.01141077531696849 0.38228637373935687
0.00397313967781802 0.11565067943242052 0.40754626897468776
-0.027188504232585238 -0.009735405978695263 0.509781461246007
0.0985543724824997 0.115303281342603 0.5040920325718129
0.2756331422532765 0.01141077531696849 0.38228637373935687
0.20397313967781805 0.11565067943242052 0.40754626897468776
0.17281149576741478 -0.009735405978695263 0.509781461246007
0.29855437248249966 0.115303281342603 0.5040920325718129
0.4756331422532766 0.01141077531696849 0.38228637373935687
0.403973139677818 0.11565067943242052 0.40754626897468776
0.3728114957674148 -0.009735405978695263 0.509781461246007
0.49855437248249973 0.115303281342603 0.5040920325718129
0.6756331422532766 0.01141077531696849 0.38228637373935687
0.6039731396778181 0.11565067943242052 0.40754626897468776
0.5728114957674147 -0.009735405978695263 0.509781461246007
0.6985543724824997 0.115303281342603 0.5040920325718129
0.8756331422532766 0.01141077531696849 0.38228637373935687
0.803973139677818 0.11565067943242052 0.40754626897468776
0.7728114957674148 -0.009735405978695263 0.509781461246007
0.8985543724824997 0.115303281342603 0.5040920325718129
0.07563314225327651 0.2114107753169685 0.38228637373935687
0.00397313967781802 0.31565067943242053 0.40754626897468776
-0.027188504232585238 0.19026459402130474 0.509781461246007
0.0985543724824997 0.31530328134260305 0.5040920325718129
0.2756331422532765 0.2114107753169685 0.38228637373935687
0.20397313967781805 0.31565067943242053 0.40754626897468776
0.17281149576741478 0.19026459402130474 0.509781461246007
0.29855437248249966 0.31530328134260305 0.5040920325718129
0.4756331422532766 0.2114107753169685 0.38228637373935687
0.403973139677818 0.31565067943242053 0.40754626897468776
0.3728114957674148 0.19026459402130474 0.509781461246007
0.49855437248249973 0.31530328134260305 0.5040920325718129
0.6756331422532766 0.2114107753169685 0.38228637373935687
0.6039731396778181 0.31565067943242053 0.40754626897468776
0.5728114957674147 0.19026459402130474 0.509781461246007
0.6985543724824997 0.31530328134260305 0.5040920325718129
0.8756331422532766 0.2114107753169685 0.38228637373935687
0.803973139677818 0.31565067943242053 0.40754626897468776
0.7728114957674148 0.19026459402130474 0.509781461246007
0.8985543724824997 0.31530328134260305 0.5040920325718129
0.07563314225327651 0.41141077531696846 0.38228637373935687
0.00397313967781802 0.5156506794324205 0.40754626897468776
-0.027188504232585238 0.39026459402130476 0.509781461246007
0.0985543724824997 0.5153032813426031 0.5040920325718129
0.2756331422532765 0.41141077531696846 0.38228637373935687
0.20397313967781805 0.5156506794324205 0.40754626897468776
0.17281149576741478 0.39026459402130476 0.509781461246007
0.29855437248249966 0.5153032813426031 0.5040920325718129
0.4756331422532766 0.41141077531696846 0.38228637373935687
0.403973139677818 0.5156506794324205 0.40754626897468776
0.3728114957674148 0.39026459402130476 0.509781461246007
0.49855437248249973 0.5153032813426031 0.5040920325718129
0.6756331422532766 0.41141077531696846 0.38228637373935687
0.6039731396778181 0.5156506794324205 0.40754626897468776
0.5728114957674147 0.39026459402130476 0.509781461246007
0.6985543724824997 0.5153032813426031 0.5040920325718129
0.8756331422532766 0.41141077531696846 0.38228637373935687
0.803973139677818 0.5156506794324205 0.40754626897468776
0.7728114957674148 0.39026459402130476 0.509781461246007
0.8985543724824997 0.5153032813426031 0.5040920325718129
0.07563314225327651 0.6114107753169685 0.38228637373935687
0.00397313967781802 0.7156506794324206 0.40754626897468776
-0.027188504232585238 0.5902645940213048 0.509781461246007
0.0985543724824997 0.715303281342603 0.5040920325718129
0.2756331422532765 0.6114107753169685 0.38228637373935687
0.20397313967781805 0.7156506794324206 0.40754626897468776
0.17281149576741478 0.5902645940213048 0.509781461246007
0.29855437248249966 0.715303281342603 0.5040920325718129
0.4756331422532766 0.6114107753169685 0.38228637373935687
0.403973139677818 0.7156506794324206 0.40754626897468776
0.3728114957674148 0.5902645940213048 0.509781461246007
0.49855437248249973 0.715303281342603 0.5040920325718129
0.6756331422532766 0.6114107753169685 0.38228637373935687
0.6039731396778181 0.7156506794324206 0.40754626897468776
0.5728114957674147 0.5902645940213048 0.509781461246007
0.6985543724824997 0.715303281342603 0.5040920325718129
0.8756331422532766 0.6114107753169685 0.38228637373935687
0.803973139677818 0.7156506794324206 0.40754626897468776
0.7728114957674148 0.5902645940213048 0.509781461246007
0.8985543724824997 0.715303281342603 0.5040920325718129
0.07563314225327651 0.8114107753169686 0.38228637373935687
0.00397313967781802 0.9156506794324205 0.40754626897468776
-0.027188504232585238 0.7902645940213048 0.509781461246007
0.0985543724824997 0.9153032813426031 0.5040920325718129
0.2756331422532765 0.8114107753169686 0.38228637373935687
0.20397313967781805 0.9156506794324205 0.40754626897468776
0.17281149576741478 0.7902645940213048 0.509781461246007
0.29855437248249966 0.9153032813426031 0.5040920325718129
0.4756331422532766 0.8114107753169686 0.38228637373935687
0.403973139677818 0.9156506794324205 0.40754626897468776
0.3728114957674148 0.7902645940213048 0.509781461246007
0.49855437248249973 0.9153032813426031 0.5040920325718129
0.6756331422532766 0.8114107753169686 0.38228637373935687
0.6039731396778181 0.9156506794324205 0.40754626897468776
0.5728114957674147 0.7902645940213048 0.509781461246007
0.6985543724824997 0.9153032813426031 0.5040920325718129
0.8756331422532766 0.8114107753169686 0.38228637373935687
0.803973139677818 0.9156506794324205 0.40754626897468776
0.7728114957674148 0.7902645940213048 0.509781461246007
0.8985543724824997 0.9153032813426031 0.5040920325718129
0.07563314225327651 0.01141077531696849 0.5822863737393569
0.00397313967781802 0.11565067943242052 0.6075462689746878
-0.027188504232585238 -0.009735405978695263 0.709781461246007
0.0985543724824997 0.115303281342603 0.704092032571813
0.2756331422532765 0.01141077531696849 0.5822863737393569
0.20397313967781805 0.11565067943242052 0.6075462689746878
0.17281149576741478 -0.009735405978695263 0.709781461246007
0.29855437248249966 0.115303281342603 0.704092032571813
0.4756331422532766 0.01141077531696849 0.5822863737393569
0.403973139677818 0.11565067943242052 0.6075462689746878
0.3728114957674148 -0.009735405978695263 0.709781461246007
0.49855437248249973 0.115303281342603 0.704092032571813
0.6756331422532766 0.01141077531696849 0.5822863737393569
0.6039731396778181 0.11565067943242052 0.6075462689746878
0.5728114957674147 -0.009735405978695263 0.709781461246007
0.6985543724824997 0.115303281342603 0.704092032571813
0.8756331422532766 0.01141077531696849 0.5822863737393569
0.803973139677818 0.11565067943242052 0.6075462689746878
0.7728114957674148 -0.009735405978695263 0.709781461246007
0.8985543724824997 0.115303281342603 0.704092032571813
0.07563314225327651 0.2114107753169685 0.5822863737393569
0.00397313967781802 0.31565067943242053 0.6075462689746878
-0.027188504232585238 0.19026459402130474 0.709781461246007
0.0985543724824997 0.31530328134260305 0.704092032571813
0.2756331422532765 0.2114107753169685 0.5822863737393569
0.20397313967781805 0.31565067943242053 0.6075462689746878
0.17281149576741478 0.19026459402130474 0.709781461246007
0.29855437248249966 0.31530328134260305 0.704092032571813
0.4756331422532766 0.2114107753169685 0.5822863737393569
0.403973139677818 0.31565067943242053 0.6075462689746878
0.3728114957674148 0.19026459402130474 0.709781461246007
0.49855437248249973 0.31530328134260305 0.704092032571813
0.6756331422532766 0.2114107753169685 0.5822863737393569
0.6039731396778181 0.31565067943242053 0.6075462689746878
0.5728114957674147 0.19026459402130474 0.709781461246007
0.6985543724824997 0.31530328134260305 0.704092032571813
0.8756331422532766 0.2114107753169685 0.5822863737393569
0.803973139677818 0.31565067943242053 0.6075462689746878
0.7728114957674148 0.19026459402130474 0.709781461246007
0.8985543724824997 0.31530328134260305 0.704092032571813
0.07563314225327651 0.41141077531696846 0.5822863737393569
0.00397313967781802 0.5156506794324205 0.6075462689746878
-0.027188504232585238 0.39026459402130476 0.709781461246007
0.0985543724824997 0.5153032813426031 0.704092032571813
0.2756331422532765 0.41141077531696846 0.5822863737393569
0.20397313967781805 0.5156506794324205 0.6075462689746878
0.17281149576741478 0.39026459402130476 0.709781461246007
0.29855437248249966 0.5153032813426031 0.704092032571813
0.4756331422532766 0.41141077531696846 0.5822863737393569
0.403973139677818 0.5156506794324205 0.6075462689746878
0.3728114957674148 0.39026459402130476 0.709781461246007
0.49855437248249973 0.5153032813426031 0.704092032571813
0.6756331422532766 0.41141077531696846 0.5822863737393569
0.6039731396778181 0.5156506794324205 0.6075462689746878
0.5728114957674147 0.39026459402130476 0.709781461246007
0.6985543724824997 0.5153032813426031 0.704092032571813
0.8756331422532766 0.41141077531696846 0.5822863737393569
0.803973139677818 0.5156506794324205 0.6075462689746878
0.7728114957674148 0.39026459402130476 0.709781461246007
0.8985543724824997 0.5153032813426031 0.704092032571813
0.07563314225327651 0.6114107753169685 0.5822863737393569
0.00397313967781802 0.7156506794324206 0.6075462689746878
-0.027188504232585238 0.5902645940213048 0.709781461246007
0.0985543724824997 0.715303281342603 0.704092032571813
0.2756331422532765 0.6114107753169685 0.5822863737393569
0.20397313967781805 0.7156506794324206 0.6075462689746878
0.17281149576741478 0.5902645940213048 0.709781461246007
0.29855437248249966 0.715303281342603 0.704092032571813
0.4756331422532766 0.6114107753169685 0.5822863737393569
0.403973139677818 0.7156506794324206 0.6075462689746878
0.3728114957674148 0.5902645940213048 0.709781461246007
0.49855437248249973 0.715303281342603 0.704092032571813
0.6756331422532766 0.6114107753169685 0.5822863737393569
0.6039731396778181 0.7156506794324206 0.6075462689746878
0.5728114957674147 0.5902645940213048 0.709781461246007
0.6985543724824997 0.715303281342603 0.704092032571813
0.8756331422532766 0.6114107753169685 0.5822863737393569
0.803973139677818 0.7156506794324206 0.6075462689746878
0.7728114957674148 0.5902645940213048 0.709781461246007
0.8985543724824997 0.715303281342603 0.704092032571813
0.07563314225327651 0.8114107753169686 0.5822863737393569
0.00397313967781802 0.9156506794324205 0.6075462689746878
-0.027188504232585238 0.7902645940213048 0.709781461246007
0.0985543724824997 0.9153032813426031 0.704092032571813
0.2756331422532765 0.8114107753169686 0.5822863737393569
0.20397313967781805 0.9156506794324205 0.6075462689746878
0.17281149576741478 0.7902645940213048 0.709781461246007
0.29855437248249966 0.9153032813426031 0.704092032571813
0.4756331422532766 0.8114107753169686 0.5822863737393569
0.403973139677818 0.9156506794324205 0.6075462689746878
0.3728114957674148 0.7902645940213048 0.709781461246007
0.49855437248249973 0.9153032813426031 0.704092032571813
0.6756331422532766 0.8114107753169686 0.5822863737393569
0.6039731396778181 0.9156506794324205 0.6075462689746878
0.5728114957674147 0.7902645940213048 0.709781461246007
0.6985543724824997 0.9153032813426031 0.704092032571813
0.8756331422532766 0.8114107753169686 0.5822863737393569
0.803973139677818 0.9156506794324205 0.6075462689746878
0.7728114957674148 0.7902645940213048 0.709781461246007
0.8985543724824997 0.9153032813426031 0.704092032571813
0.07563314225327651 0.01141077531696849 0.7822863737393568
0.00397313967781802 0.11565067943242052 0.8075462689746877
-0.027188504232585238 -0.009735405978695263 0.909781461246007
0.0985543724824997 0.115303281342603 0.904092032571813
0.2756331422532765 0.01141077531696849 0.7822863737393568
0.20397313967781805 0.11565067943242052 0.8075462689746877
0.17281149576741478 -0.009735405978695263 0.909781461246007
0.29855437248249966 0.115303281342603 0.904092032571813
0.4756331422532766 0.01141077531696849 0.7822863737393568
0.403973139677818 0.11565067943242052 0.8075462689746877
0.3728114957674148 -0.009735405978695263 0.909781461246007
0.49855437248249973 0.115303281342603 0.904092032571813
0.6756331422532766 0.01141077531696849 0.7822863737393568
0.6039731396778181 0.11565067943242052 0.8075462689746877
0.5728114957674147 -0.009735405978695263 0.909781461246007
0.6985543724824997 0.115303281342603 0.904092032571813
0.8756331422532766 0.01141077531696849 0.7822863737393568
0.803973139677818 0.11565067943242052 0.8075462689746877
0.7728114957674148 -0.009735405978695263 0.909781461246007
0.8985543724824997 0.115303281342603 0.904092032571813
0.07563314225327651 0.2114107753169685 0.7822863737393568
0.00397313967781802 0.31565067943242053 0.8075462689746877
-0.027188504232585238 0.19026459402130474 0.909781461246007
0.0985543724824997 0.31530328134260305 0.904092032571813
0.2756331422532765 0.2114107753169685 0.7822863737393568
0.20397313967781805 0.31565067943242053 0.8075462689746877
0.17281149576741478 0.19026459402130474 0.909781461246007
0.29855437248249966 0.31530328134260305 0.904092032571813
0.4756331422532766 0.2114107753169685 0.7822863737393568
0.403973139677818 0.31565067943242053 0.8075462689746877
0.3728114957674148 0.19026459402130474 0.909781461246007
0.49855437248249973 0.31530328134260305 0.904092032571813
0.6756331422532766 0.2114107753169685 0.7822863737393568
0.6039731396778181 0.31565067943242053 0.8075462689746877
0.5728114957674147 0.19026459402130474 0.909781461246007
0.6985543724824997 0.31530328134260305 0.904092032571813
0.8756331422532766 0.2114107753169685 0.7822863737393568
0.803973139677818 0.31565067943242053 0.8075462689746877
0.7728114957674148 0.19026459402130474 0.909781461246007
0.8985543724824997 0.31530328134260305 0.904092032571813
0.07563314225327651 0.41141077531696846 0.7822863737393568
0.00397313967781802 0.5156506794324205 0.8075462689746877
-0.027188504232585238 0.39026459402130476 0.909781461246007
0.0985543724824997 0.5153032813426031 0.904092032571813
0.2756331422532765 0.41141077531696846 0.7822863737393568
0.20397313967781805 0.5156506794324205 0.8075462689746877
0.17281149576741478 0.39026459402130476 0.909781461246007
0.29855437248249966 0.5153032813426031 0.904092032571813
0.4756331422532766 0.41141077531696846 0.7822863737393568
0.403973139677818 0.5156506794324205 0.8075462689746877
0.3728114957674148 0.39026459402130476 0.909781461246007
0.49855437248249973 0.5153032813426031 0.904092032571813
0.6756331422532766 0.41141077531696846 0.7822863737393568
0.6039731396778181 0.5156506794324205 0.8075462689746877
0.5728114957674147 0.39026459402130476 0.909781461246007
0.6985543724824997 0.5153032813426031 0.904092032571813
0.8756331422532766 0.41141077531696846 0.7822863737393568
0.803973139677818 0.5156506794324205 0.8075462689746877
0.7728114957674148 0.39026459402130476 0.909781461246007
0.8985543724824997 0.5153032813426031 0.904092032571813
0.07563314225327651 0.6114107753169685 0.7822863737393568
0.00397313967781802 0.7156506794324206 0.8075462689746877
-0.027188504232585238 0.5902645940213048 0.909781461246007
0.0985543724824997 0.715303281342603 0.904092032571813
0.2756331422532765 0.6114107753169685 0.7822863737393568
0.20397313967781805 0.7156506794324206 0.8075462689746877
0.17281149576741478 0.5902645940213048 0.909781461246007
0.29855437248249966 0.715303281342603 0.904092032571813
0.4756331422532766 0.6114107753169685 0.7822863737393568
0.403973139677818 0.7156506794324206 0.8075462689746877
0.3728114957674148 0.5902645940213048 0.909781461246007
0.49855437248249973 0.715303281342603 0.904092032571813
0.6756331422532766 0.6114107753169685 0.7822863737393568
0.6039731396778181 0.7156506794324206 0.8075462689746877
0.5728114957674147 0.5902645940213048 0.909781461246007
0.6985543724824997 0.715303281342603 0.904092032571813
0.8756331422532766 0.6114107753169685 0.7822863737393568
0.803973139677818 0.7156506794324206 0.8075462689746877
0.7728114957674148 0.5902645940213048 0.909781461246007
0.8985543724824997 0.715303281342603 0.904092032571813
0.07563314225327651 0.8114107753169686 0.7822863737393568
0.00397313967781802 0.9156506794324205 0.8075462689746877
-0.027188504232585238 0.7902645940213048 0.909781461246007
0.0985543724824997 0.9153032813426031 0.904092032571813
0.2756331422532765 0.8114107753169686 0.7822863737393568
0.20397313967781805 0.9156506794324205 0.8075462689746877
0.17281149576741478 0.7902645940213048 0.909781461246007
0.29855437248249966 0.9153032813426031 0.904092032571813
0.4756331422532766 0.8114107753169686 0.7822863737393568
0.403973139677818 0.9156506794324205 0.8075462689746877
0.3728114957674148 0.7902645940213048 0.909781461246007
0.49855437248249973 0.9153032813426031 0.904092032571813
0.6756331422532766 0.8114107753169686 0.7822863737393568
0.6039731396778181 0.9156506794324205 0.8075462689746877
0.5728114957674147 0.7902645940213048 0.909781461246007
0.6985543724824997 0.9153032813426031 0.904092032571813
0.8756331422532766 0.8114107753169686 0.7822863737393568
0.803973139677818 0.9156506794324205 0.8075462689746877
0.7728114957674148 0.7902645940213048 0.909781461246007
0.8985543724824997 0.9153032813426031 0.904092032571813
