FCC BaO
5.61604
3.0 0.0 0.0
0.0 3.0 0.0
0.0 0.0 3.0
Ba O 
108 108 
Direct
-0.2279426357281056 -0.012490617597705436 0.22889092490451293
-0.11720822636645607 0.18166641449745297 -0.22101970808380778
0.5251406732366303 0.3382072692121321 0.09923720039188483
0.03680751419768009 0.10021456633067768 -0.001778209227339629
0.1053906976052277 -0.012490617597705436 0.22889092490451293
0.21612510696687726 0.18166641449745297 -0.22101970808380778
0.8584740065699636 0.3382072692121321 0.09923720039188483
0.3701408475310134 0.10021456633067768 -0.001778209227339629
0.438724030938561 -0.012490617597705436 0.22889092490451293
0.5494584403002105 0.18166641449745297 -0.22101970808380778
1.191807339903297 0.3382072692121321 0.09923720039188483
0.7034741808643467 0.10021456633067768 -0.001778209227339629
-0.2279426357281056 0.3208427157356279 0.22889092490451293
-0.11720822636645607 0.5149997478307863 -0.22101970808380778
0.5251406732366303 0.6715406025454654 0.09923720039188483
0.03680751419768009 0.433547899664011 -0.001778209227339629
0.1053906976052277 0.3208427157356279 0.22889092490451293
0.21612510696687726 0.5149997478307863 -0.22101970808380778
0.8584740065699636 0.6715406025454654 0.09923720039188483
0.3701408475310134 0.433547899664011 -0.001778209227339629
0.438724030938561 0.3208427157356279 0.22889092490451293
0.5494584403002105 0.5149997478307863 -0.22101970808380778
1.191807339903297 0.6715406025454654 0.09923720039188483
0.7034741808643467 0.433547899664011 -0.001778209227339629
-0.2279426357281056 0.6541760490689612 0.22889092490451293
-0.11720822636645607 0.8483330811641197 -0.22101970808380778
0.5251406732366303 1.0048739358787988 0.09923720039188483
0.03680751419768009 0.7668812329973443 -0.001778209227339629
0.1053906976052277 0.6541760490689612 0.22889092490451293
0.21612510696687726 0.8483330811641197 -0.22101970808380778
0.8584740065699636 1.0048739358787988 0.09923720039188483
0.3701408475310134 0.7668812329973443 -0.001778209227339629
0.438724030938561 0.6541760490689612 0.22889092490451293
0.5494584403002105 0.8483330811641197 -0.22101970808380778
1.191807339903297 1.0048739358787988 0.09923720039188483
0.7034741808643467 0.7668812329973443 -0.001778209227339629
-0.2279426357281056 -0.012490617597705436 0.5622242582378463
-0.11720822636645607 0.18166641449745297 0.11231362524952555
0.5251406732366303 0.3382072692121321 0.43257053372521814
0.03680751419768009 0.10021456633067768 0.3315551241059937
0.1053906976052277 -0.012490617597705436 0.5622242582378463
0.21612510696687726 0.18166641449745297 0.11231362524952555
0.8584740065699636 0.3382072692121321 0.43257053372521814
0.3701408475310134 0.10021456633067768 0.3315551241059937
0.438724030938561 -0.012490617597705436 0.5622242582378463
0.5494584403002105 0.18166641449745297 0.11231362524952555
1.191807339903297 0.3382072692121321 0.43257053372521814
0.7034741808643467 0.10021456633067768 0.3315551241059937
-0.2279426357281056 0.3208427157356279 0.5622242582378463
-0.11720822636645607 0.5149997478307863 0.11231362524952555
0.5251406732366303 0.6715406025454654 0.43257053372521814
0.03680751419768009 0.433547899664011 0.3315551241059937
0.1053906976052277 0.3208427157356279 0.5622242582378463
0.21612510696687726 0.5149997478307863 0.11231362524952555
0.8584740065699636 0.6715406025454654 0.43257053372521814
0.3701408475310134 0.433547899664011 0.3315551241059937
0.438724030938561 0.3208427157356279 0.5622242582378463
0.5494584403002105 0.5149997478307863 0.11231362524952555
1.191807339903297 0.6715406025454654 0.43257053372521814
0.7034741808643467 0.433547899664011 0.3315551241059937
-0.2279426357281056 0.6541760490689612 0.5622242582378463
-0.11720822636645607 0.8483330811641197 0.11231362524952555
0.5251406732366303 1.0048739358787988 0.43257053372521814
0.03680751419768009 0.7668812329973443 0.3315551241059937
0.1053906976052277 0.6541760490689612 0.5622242582378463
0.21612510696687726 0.8483330811641197 0.11231362524952555
0.8584740065699636 1.0048739358787988 0.43257053372521814
0.3701408475310134 0.7668812329973443 0.3315551241059937
0.438724030938561 0.6541760490689612 0.5622242582378463
0.5494584403002105 0.8483330811641197 0.11231362524952555
1.191807339903297 1.0048739358787988 0.43257053372521814
0.7034741808643467 0.7668812329973443 0.3315551241059937
-0.2279426357281056 -0.012490617597705436 0.8955575915711795
-0.11720822636645607 0.18166641449745297 0.44564695858285885
0.5251406732366303 0.3382072692121321 0.7659038670585515
0.03680751419768009 0.10021456633067768 0.664888457439327
0.1053906976052277 -0.012490617597705436 0.8955575915711795
0.21612510696687726 0.18166641449745297 0.44564695858285885
0.8584740065699636 0.3382072692121321 0.7659038670585515
0.3701408475310134 0.10021456633067768 0.664888457439327
0.438724030938561 -0.012490617597705436 0.8955575915711795
0.5494584403002105 0.18166641449745297 0.44564695858285885
1.191807339903297 0.3382072692121321 0.7659038670585515
0.7034741808643467 0.10021456633067768 0.664888457439327
-0.2279426357281056 0.3208427157356279 0.8955575915711795
-0.11720822636645607 0.5149997478307863 0.44564695858285885
0.5251406732366303 0.6715406025454654 0.7659038670585515
0.03680751419768009 0.433547899664011 0.664888457439327
0.1053906976052277 0.3208427157356279 0.8955575915711795
0.21612510696687726 0.5149997478307863 0.44564695858285885
0.8584740065699636 0.6715406025454654 0.7659038670585515
0.3701408475310134 0.433547899664011 0.664888457439327
0.438724030938561 0.3208427157356279 0.8955575915711795
0.5494584403002105 0.5149997478307863 0.44564695858285885
1.191807339903297 0.6715406025454654 0.7659038670585515
0.7034741808643467 0.433547899664011 0.664888457439327
-0.2279426357281056 0.6541760490689612 0.8955575915711795
-0.11720822636645607 0.8483330811641197 0.44564695858285885
0.5251406732366303 1.0048739358787988 0.7659038670585515
0.03680751419768009 0.7668812329973443 0.664888457439327
0.1053906976052277 0.6541760490689612 0.8955575915711795
0.21612510696687726 0.8483330811641197 0.44564695858285885
0.8584740065699636 1.0048739358787988 0.7659038670585515
0.3701408475310134 0.7668812329973443 0.664888457439327
0.438724030938561 0.6541760490689612 0.8955575915711795
0.5494584403002105 0.8483330811641197 0.44564695858285885
1.191807339903297 1.0048739358787988 0.7659038670585515
0.7034741808643467 0.7668812329973443 0.664888457439327
0.44406161734262617 0.42185772580160585 -0.011182854613472723
-0.34312121014721564 0.058256782776577115 0.5860389212525952
-0.01862251693144697 -0.25385697650122785 0.38457960529238094
0.10581822415782022 0.29583514728664184 -0.027334065863099014
0.7773949506759594 0.42185772580160585 -0.011182854613472723
-0.009787876813882304 0.058256782776577115 0.5860389212525952
0.31471081640188636 -0.25385697650122785 0.38457960529238094
0.43915155749115353 0.29583514728664184 -0.027334065863099014
1.1107282840092927 0.42185772580160585 -0.011182854613472723
0.323545456519451 0.058256782776577115 0.5860389212525952
0.6480441497352196 -0.25385697650122785 0.38457960529238094
0.7724848908244868 0.29583514728664184 -0.027334065863099014
0.44406161734262617 0.7551910591349392 -0.011182854613472723
-0.34312121014721564 0.39159011610991046 0.5860389212525952
-0.01862251693144697 0.07947635683210544 0.38457960529238094
0.10581822415782022 0.6291684806199751 -0.027334065863099014
0.7773949506759594 0.7551910591349392 -0.011182854613472723
-0.009787876813882304 0.39159011610991046 0.5860389212525952
0.31471081640188636 0.07947635683210544 0.38457960529238094
0.43915155749115353 0.6291684806199751 -0.027334065863099014
1.1107282840092927 0.7551910591349392 -0.011182854613472723
0.323545456519451 0.39159011610991046 0.5860389212525952
0.6480441497352196 0.07947635683210544 0.38457960529238094
0.7724848908244868 0.6291684806199751 -0.027334065863099014
0.44406161734262617 1.0885243924682726 -0.011182854613472723
-0.34312121014721564 0.7249234494432437 0.5860389212525952
-0.01862251693144697 0.4128096901654388 0.38457960529238094
0.10581822415782022 0.9625018139533085 -0.027334065863099014
0.7773949506759594 1.0885243924682726 -0.011182854613472723
-0.009787876813882304 0.7249234494432437 0.5860389212525952
0.31471081640188636 0.4128096901654388 0.38457960529238094
0.43915155749115353 0.9625018139533085 -0.027334065863099014
1.1107282840092927 1.0885243924682726 -0.011182854613472723
0.323545456519451 0.7249234494432437 0.5860389212525952
0.6480441497352196 0.4128096901654388 0.38457960529238094
0.7724848908244868 0.9625018139533085 -0.027334065863099014
0.44406161734262617 0.42185772580160585 0.3221504787198606
-0.34312121014721564 0.058256782776577115 0.9193722545859284
-0.01862251693144697 -0.25385697650122785 0.7179129386257143
0.10581822415782022 0.29583514728664184 0.3059992674702343
0.7773949506759594 0.42185772580160585 0.3221504787198606
-0.009787876813882304 0.058256782776577115 0.9193722545859284
0.31471081640188636 -0.25385697650122785 0.7179129386257143
0.43915155749115353 0.29583514728664184 0.3059992674702343
1.1107282840092927 0.42185772580160585 0.3221504787198606
0.323545456519451 0.058256782776577115 0.9193722545859284
0.6480441497352196 -0.25385697650122785 0.7179129386257143
0.7724848908244868 0.29583514728664184 0.3059992674702343
0.44406161734262617 0.7551910591349392 0.3221504787198606
-0.34312121014721564 0.39159011610991046 0.9193722545859284
-0.01862251693144697 0.07947635683210544 0.7179129386257143
0.10581822415782022 0.6291684806199751 0.3059992674702343
0.7773949506759594 0.7551910591349392 0.3221504787198606
-0.009787876813882304 0.39159011610991046 0.9193722545859284
0.31471081640188636 0.07947635683210544 0.7179129386257143
0.43915155749115353 0.6291684806199751 0.3059992674702343
1.1107282840092927 0.7551910591349392 0.3221504787198606
0.323545456519451 0.39159011610991046 0.9193722545859284
0.6480441497352196 0.07947635683210544 0.7179129386257143
0.7724848908244868 0.6291684806199751 0.3059992674702343
0.44406161734262617 1.0885243924682726 0.3221504787198606
-0.34312121014721564 0.7249234494432437 0.9193722545859284
-0.01862251693144697 0.4128096901654388 0.7179129386257143
0.10581822415782022 0.9625018139533085 0.3059992674702343
0.7773949506759594 1.0885243924682726 0.3221504787198606
-0.009787876813882304 0.7249234494432437 0.9193722545859284
0.31471081640188636 0.4128096901654388 0.7179129386257143
0.43915155749115353 0.9625018139533085 0.3059992674702343
1.1107282840092927 1.0885243924682726 0.3221504787198606
0.323545456519451 0.7249234494432437 0.9193722545859284
0.6480441497352196 0.4128096901654388 0.7179129386257143
0.7724848908244868 0.9625018139533085 0.3059992674702343
0.44406161734262617 0.42185772580160585 0.6554838120531938
-0.34312121014721564 0.058256782776577115 1.2527055879192617
-0.01862251693144697 -0.25385697650122785 1.0512462719590476
0.10581822415782022 0.29583514728664184 0.6393326008035676
0.7773949506759594 0.42185772580160585 0.6554838120531938
-0.009787876813882304 0.058256782776577115 1.2527055879192617
0.31471081640188636 -0.25385697650122785 1.0512462719590476
0.43915155749115353 0.29583514728664184 0.6393326008035676
1.1107282840092927 0.42185772580160585 0.6554838120531938
0.323545456519451 0.058256782776577115 1.2527055879192617
0.6480441497352196 -0.25385697650122785 1.0512462719590476
0.7724848908244868 0.29583514728664184 0.6393326008035676
0.44406161734262617 0.7551910591349392 0.6554838120531938
-0.34312121014721564 0.39159011610991046 1.2527055879192617
-0.01862251693144697 0.07947635683210544 1.0512462719590476
0.10581822415782022 0.6291684806199751 0.6393326008035676
0.7773949506759594 0.7551910591349392 0.6554838120531938
-0.009787876813882304 0.39159011610991046 1.2527055879192617
0.31471081640188636 0.07947635683210544 1.0512462719590476
0.43915155749115353 0.6291684806199751 0.6393326008035676
1.1107282840092927 0.7551910591349392 0.6554838120531938
0.323545456519451 0.39159011610991046 1.2527055879192617
0.6480441497352196 0.07947635683210544 1.0512462719590476
0.7724848908244868 0.6291684806199751 0.6393326008035676
0.44406161734262617 1.0885243924682726 0.6554838120531938
-0.34312121014721564 0.7249234494432437 1.2527055879192617
-0.01862251693144697 0.4128096901654388 1.0512462719590476
0.10581822415782022 0.9625018139533085 0.6393326008035676
0.7773949506759594 1.0885243924682726 0.6554838120531938
-0.009787876813882304 0.7249234494432437 1.2527055879192617
0.31471081640188636 0.4128096901654388 1.0512462719590476
0.43915155749115353 0.9625018139533085 0.6393326008035676
1.1107282840092927 1.0885243924682726 0.6554838120531938
0.323545456519451 0.7249234494432437 1.2527055879192617
0.6480441497352196 0.4128096901654388 1.0512462719590476
0.7724848908244868 0.9625018139533085 0.6393326008035676
