FCC BaO
5.61604
3.0 0.0 0.0
0.0 3.0 0.0
0.0 0.0 3.0
Ba O 
108 108 
Direct
-0.13702475781087323 -0.5493149751672125 0.18079656404713101
0.6049924303553698 -0.06997401543070063 0.5335177019011119
0.06708695322337507 -0.3396956230975722 0.8371029692583083
0.6483553181857961 0.49201384318458474 0.4795698622872389
0.1963085755224601 -0.5493149751672125 0.18079656404713101
0.938325763688703 -0.06997401543070063 0.5335177019011119
0.4004202865567084 -0.3396956230975722 0.8371029692583083
0.9816886515191294 0.49201384318458474 0.4795698622872389
0.5296419088557933 -0.5493149751672125 0.18079656404713101
1.2716590970220363 -0.06997401543070063 0.5335177019011119
0.7337536198900417 -0.3396956230975722 0.8371029692583083
1.3150219848524627 0.49201384318458474 0.4795698622872389
-0.13702475781087323 -0.2159816418338792 0.18079656404713101
0.6049924303553698 0.2633593179026327 0.5335177019011119
0.06708695322337507 -0.006362289764238878 0.8371029692583083
0.6483553181857961 0.825347176517918 0.4795698622872389
0.1963085755224601 -0.2159816418338792 0.18079656404713101
0.938325763688703 0.2633593179026327 0.5335177019011119
0.4004202865567084 -0.006362289764238878 0.8371029692583083
0.9816886515191294 0.825347176517918 0.4795698622872389
0.5296419088557933 -0.2159816418338792 0.18079656404713101
1.2716590970220363 0.2633593179026327 0.5335177019011119
0.7337536198900417 -0.006362289764238878 0.8371029692583083
1.3150219848524627 0.825347176517918 0.4795698622872389
-0.13702475781087323 0.11735169149945412 0.18079656404713101
0.6049924303553698 0.596692651235966 0.5335177019011119
0.06708695322337507 0.32697104356909445 0.8371029692583083
0.6483553181857961 1.1586805098512514 0.4795698622872389
0.1963085755224601 0.11735169149945412 0.18079656404713101
0.938325763688703 0.596692651235966 0.5335177019011119
0.4004202865567084 0.32697104356909445 0.8371029692583083
0.9816886515191294 1.1586805098512514 0.4795698622872389
0.5296419088557933 0.11735169149945412 0.18079656404713101
1.2716590970220363 0.596692651235966 0.5335177019011119
0.7337536198900417 0.32697104356909445 0.8371029692583083
1.3150219848524627 1.1586805098512514 0.4795698622872389
-0.13702475781087323 -0.5493149751672125 0.5141298973804643
0.6049924303553698 -0.06997401543070063 0.8668510352344453
0.06708695322337507 -0.3396956230975722 1.1704363025916416
0.6483553181857961 0.49201384318458474 0.8129031956205722
0.1963085755224601 -0.5493149751672125 0.5141298973804643
0.938325763688703 -0.06997401543070063 0.8668510352344453
0.4004202865567084 -0.3396956230975722 1.1704363025916416
0.9816886515191294 0.49201384318458474 0.8129031956205722
0.5296419088557933 -0.5493149751672125 0.5141298973804643
1.2716590970220363 -0.06997401543070063 0.8668510352344453
0.7337536198900417 -0.3396956230975722 1.1704363025916416
1.3150219848524627 0.49201384318458474 0.8129031956205722
-0.13702475781087323 -0.2159816418338792 0.5141298973804643
0.6049924303553698 0.2633593179026327 0.8668510352344453
0.06708695322337507 -0.006362289764238878 1.1704363025916416
0.6483553181857961 0.825347176517918 0.8129031956205722
0.1963085755224601 -0.2159816418338792 0.5141298973804643
0.938325763688703 0.2633593179026327 0.8668510352344453
0.4004202865567084 -0.006362289764238878 1.1704363025916416
0.9816886515191294 0.825347176517918 0.8129031956205722
0.5296419088557933 -0.2159816418338792 0.5141298973804643
1.2716590970220363 0.2633593179026327 0.8668510352344453
0.7337536198900417 -0.006362289764238878 1.1704363025916416
1.3150219848524627 0.825347176517918 0.8129031956205722
-0.13702475781087323 0.11735169149945412 0.5141298973804643
0.6049924303553698 0.596692651235966 0.8668510352344453
0.06708695322337507 0.32697104356909445 1.1704363025916416
0.6483553181857961 1.1586805098512514 0.8129031956205722
0.1963085755224601 0.11735169149945412 0.5141298973804643
0.938325763688703 0.596692651235966 0.8668510352344453
0.4004202865567084 0.32697104356909445 1.1704363025916416
0.9816886515191294 1.1586805098512514 0.8129031956205722
0.5296419088557933 0.11735169149945412 0.5141298973804643
1.2716590970220363 0.596692651235966 0.8668510352344453
0.7337536198900417 0.32697104356909445 1.1704363025916416
1.3150219848524627 1.1586805098512514 0.8129031956205722
-0.13702475781087323 -0.5493149751672125 0.8474632307137977
0.6049924303553698 -0.06997401543070063 1.2001843685677787
0.06708695322337507 -0.3396956230975722 1.503769635924975
0.6483553181857961 0.49201384318458474 1.1462365289539056
0.1963085755224601 -0.5493149751672125 0.8474632307137977
0.938325763688703 -0.06997401543070063 1.2001843685677787
0.4004202865567084 -0.3396956230975722 1.503769635924975
0.9816886515191294 0.49201384318458474 1.1462365289539056
0.5296419088557933 -0.5493149751672125 0.8474632307137977
1.2716590970220363 -0.06997401543070063 1.2001843685677787
0.7337536198900417 -0.3396956230975722 1.503769635924975
1.3150219848524627 0.49201384318458474 1.1462365289539056
-0.13702475781087323 -0.2159816418338792 0.8474632307137977
0.6049924303553698 0.2633593179026327 1.2001843685677787
0.06708695322337507 -0.006362289764238878 1.503769635924975
0.6483553181857961 0.825347176517918 1.1462365289539056
0.1963085755224601 -0.2159816418338792 0.8474632307137977
0.938325763688703 0.2633593179026327 1.2001843685677787
0.4004202865567084 -0.006362289764238878 1.503769635924975
0.9816886515191294 0.825347176517918 1.1462365289539056
0.5296419088557933 -0.2159816418338792 0.8474632307137977
1.2716590970220363 0.2633593179026327 1.2001843685677787
0.7337536198900417 -0.006362289764238878 1.503769635924975
1.3150219848524627 0.825347176517918 1.1462365289539056
-0.13702475781087323 0.11735169149945412 0.8474632307137977
0.6049924303553698 0.596692651235966 1.2001843685677787
0.06708695322337507 0.32697104356909445 1.503769635924975
0.6483553181857961 1.1586805098512514 1.1462365289539056
0.1963085755224601 0.11735169149945412 0.8474632307137977
0.938325763688703 0.596692651235966 1.2001843685677787
0.4004202865567084 0.32697104356909445 1.503769635924975
0.9816886515191294 1.1586805098512514 1.1462365289539056
0.5296419088557933 0.11735169149945412 0.8474632307137977
1.2716590970220363 0.596692651235966 1.2001843685677787
0.7337536198900417 0.32697104356909445 1.503769635924975
1.3150219848524627 1.1586805098512514 1.1462365289539056
1.130210777519997 0.3152493270526131 0.06275198917498655
0.4021306610721096 0.46894718799360896 -0.45733169289382924
0.9633160824281863 1.506905739910014 0.30021853534160203
0.3499994541843797 -0.0635829348420707 0.10443986165821328
1.4635441108533302 0.3152493270526131 0.06275198917498655
0.7354639944054429 0.46894718799360896 -0.45733169289382924
1.2966494157615196 1.506905739910014 0.30021853534160203
0.683332787517713 -0.0635829348420707 0.10443986165821328
1.7968774441866637 0.3152493270526131 0.06275198917498655
1.0687973277387761 0.46894718799360896 -0.45733169289382924
1.629982749094853 1.506905739910014 0.30021853534160203
1.0166661208510464 -0.0635829348420707 0.10443986165821328
1.130210777519997 0.6485826603859464 0.06275198917498655
0.4021306610721096 0.8022805213269423 -0.45733169289382924
0.9633160824281863 1.8402390732433473 0.30021853534160203
0.3499994541843797 0.2697503984912626 0.10443986165821328
1.4635441108533302 0.6485826603859464 0.06275198917498655
0.7354639944054429 0.8022805213269423 -0.45733169289382924
1.2966494157615196 1.8402390732433473 0.30021853534160203
0.683332787517713 0.2697503984912626 0.10443986165821328
1.7968774441866637 0.6485826603859464 0.06275198917498655
1.0687973277387761 0.8022805213269423 -0.45733169289382924
1.629982749094853 1.8402390732433473 0.30021853534160203
1.0166661208510464 0.2697503984912626 0.10443986165821328
1.130210777519997 0.9819159937192797 0.06275198917498655
0.4021306610721096 1.1356138546602756 -0.45733169289382924
0.9633160824281863 2.173572406576681 0.30021853534160203
0.3499994541843797 0.603083731824596 0.10443986165821328
1.4635441108533302 0.9819159937192797 0.06275198917498655
0.7354639944054429 1.1356138546602756 -0.45733169289382924
1.2966494157615196 2.173572406576681 0.30021853534160203
0.683332787517713 0.603083731824596 0.10443986165821328
1.7968774441866637 0.9819159937192797 0.06275198917498655
1.0687973277387761 1.1356138546602756 -0.45733169289382924
1.629982749094853 2.173572406576681 0.30021853534160203
1.0166661208510464 0.603083731824596 0.10443986165821328
1.130210777519997 0.3152493270526131 0.39608532250831985
0.4021306610721096 0.46894718799360896 -0.12399835956049594
0.9633160824281863 1.506905739910014 0.6335518686749353
0.3499994541843797 -0.0635829348420707 0.43777319499154654
1.4635441108533302 0.3152493270526131 0.39608532250831985
0.7354639944054429 0.46894718799360896 -0.12399835956049594
1.2966494157615196 1.506905739910014 0.6335518686749353
0.683332787517713 -0.0635829348420707 0.43777319499154654
1.7968774441866637 0.3152493270526131 0.39608532250831985
1.0687973277387761 0.46894718799360896 -0.12399835956049594
1.629982749094853 1.506905739910014 0.6335518686749353
1.0166661208510464 -0.0635829348420707 0.43777319499154654
1.130210777519997 0.6485826603859464 0.39608532250831985
0.4021306610721096 0.8022805213269423 -0.12399835956049594
0.9633160824281863 1.8402390732433473 0.6335518686749353
0.3499994541843797 0.2697503984912626 0.43777319499154654
1.4635441108533302 0.6485826603859464 0.39608532250831985
0.7354639944054429 0.8022805213269423 -0.12399835956049594
1.2966494157615196 1.8402390732433473 0.6335518686749353
0.683332787517713 0.2697503984912626 0.43777319499154654
1.7968774441866637 0.6485826603859464 0.39608532250831985
1.0687973277387761 0.8022805213269423 -0.12399835956049594
1.629982749094853 1.8402390732433473 0.6335518686749353
1.0166661208510464 0.2697503984912626 0.43777319499154654
1.130210777519997 0.9819159937192797 0.39608532250831985
0.4021306610721096 1.1356138546602756 -0.12399835956049594
0.9633160824281863 2.173572406576681 0.6335518686749353
0.3499994541843797 0.603083731824596 0.43777319499154654
1.4635441108533302 0.9819159937192797 0.39608532250831985
0.7354639944054429 1.1356138546602756 -0.12399835956049594
1.2966494157615196 2.173572406576681 0.6335518686749353
0.683332787517713 0.603083731824596 0.43777319499154654
1.7968774441866637 0.9819159937192797 0.39608532250831985
1.0687973277387761 1.1356138546602756 -0.12399835956049594
1.629982749094853 2.173572406576681 0.6335518686749353
1.0166661208510464 0.603083731824596 0.43777319499154654
1.130210777519997 0.3152493270526131 0.7294186558416531
0.4021306610721096 0.46894718799360896 0.20933497377283738
0.9633160824281863 1.506905739910014 0.9668852020082686
0.3499994541843797 -0.0635829348420707 0.7711065283248799
1.4635441108533302 0.3152493270526131 0.7294186558416531
0.7354639944054429 0.46894718799360896 0.20933497377283738
1.2966494157615196 1.506905739910014 0.9668852020082686
0.683332787517713 -0.0635829348420707 0.7711065283248799
1.7968774441866637 0.3152493270526131 0.7294186558416531
1.0687973277387761 0.46894718799360896 0.20933497377283738
1.629982749094853 1.506905739910014 0.9668852020082686
1.0166661208510464 -0.0635829348420707 0.7711065283248799
1.130210777519997 0.6485826603859464 0.7294186558416531
0.4021306610721096 0.8022805213269423 0.20933497377283738
0.9633160824281863 1.8402390732433473 0.9668852020082686
0.3499994541843797 0.2697503984912626 0.7711065283248799
1.4635441108533302 0.6485826603859464 0.7294186558416531
0.7354639944054429 0.8022805213269423 0.20933497377283738
1.2966494157615196 1.8402390732433473 0.9668852020082686
0.683332787517713 0.2697503984912626 0.7711065283248799
1.7968774441866637 0.6485826603859464 0.7294186558416531
1.0687973277387761 0.8022805213269423 0.20933497377283738
1.629982749094853 1.8402390732433473 0.9668852020082686
1.0166661208510464 0.2697503984912626 0.7711065283248799
1.130210777519997 0.9819159937192797 0.7294186558416531
0.4021306610721096 1.1356138546602756 0.20933497377283738
0.9633160824281863 2.173572406576681 0.9668852020082686
0.3499994541843797 0.603083731824596 0.7711065283248799
1.4635441108533302 0.9819159937192797 0.7294186558416531
0.7354639944054429 1.1356138546602756 0.20933497377283738
1.2966494157615196 2.173572406576681 0.9668852020082686
0.683332787517713 0.603083731824596 0.7711065283248799
1.7968774441866637 0.9819159937192797 0.7294186558416531
1.0687973277387761 1.1356138546602756 0.20933497377283738
1.629982749094853 2.173572406576681 0.9668852020082686
1.0166661208510464 0.603083731824596 0.7711065283248799
