FCC BaO
3.971
5.0 0.0 0.0
0.0 5.0 0.0
0.0 0.0 5.0
Ba O 
500 500 
Direct
-0.011191414927968008 -0.0008326381242207925 -0.0008969660465934648
-0.014853113091346263 0.11839107490770068 0.11698920156360099
0.08848124921494015 -0.02634185787301159 0.09187882722513263
0.08434348557418618 0.12372527209217954 -0.0001528834307324678
0.18880858507203202 -0.0008326381242207925 -0.0008969660465934648
0.18514688690865375 0.11839107490770068 0.11698920156360099
0.28848124921494017 -0.02634185787301159 0.09187882722513263
0.28434348557418615 0.12372527209217954 -0.0001528834307324678
0.388808585072032 -0.0008326381242207925 -0.0008969660465934648
0.3851468869086538 0.11839107490770068 0.11698920156360099
0.4884812492149402 -0.02634185787301159 0.09187882722513263
0.48434348557418616 0.12372527209217954 -0.0001528834307324678
0.588808585072032 -0.0008326381242207925 -0.0008969660465934648
0.5851468869086538 0.11839107490770068 0.11698920156360099
0.6884812492149401 -0.02634185787301159 0.09187882722513263
0.6843434855741862 0.12372527209217954 -0.0001528834307324678
0.7888085850720321 -0.0008326381242207925 -0.0008969660465934648
0.7851468869086538 0.11839107490770068 0.11698920156360099
0.8884812492149401 -0.02634185787301159 0.09187882722513263
0.8843434855741862 0.12372527209217954 -0.0001528834307324678
-0.011191414927968008 0.19916736187577921 -0.0008969660465934648
-0.014853113091346263 0.3183910749077007 0.11698920156360099
0.08848124921494015 0.1736581421269884 0.09187882722513263
0.08434348557418618 0.32372527209217955 -0.0001528834307324678
0.18880858507203202 0.19916736187577921 -0.0008969660465934648
0.18514688690865375 0.3183910749077007 0.11698920156360099
0.28848124921494017 0.1736581421269884 0.09187882722513263
0.28434348557418615 0.32372527209217955 -0.0001528834307324678
0.388808585072032 0.19916736187577921 -0.0008969660465934648
0.3851468869086538 0.3183910749077007 0.11698920156360099
0.4884812492149402 0.1736581421269884 0.09187882722513263
0.48434348557418616 0.32372527209217955 -0.0001528834307324678
0.588808585072032 0.19916736187577921 -0.0008969660465934648
0.5851468869086538 0.3183910749077007 0.11698920156360099
0.6884812492149401 0.1736581421269884 0.09187882722513263
0.6843434855741862 0.32372527209217955 -0.0001528834307324678
0.7888085850720321 0.19916736187577921 -0.0008969660465934648
0.7851468869086538 0.3183910749077007 0.11698920156360099
0.8884812492149401 0.1736581421269884 0.09187882722513263
0.8843434855741862 0.32372527209217955 -0.0001528834307324678
-0.011191414927968008 0.3991673618757792 -0.0008969660465934648
-0.014853113091346263 0.5183910749077006 0.11698920156360099
0.08848124921494015 0.37365814212698845 0.09187882722513263
0.08434348557418618 0.5237252720921796 -0.0001528834307324678
0.18880858507203202 0.3991673618757792 -0.0008969660465934648
0.18514688690865375 0.5183910749077006 0.11698920156360099
0.28848124921494017 0.37365814212698845 0.09187882722513263
0.28434348557418615 0.5237252720921796 -0.0001528834307324678
0.388808585072032 0.3991673618757792 -0.0008969660465934648
0.3851468869086538 0.5183910749077006 0.11698920156360099
0.4884812492149402 0.37365814212698845 0.09187882722513263
0.48434348557418616 0.5237252720921796 -0.0001528834307324678
0.588808585072032 0.3991673618757792 -0.0008969660465934648
0.5851468869086538 0.5183910749077006 0.11698920156360099
0.6884812492149401 0.37365814212698845 0.09187882722513263
0.6843434855741862 0.5237252720921796 -0.0001528834307324678
0.7888085850720321 0.3991673618757792 -0.0008969660465934648
0.7851468869086538 0.5183910749077006 0.11698920156360099
0.8884812492149401 0.37365814212698845 0.09187882722513263
0.8843434855741862 0.5237252720921796 -0.0001528834307324678
-0.011191414927968008 0.5991673618757792 -0.0008969660465934648
-0.014853113091346263 0.7183910749077007 0.11698920156360099
0.08848124921494015 0.5736581421269884 0.09187882722513263
0.08434348557418618 0.7237252720921795 -0.0001528834307324678
0.18880858507203202 0.5991673618757792 -0.0008969660465934648
0.18514688690865375 0.7183910749077007 0.11698920156360099
0.28848124921494017 0.5736581421269884 0.09187882722513263
0.28434348557418615 0.7237252720921795 -0.0001528834307324678
0.388808585072032 0.5991673618757792 -0.0008969660465934648
0.3851468869086538 0.7183910749077007 0.11698920156360099
0.4884812492149402 0.5736581421269884 0.09187882722513263
0.48434348557418616 0.7237252720921795 -0.0001528834307324678
0.588808585072032 0.5991673618757792 -0.0008969660465934648
0.5851468869086538 0.7183910749077007 0.11698920156360099
0.6884812492149401 0.5736581421269884 0.09187882722513263
0.6843434855741862 0.7237252720921795 -0.0001528834307324678
0.7888085850720321 0.5991673618757792 -0.0008969660465934648
0.7851468869086538 0.7183910749077007 0.11698920156360099
0.8884812492149401 0.5736581421269884 0.09187882722513263
0.8843434855741862 0.7237252720921795 -0.0001528834307324678
-0.011191414927968008 0.7991673618757793 -0.0008969660465934648
-0.014853113091346263 0.9183910749077008 0.11698920156360099
0.08848124921494015 0.7736581421269885 0.09187882722513263
0.08434348557418618 0.9237252720921796 -0.0001528834307324678
0.18880858507203202 0.7991673618757793 -0.0008969660465934648
0.18514688690865375 0.9183910749077008 0.11698920156360099
0.28848124921494017 0.7736581421269885 0.09187882722513263
0.28434348557418615 0.9237252720921796 -0.0001528834307324678
0.388808585072032 0.7991673618757793 -0.0008969660465934648
0.3851468869086538 0.9183910749077008 0.11698920156360099
0.4884812492149402 0.7736581421269885 0.09187882722513263
0.48434348557418616 0.9237252720921796 -0.0001528834307324678
0.588808585072032 0.7991673618757793 -0.0008969660465934648
0.5851468869086538 0.9183910749077008 0.11698920156360099
0.6884812492149401 0.7736581421269885 0.09187882722513263
0.6843434855741862 0.9237252720921796 -0.0001528834307324678
0.7888085850720321 0.7991673618757793 -0.0008969660465934648
0.7851468869086538 0.9183910749077008 0.11698920156360099
0.8884812492149401 0.7736581421269885 0.09187882722513263
0.8843434855741862 0.9237252720921796 -0.0001528834307324678
-0.011191414927968008 -0.0008326381242207925 0.19910303395340656
-0.014853113091346263 0.11839107490770068 0.316989201563601
0.08848124921494015 -0.02634185787301159 0.29187882722513264
0.08434348557418618 0.12372527209217954 0.19984711656926754
0.18880858507203202 -0.0008326381242207925 0.19910303395340656
0.18514688690865375 0.11839107490770068 0.316989201563601
0.28848124921494017 -0.02634185787301159 0.29187882722513264
0.28434348557418615 0.12372527209217954 0.19984711656926754
0.388808585072032 -0.0008326381242207925 0.19910303395340656
0.3851468869086538 0.11839107490770068 0.316989201563601
0.4884812492149402 -0.02634185787301159 0.29187882722513264
0.48434348557418616 0.12372527209217954 0.19984711656926754
0.588808585072032 -0.0008326381242207925 0.19910303395340656
0.5851468869086538 0.11839107490770068 0.316989201563601
0.6884812492149401 -0.02634185787301159 0.29187882722513264
0.6843434855741862 0.12372527209217954 0.19984711656926754
0.7888085850720321 -0.0008326381242207925 0.19910303395340656
0.7851468869086538 0.11839107490770068 0.316989201563601
0.8884812492149401 -0.02634185787301159 0.29187882722513264
0.8843434855741862 0.12372527209217954 0.19984711656926754
-0.011191414927968008 0.19916736187577921 0.19910303395340656
-0.014853113091346263 0.3183910749077007 0.316989201563601
0.08848124921494015 0.1736581421269884 0.29187882722513264
0.08434348557418618 0.32372527209217955 0.19984711656926754
0.18880858507203202 0.19916736187577921 0.19910303395340656
0.18514688690865375 0.3183910749077007 0.316989201563601
0.28848124921494017 0.1736581421269884 0.29187882722513264
0.28434348557418615 0.32372527209217955 0.19984711656926754
0.388808585072032 0.19916736187577921 0.19910303395340656
0.3851468869086538 0.3183910749077007 0.316989201563601
0.4884812492149402 0.1736581421269884 0.29187882722513264
0.48434348557418616 0.32372527209217955 0.19984711656926754
0.588808585072032 0.19916736187577921 0.19910303395340656
0.5851468869086538 0.3183910749077007 0.316989201563601
0.6884812492149401 0.1736581421269884 0.29187882722513264
0.6843434855741862 0.32372527209217955 0.19984711656926754
0.7888085850720321 0.19916736187577921 0.19910303395340656
0.7851468869086538 0.3183910749077007 0.316989201563601
0.8884812492149401 0.1736581421269884 0.29187882722513264
0.8843434855741862 0.32372527209217955 0.19984711656926754
-0.011191414927968008 0.3991673618757792 0.19910303395340656
-0.014853113091346263 0.5183910749077006 0.316989201563601
0.08848124921494015 0.37365814212698845 0.29187882722513264
0.08434348557418618 0.5237252720921796 0.19984711656926754
0.18880858507203202 0.3991673618757792 0.19910303395340656
0.18514688690865375 0.5183910749077006 0.316989201563601
0.28848124921494017 0.37365814212698845 0.29187882722513264
0.28434348557418615 0.5237252720921796 0.19984711656926754
0.388808585072032 0.3991673618757792 0.19910303395340656
0.3851468869086538 0.5183910749077006 0.316989201563601
0.4884812492149402 0.37365814212698845 0.29187882722513264
0.48434348557418616 0.5237252720921796 0.19984711656926754
0.588808585072032 0.3991673618757792 0.19910303395340656
0.5851468869086538 0.5183910749077006 0.316989201563601
0.6884812492149401 0.37365814212698845 0.29187882722513264
0.6843434855741862 0.5237252720921796 0.19984711656926754
0.7888085850720321 0.3991673618757792 0.19910303395340656
0.7851468869086538 0.5183910749077006 0.316989201563601
0.8884812492149401 0.37365814212698845 0.29187882722513264
0.8843434855741862 0.5237252720921796 0.19984711656926754
-0.011191414927968008 0.5991673618757792 0.19910303395340656
-0.014853113091346263 0.7183910749077007 0.316989201563601
0.08848124921494015 0.5736581421269884 0.29187882722513264
0.08434348557418618 0.7237252720921795 0.19984711656926754
0.18880858507203202 0.5991673618757792 0.19910303395340656
0.18514688690865375 0.7183910749077007 0.316989201563601
0.28848124921494017 0.5736581421269884 0.29187882722513264
0.28434348557418615 0.7237252720921795 0.19984711656926754
0.388808585072032 0.5991673618757792 0.19910303395340656
0.3851468869086538 0.7183910749077007 0.316989201563601
0.4884812492149402 0.5736581421269884 0.29187882722513264
0.48434348557418616 0.7237252720921795 0.19984711656926754
0.588808585072032 0.5991673618757792 0.19910303395340656
0.5851468869086538 0.7183910749077007 0.316989201563601
0.6884812492149401 0.5736581421269884 0.29187882722513264
0.6843434855741862 0.7237252720921795 0.19984711656926754
0.7888085850720321 0.5991673618757792 0.19910303395340656
0.7851468869086538 0.7183910749077007 0.316989201563601
0.8884812492149401 0.5736581421269884 0.29187882722513264
0.8843434855741862 0.7237252720921795 0.19984711656926754
-0.011191414927968008 0.7991673618757793 0.19910303395340656
-0.014853113091346263 0.9183910749077008 0.316989201563601
0.08848124921494015 0.7736581421269885 0.29187882722513264
0.08434348557418618 0.9237252720921796 0.19984711656926754
0.18880858507203202 0.7991673618757793 0.19910303395340656
0.18514688690865375 0.9183910749077008 0.316989201563601
0.28848124921494017 0.7736581421269885 0.29187882722513264
0.28434348557418615 0.9237252720921796 0.19984711656926754
0.388808585072032 0.7991673618757793 0.19910303395340656
0.3851468869086538 0.9183910749077008 0.316989201563601
0.4884812492149402 0.7736581421269885 0.29187882722513264
0.48434348557418616 0.9237252720921796 0.19984711656926754
0.588808585072032 0.7991673618757793 0.19910303395340656
0.5851468869086538 0.9183910749077008 0.316989201563601
0.6884812492149401 0.7736581421269885 0.29187882722513264
0.6843434855741862 0.9237252720921796 0.19984711656926754
0.7888085850720321 0.7991673618757793 0.19910303395340656
0.7851468869086538 0.9183910749077008 0.316989201563601
0.8884812492149401 0.7736581421269885 0.29187882722513264
0.8843434855741862 0.9237252720921796 0.19984711656926754
-0.011191414927968008 -0.0008326381242207925 0.3991030339534065
-0.014853113091346263 0.11839107490770068 0.516989201563601
0.08848124921494015 -0.02634185787301159 0.49187882722513265
0.08434348557418618 0.12372527209217954 0.3998471165692676
0.18880858507203202 -0.0008326381242207925 0.3991030339534065
0.18514688690865375 0.11839107490770068 0.516989201563601
0.28848124921494017 -0.02634185787301159 0.49187882722513265
0.28434348557418615 0.12372527209217954 0.3998471165692676
0.388808585072032 -0.0008326381242207925 0.3991030339534065
0.3851468869086538 0.11839107490770068 0.516989201563601
0.4884812492149402 -0.02634185787301159 0.49187882722513265
0.48434348557418616 0.12372527209217954 0.3998471165692676
0.588808585072032 -0.0008326381242207925 0.3991030339534065
0.5851468869086538 0.11839107490770068 0.516989201563601
0.6884812492149401 -0.02634185787301159 0.49187882722513265
0.6843434855741862 0.12372527209217954 0.3998471165692676
0.7888085850720321 -0.0008326381242207925 0.3991030339534065
0.7851468869086538 0.11839107490770068 0.516989201563601
0.8884812492149401 -0.02634185787301159 0.49187882722513265
0.8843434855741862 0.12372527209217954 0.3998471165692676
-0.011191414927968008 0.19916736187577921 0.3991030339534065
-0.014853113091346263 0.3183910749077007 0.516989201563601
0.08848124921494015 0.1736581421269884 0.49187882722513265
0.08434348557418618 0.32372527209217955 0.3998471165692676
0.18880858507203202 0.19916736187577921 0.3991030339534065
0.18514688690865375 0.3183910749077007 0.516989201563601
0.28848124921494017 0.1736581421269884 0.49187882722513265
0.28434348557418615 0.32372527209217955 0.3998471165692676
0.388808585072032 0.19916736187577921 0.3991030339534065
0.3851468869086538 0.3183910749077007 0.516989201563601
0.4884812492149402 0.1736581421269884 0.49187882722513265
0.48434348557418616 0.32372527209217955 0.3998471165692676
0.588808585072032 0.19916736187577921 0.3991030339534065
0.5851468869086538 0.3183910749077007 0.516989201563601
0.6884812492149401 0.1736581421269884 0.49187882722513265
0.6843434855741862 0.32372527209217955 0.3998471165692676
0.7888085850720321 0.19916736187577921 0.3991030339534065
0.7851468869086538 0.3183910749077007 0.516989201563601
0.8884812492149401 0.1736581421269884 0.49187882722513265
0.8843434855741862 0.32372527209217955 0.3998471165692676
-0.011191414927968008 0.3991673618757792 0.3991030339534065
-0.014853113091346263 0.5183910749077006 0.516989201563601
0.08848124921494015 0.37365814212698845 0.49187882722513265
0.08434348557418618 0.5237252720921796 0.3998471165692676
0.18880858507203202 0.3991673618757792 0.3991030339534065
0.18514688690865375 0.5183910749077006 0.516989201563601
0.28848124921494017 0.37365814212698845 0.49187882722513265
0.28434348557418615 0.5237252720921796 0.3998471165692676
0.388808585072032 0.3991673618757792 0.3991030339534065
0.3851468869086538 0.5183910749077006 0.516989201563601
0.4884812492149402 0.37365814212698845 0.49187882722513265
0.48434348557418616 0.5237252720921796 0.3998471165692676
0.588808585072032 0.3991673618757792 0.3991030339534065
0.5851468869086538 0.5183910749077006 0.516989201563601
0.6884812492149401 0.37365814212698845 0.49187882722513265
0.6843434855741862 0.5237252720921796 0.3998471165692676
0.7888085850720321 0.3991673618757792 0.3991030339534065
0.7851468869086538 0.5183910749077006 0.516989201563601
0.8884812492149401 0.37365814212698845 0.49187882722513265
0.8843434855741862 0.5237252720921796 0.3998471165692676
-0.011191414927968008 0.5991673618757792 0.3991030339534065
-0.014853113091346263 0.7183910749077007 0.516989201563601
0.08848124921494015 0.5736581421269884 0.49187882722513265
0.08434348557418618 0.7237252720921795 0.3998471165692676
0.18880858507203202 0.5991673618757792 0.3991030339534065
0.18514688690865375 0.7183910749077007 0.516989201563601
0.28848124921494017 0.5736581421269884 0.49187882722513265
0.28434348557418615 0.7237252720921795 0.3998471165692676
0.388808585072032 0.5991673618757792 0.3991030339534065
0.3851468869086538 0.7183910749077007 0.516989201563601
0.4884812492149402 0.5736581421269884 0.49187882722513265
0.48434348557418616 0.7237252720921795 0.3998471165692676
0.588808585072032 0.5991673618757792 0.3991030339534065
0.5851468869086538 0.7183910749077007 0.516989201563601
0.6884812492149401 0.5736581421269884 0.49187882722513265
0.6843434855741862 0.7237252720921795 0.3998471165692676
0.7888085850720321 0.5991673618757792 0.3991030339534065
0.7851468869086538 0.7183910749077007 0.516989201563601
0.8884812492149401 0.5736581421269884 0.49187882722513265
0.8843434855741862 0.7237252720921795 0.3998471165692676
-0.011191414927968008 0.7991673618757793 0.3991030339534065
-0.014853113091346263 0.9183910749077008 0.516989201563601
0.08848124921494015 0.7736581421269885 0.49187882722513265
0.08434348557418618 0.9237252720921796 0.3998471165692676
0.18880858507203202 0.7991673618757793 0.3991030339534065
0.18514688690865375 0.9183910749077008 0.516989201563601
0.28848124921494017 0.7736581421269885 0.49187882722513265
0.28434348557418615 0.9237252720921796 0.3998471165692676
0.388808585072032 0.7991673618757793 0.3991030339534065
0.3851468869086538 0.9183910749077008 0.516989201563601
0.4884812492149402 0.7736581421269885 0.49187882722513265
0.48434348557418616 0.9237252720921796 0.3998471165692676
0.588808585072032 0.7991673618757793 0.3991030339534065
0.5851468869086538 0.9183910749077008 0.516989201563601
0.6884812492149401 0.7736581421269885 0.49187882722513265
0.6843434855741862 0.9237252720921796 0.3998471165692676
0.7888085850720321 0.7991673618757793 0.3991030339534065
0.7851468869086538 0.9183910749077008 0.516989201563601
0.8884812492149401 0.7736581421269885 0.49187882722513265
0.8843434855741862 0.9237252720921796 0.3998471165692676
-0.011191414927968008 -0.0008326381242207925 0.5991030339534066
-0.014853113091346263 0.11839107490770068 0.716989201563601
0.08848124921494015 -0.02634185787301159 0.6918788272251327
0.08434348557418618 0.12372527209217954 0.5998471165692675
0.18880858507203202 -0.0008326381242207925 0.5991030339534066
0.18514688690865375 0.11839107490770068 0.716989201563601
0.28848124921494017 -0.02634185787301159 0.6918788272251327
0.28434348557418615 0.12372527209217954 0.5998471165692675
0.388808585072032 -0.0008326381242207925 0.5991030339534066
0.3851468869086538 0.11839107490770068 0.716989201563601
0.4884812492149402 -0.02634185787301159 0.6918788272251327
0.48434348557418616 0.12372527209217954 0.5998471165692675
0.588808585072032 -0.0008326381242207925 0.5991030339534066
0.5851468869086538 0.11839107490770068 0.716989201563601
0.6884812492149401 -0.02634185787301159 0.6918788272251327
0.6843434855741862 0.12372527209217954 0.5998471165692675
0.7888085850720321 -0.0008326381242207925 0.5991030339534066
0.7851468869086538 0.11839107490770068 0.716989201563601
0.8884812492149401 -0.02634185787301159 0.6918788272251327
0.8843434855741862 0.12372527209217954 0.5998471165692675
-0.011191414927968008 0.19916736187577921 0.5991030339534066
-0.014853113091346263 0.3183910749077007 0.716989201563601
0.08848124921494015 0.1736581421269884 0.6918788272251327
0.08434348557418618 0.32372527209217955 0.5998471165692675
0.18880858507203202 0.19916736187577921 0.5991030339534066
0.18514688690865375 0.3183910749077007 0.716989201563601
0.28848124921494017 0.1736581421269884 0.6918788272251327
0.28434348557418615 0.32372527209217955 0.5998471165692675
0.388808585072032 0.19916736187577921 0.5991030339534066
0.3851468869086538 0.3183910749077007 0.716989201563601
0.4884812492149402 0.1736581421269884 0.6918788272251327
0.48434348557418616 0.32372527209217955 0.5998471165692675
0.588808585072032 0.19916736187577921 0.5991030339534066
0.5851468869086538 0.3183910749077007 0.716989201563601
0.6884812492149401 0.1736581421269884 0.6918788272251327
0.6843434855741862 0.32372527209217955 0.5998471165692675
0.7888085850720321 0.19916736187577921 0.5991030339534066
0.7851468869086538 0.3183910749077007 0.716989201563601
0.8884812492149401 0.1736581421269884 0.6918788272251327
0.8843434855741862 0.32372527209217955 0.5998471165692675
-0.011191414927968008 0.3991673618757792 0.5991030339534066
-0.014853113091346263 0.5183910749077006 0.716989201563601
0.08848124921494015 0.37365814212698845 0.6918788272251327
0.08434348557418618 0.5237252720921796 0.5998471165692675
0.18880858507203202 0.3991673618757792 0.5991030339534066
0.18514688690865375 0.5183910749077006 0.716989201563601
0.28848124921494017 0.37365814212698845 0.6918788272251327
0.28434348557418615 0.5237252720921796 0.5998471165692675
0.388808585072032 0.3991673618757792 0.5991030339534066
0.3851468869086538 0.5183910749077006 0.716989201563601
0.4884812492149402 0.37365814212698845 0.6918788272251327
0.48434348557418616 0.5237252720921796 0.5998471165692675
0.588808585072032 0.3991673618757792 0.5991030339534066
0.5851468869086538 0.5183910749077006 0.716989201563601
0.6884812492149401 0.37365814212698845 0.6918788272251327
0.6843434855741862 0.5237252720921796 0.5998471165692675
0.7888085850720321 0.3991673618757792 0.5991030339534066
0.7851468869086538 0.5183910749077006 0.716989201563601
0.8884812492149401 0.37365814212698845 0.6918788272251327
0.8843434855741862 0.5237252720921796 0.5998471165692675
-0.011191414927968008 0.5991673618757792 0.5991030339534066
-0.014853113091346263 0.7183910749077007 0.716989201563601
0.08848124921494015 0.5736581421269884 0.6918788272251327
0.08434348557418618 0.7237252720921795 0.5998471165692675
0.18880858507203202 0.5991673618757792 0.5991030339534066
0.18514688690865375 0.7183910749077007 0.716989201563601
0.28848124921494017 0.5736581421269884 0.6918788272251327
0.28434348557418615 0.7237252720921795 0.5998471165692675
0.388808585072032 0.5991673618757792 0.5991030339534066
0.3851468869086538 0.7183910749077007 0.716989201563601
0.4884812492149402 0.5736581421269884 0.6918788272251327
0.48434348557418616 0.7237252720921795 0.5998471165692675
0.588808585072032 0.5991673618757792 0.5991030339534066
0.5851468869086538 0.7183910749077007 0.716989201563601
0.6884812492149401 0.5736581421269884 0.6918788272251327
0.6843434855741862 0.7237252720921795 0.5998471165692675
0.7888085850720321 0.5991673618757792 0.5991030339534066
0.7851468869086538 0.7183910749077007 0.716989201563601
0.8884812492149401 0.5736581421269884 0.6918788272251327
0.8843434855741862 0.7237252720921795 0.5998471165692675
-0.011191414927968008 0.7991673618757793 0.5991030339534066
-0.014853113091346263 0.9183910749077008 0.716989201563601
0.08848124921494015 0.7736581421269885 0.6918788272251327
0.08434348557418618 0.9237252720921796 0.5998471165692675
0.18880858507203202 0.7991673618757793 0.5991030339534066
0.18514688690865375 0.9183910749077008 0.716989201563601
0.28848124921494017 0.7736581421269885 0.6918788272251327
0.28434348557418615 0.9237252720921796 0.5998471165692675
0.388808585072032 0.7991673618757793 0.5991030339534066
0.3851468869086538 0.9183910749077008 0.716989201563601
0.4884812492149402 0.7736581421269885 0.6918788272251327
0.48434348557418616 0.9237252720921796 0.5998471165692675
0.588808585072032 0.7991673618757793 0.5991030339534066
0.5851468869086538 0.9183910749077008 0.716989201563601
0.6884812492149401 0.7736581421269885 0.6918788272251327
0.6843434855741862 0.9237252720921796 0.5998471165692675
0.7888085850720321 0.7991673618757793 0.5991030339534066
0.7851468869086538 0.9183910749077008 0.716989201563601
0.8884812492149401 0.7736581421269885 0.6918788272251327
0.8843434855741862 0.9237252720921796 0.5998471165692675
-0.011191414927968008 -0.0008326381242207925 0.7991030339534065
-0.014853113091346263 0.11839107490770068 0.916989201563601
0.08848124921494015 -0.02634185787301159 0.8918788272251327
0.08434348557418618 0.12372527209217954 0.7998471165692675
0.18880858507203202 -0.0008326381242207925 0.7991030339534065
0.18514688690865375 0.11839107490770068 0.916989201563601
0.28848124921494017 -0.02634185787301159 0.8918788272251327
0.28434348557418615 0.12372527209217954 0.7998471165692675
0.388808585072032 -0.0008326381242207925 0.7991030339534065
0.3851468869086538 0.11839107490770068 0.916989201563601
0.4884812492149402 -0.02634185787301159 0.8918788272251327
0.48434348557418616 0.12372527209217954 0.7998471165692675
0.588808585072032 -0.0008326381242207925 0.7991030339534065
0.5851468869086538 0.11839107490770068 0.916989201563601
0.6884812492149401 -0.02634185787301159 0.8918788272251327
0.6843434855741862 0.12372527209217954 0.7998471165692675
0.7888085850720321 -0.0008326381242207925 0.7991030339534065
0.7851468869086538 0.11839107490770068 0.916989201563601
0.8884812492149401 -0.02634185787301159 0.8918788272251327
0.8843434855741862 0.12372527209217954 0.7998471165692675
-0.011191414927968008 0.19916736187577921 0.7991030339534065
-0.014853113091346263 0.3183910749077007 0.916989201563601
0.08848124921494015 0.1736581421269884 0.8918788272251327
0.08434348557418618 0.32372527209217955 0.7998471165692675
0.18880858507203202 0.19916736187577921 0.7991030339534065
0.18514688690865375 0.3183910749077007 0.916989201563601
0.28848124921494017 0.1736581421269884 0.8918788272251327
0.28434348557418615 0.32372527209217955 0.7998471165692675
0.388808585072032 0.19916736187577921 0.7991030339534065
0.3851468869086538 0.3183910749077007 0.916989201563601
0.4884812492149402 0.1736581421269884 0.8918788272251327
0.48434348557418616 0.32372527209217955 0.7998471165692675
0.588808585072032 0.19916736187577921 0.7991030339534065
0.5851468869086538 0.3183910749077007 0.916989201563601
0.6884812492149401 0.1736581421269884 0.8918788272251327
0.6843434855741862 0.32372527209217955 0.7998471165692675
0.7888085850720321 0.19916736187577921 0.7991030339534065
0.7851468869086538 0.3183910749077007 0.916989201563601
0.8884812492149401 0.1736581421269884 0.8918788272251327
0.8843434855741862 0.32372527209217955 0.7998471165692675
-0.011191414927968008 0.3991673618757792 0.7991030339534065
-0.014853113091346263 0.5183910749077006 0.916989201563601
0.08848124921494015 0.37365814212698845 0.8918788272251327
0.08434348557418618 0.5237252720921796 0.7998471165692675
0.18880858507203202 0.3991673618757792 0.7991030339534065
0.18514688690865375 0.5183910749077006 0.916989201563601
0.28848124921494017 0.37365814212698845 0.8918788272251327
0.28434348557418615 0.5237252720921796 0.7998471165692675
0.388808585072032 0.3991673618757792 0.7991030339534065
0.3851468869086538 0.5183910749077006 0.916989201563601
0.4884812492149402 0.37365814212698845 0.8918788272251327
0.48434348557418616 0.5237252720921796 0.7998471165692675
0.588808585072032 0.3991673618757792 0.7991030339534065
0.5851468869086538 0.5183910749077006 0.916989201563601
0.6884812492149401 0.37365814212698845 0.8918788272251327
0.6843434855741862 0.5237252720921796 0.7998471165692675
0.7888085850720321 0.3991673618757792 0.7991030339534065
0.7851468869086538 0.5183910749077006 0.916989201563601
0.8884812492149401 0.37365814212698845 0.8918788272251327
0.8843434855741862 0.5237252720921796 0.7998471165692675
-0.011191414927968008 0.5991673618757792 0.7991030339534065
-0.014853113091346263 0.7183910749077007 0.916989201563601
0.08848124921494015 0.5736581421269884 0.8918788272251327
0.08434348557418618 0.7237252720921795 0.7998471165692675
0.18880858507203202 0.5991673618757792 0.7991030339534065
0.18514688690865375 0.7183910749077007 0.916989201563601
0.28848124921494017 0.5736581421269884 0.8918788272251327
0.28434348557418615 0.7237252720921795 0.7998471165692675
0.388808585072032 0.5991673618757792 0.7991030339534065
0.3851468869086538 0.7183910749077007 0.916989201563601
0.4884812492149402 0.5736581421269884 0.8918788272251327
0.48434348557418616 0.7237252720921795 0.7998471165692675
0.588808585072032 0.5991673618757792 0.7991030339534065
0.5851468869086538 0.7183910749077007 0.916989201563601
0.6884812492149401 0.5736581421269884 0.8918788272251327
0.6843434855741862 0.7237252720921795 0.7998471165692675
0.7888085850720321 0.5991673618757792 0.7991030339534065
0.7851468869086538 0.7183910749077007 0.916989201563601
0.8884812492149401 0.5736581421269884 0.8918788272251327
0.8843434855741862 0.7237252720921795 0.7998471165692675
-0.011191414927968008 0.7991673618757793 0.7991030339534065
-0.014853113091346263 0.9183910749077008 0.916989201563601
0.08848124921494015 0.7736581421269885 0.8918788272251327
0.08434348557418618 0.9237252720921796 0.7998471165692675
0.18880858507203202 0.7991673618757793 0.7991030339534065
0.18514688690865375 0.9183910749077008 0.916989201563601
0.28848124921494017 0.7736581421269885 0.8918788272251327
0.28434348557418615 0.9237252720921796 0.7998471165692675
0.388808585072032 0.7991673618757793 0.7991030339534065
0.3851468869086538 0.9183910749077008 0.916989201563601
0.4884812492149402 0.7736581421269885 0.8918788272251327
0.48434348557418616 0.9237252720921796 0.7998471165692675
0.588808585072032 0.7991673618757793 0.7991030339534065
0.5851468869086538 0.9183910749077008 0.916989201563601
0.6884812492149401 0.7736581421269885 0.8918788272251327
0.6843434855741862 0.9237252720921796 0.7998471165692675
0.7888085850720321 0.7991673618757793 0.7991030339534065
0.7851468869086538 0.9183910749077008 0.916989201563601
0.8884812492149401 0.7736581421269885 0.8918788272251327
0.8843434855741862 0.9237252720921796 0.7998471165692675
0.1296091727958207 -0.02434763183027476 -0.005201725052872239
-0.0016498271912202022 0.08044573169482015 0.019697003054906903
-0.021703124476379412 0.018971379741579555 0.0944658872532097
0.07894035538460545 0.10337453092897018 0.08876886049323786
0.32960917279582075 -0.02434763183027476 -0.005201725052872239
0.1983501728087798 0.08044573169482015 0.019697003054906903
0.1782968755236206 0.018971379741579555 0.0944658872532097
0.27894035538460543 0.10337453092897018 0.08876886049323786
0.5296091727958208 -0.02434763183027476 -0.005201725052872239
0.3983501728087798 0.08044573169482015 0.019697003054906903
0.3782968755236206 0.018971379741579555 0.0944658872532097
0.47894035538460544 0.10337453092897018 0.08876886049323786
0.7296091727958207 -0.02434763183027476 -0.005201725052872239
0.5983501728087798 0.08044573169482015 0.019697003054906903
0.5782968755236205 0.018971379741579555 0.0944658872532097
0.6789403553846055 0.10337453092897018 0.08876886049323786
0.9296091727958207 -0.02434763183027476 -0.005201725052872239
0.7983501728087798 0.08044573169482015 0.019697003054906903
0.7782968755236206 0.018971379741579555 0.0944658872532097
0.8789403553846054 0.10337453092897018 0.08876886049323786
0.1296091727958207 0.17565236816972526 -0.005201725052872239
-0.0016498271912202022 0.2804457316948201 0.019697003054906903
-0.021703124476379412 0.21897137974157954 0.0944658872532097
0.07894035538460545 0.3033745309289702 0.08876886049323786
0.32960917279582075 0.17565236816972526 -0.005201725052872239
0.1983501728087798 0.2804457316948201 0.019697003054906903
0.1782968755236206 0.21897137974157954 0.0944658872532097
0.27894035538460543 0.3033745309289702 0.08876886049323786
0.5296091727958208 0.17565236816972526 -0.005201725052872239
0.3983501728087798 0.2804457316948201 0.019697003054906903
0.3782968755236206 0.21897137974157954 0.0944658872532097
0.47894035538460544 0.3033745309289702 0.08876886049323786
0.7296091727958207 0.17565236816972526 -0.005201725052872239
0.5983501728087798 0.2804457316948201 0.019697003054906903
0.5782968755236205 0.21897137974157954 0.0944658872532097
0.6789403553846055 0.3033745309289702 0.08876886049323786
0.9296091727958207 0.17565236816972526 -0.005201725052872239
0.7983501728087798 0.2804457316948201 0.019697003054906903
0.7782968755236206 0.21897137974157954 0.0944658872532097
0.8789403553846054 0.3033745309289702 0.08876886049323786
0.1296091727958207 0.37565236816972525 -0.005201725052872239
-0.0016498271912202022 0.48044573169482013 0.019697003054906903
-0.021703124476379412 0.4189713797415796 0.0944658872532097
0.07894035538460545 0.5033745309289702 0.08876886049323786
0.32960917279582075 0.37565236816972525 -0.005201725052872239
0.1983501728087798 0.48044573169482013 0.019697003054906903
0.1782968755236206 0.4189713797415796 0.0944658872532097
0.27894035538460543 0.5033745309289702 0.08876886049323786
0.5296091727958208 0.37565236816972525 -0.005201725052872239
0.3983501728087798 0.48044573169482013 0.019697003054906903
0.3782968755236206 0.4189713797415796 0.0944658872532097
0.47894035538460544 0.5033745309289702 0.08876886049323786
0.7296091727958207 0.37565236816972525 -0.005201725052872239
0.5983501728087798 0.48044573169482013 0.019697003054906903
0.5782968755236205 0.4189713797415796 0.0944658872532097
0.6789403553846055 0.5033745309289702 0.08876886049323786
0.9296091727958207 0.37565236816972525 -0.005201725052872239
0.7983501728087798 0.48044573169482013 0.019697003054906903
0.7782968755236206 0.4189713797415796 0.0944658872532097
0.8789403553846054 0.5033745309289702 0.08876886049323786
0.1296091727958207 0.5756523681697252 -0.005201725052872239
-0.0016498271912202022 0.6804457316948201 0.019697003054906903
-0.021703124476379412 0.6189713797415797 0.0944658872532097
0.07894035538460545 0.7033745309289703 0.08876886049323786
0.32960917279582075 0.5756523681697252 -0.005201725052872239
0.1983501728087798 0.6804457316948201 0.019697003054906903
0.1782968755236206 0.6189713797415797 0.0944658872532097
0.27894035538460543 0.7033745309289703 0.08876886049323786
0.5296091727958208 0.5756523681697252 -0.005201725052872239
0.3983501728087798 0.6804457316948201 0.019697003054906903
0.3782968755236206 0.6189713797415797 0.0944658872532097
0.47894035538460544 0.7033745309289703 0.08876886049323786
0.7296091727958207 0.5756523681697252 -0.005201725052872239
0.5983501728087798 0.6804457316948201 0.019697003054906903
0.5782968755236205 0.6189713797415797 0.0944658872532097
0.6789403553846055 0.7033745309289703 0.08876886049323786
0.9296091727958207 0.5756523681697252 -0.005201725052872239
0.7983501728087798 0.6804457316948201 0.019697003054906903
0.7782968755236206 0.6189713797415797 0.0944658872532097
0.8789403553846054 0.7033745309289703 0.08876886049323786
0.1296091727958207 0.7756523681697253 -0.005201725052872239
-0.0016498271912202022 0.8804457316948202 0.019697003054906903
-0.021703124476379412 0.8189713797415795 0.0944658872532097
0.07894035538460545 0.9033745309289701 0.08876886049323786
0.32960917279582075 0.7756523681697253 -0.005201725052872239
0.1983501728087798 0.8804457316948202 0.019697003054906903
0.1782968755236206 0.8189713797415795 0.0944658872532097
0.27894035538460543 0.9033745309289701 0.08876886049323786
0.5296091727958208 0.7756523681697253 -0.005201725052872239
0.3983501728087798 0.8804457316948202 0.019697003054906903
0.3782968755236206 0.8189713797415795 0.0944658872532097
0.47894035538460544 0.9033745309289701 0.08876886049323786
0.7296091727958207 0.7756523681697253 -0.005201725052872239
0.5983501728087798 0.8804457316948202 0.019697003054906903
0.5782968755236205 0.8189713797415795 0.0944658872532097
0.6789403553846055 0.9033745309289701 0.08876886049323786
0.9296091727958207 0.7756523681697253 -0.005201725052872239
0.7983501728087798 0.8804457316948202 0.019697003054906903
0.7782968755236206 0.8189713797415795 0.0944658872532097
0.8789403553846054 0.9033745309289701 0.08876886049323786
0.1296091727958207 -0.02434763183027476 0.19479827494712776
-0.0016498271912202022 0.08044573169482015 0.21969700305490691
-0.021703124476379412 0.018971379741579555 0.2944658872532097
0.07894035538460545 0.10337453092897018 0.28876886049323786
0.32960917279582075 -0.02434763183027476 0.19479827494712776
0.1983501728087798 0.08044573169482015 0.21969700305490691
0.1782968755236206 0.018971379741579555 0.2944658872532097
0.27894035538460543 0.10337453092897018 0.28876886049323786
0.5296091727958208 -0.02434763183027476 0.19479827494712776
0.3983501728087798 0.08044573169482015 0.21969700305490691
0.3782968755236206 0.018971379741579555 0.2944658872532097
0.47894035538460544 0.10337453092897018 0.28876886049323786
0.7296091727958207 -0.02434763183027476 0.19479827494712776
0.5983501728087798 0.08044573169482015 0.21969700305490691
0.5782968755236205 0.018971379741579555 0.2944658872532097
0.6789403553846055 0.10337453092897018 0.28876886049323786
0.9296091727958207 -0.02434763183027476 0.19479827494712776
0.7983501728087798 0.08044573169482015 0.21969700305490691
0.7782968755236206 0.018971379741579555 0.2944658872532097
0.8789403553846054 0.10337453092897018 0.28876886049323786
0.1296091727958207 0.17565236816972526 0.19479827494712776
-0.0016498271912202022 0.2804457316948201 0.21969700305490691
-0.021703124476379412 0.21897137974157954 0.2944658872532097
0.07894035538460545 0.3033745309289702 0.28876886049323786
0.32960917279582075 0.17565236816972526 0.19479827494712776
0.1983501728087798 0.2804457316948201 0.21969700305490691
0.1782968755236206 0.21897137974157954 0.2944658872532097
0.27894035538460543 0.3033745309289702 0.28876886049323786
0.5296091727958208 0.17565236816972526 0.19479827494712776
0.3983501728087798 0.2804457316948201 0.21969700305490691
0.3782968755236206 0.21897137974157954 0.2944658872532097
0.47894035538460544 0.3033745309289702 0.28876886049323786
0.7296091727958207 0.17565236816972526 0.19479827494712776
0.5983501728087798 0.2804457316948201 0.21969700305490691
0.5782968755236205 0.21897137974157954 0.2944658872532097
0.6789403553846055 0.3033745309289702 0.28876886049323786
0.9296091727958207 0.17565236816972526 0.19479827494712776
0.7983501728087798 0.2804457316948201 0.21969700305490691
0.7782968755236206 0.21897137974157954 0.2944658872532097
0.8789403553846054 0.3033745309289702 0.28876886049323786
0.1296091727958207 0.37565236816972525 0.19479827494712776
-0.0016498271912202022 0.48044573169482013 0.21969700305490691
-0.021703124476379412 0.4189713797415796 0.2944658872532097
0.07894035538460545 0.5033745309289702 0.28876886049323786
0.32960917279582075 0.37565236816972525 0.19479827494712776
0.1983501728087798 0.48044573169482013 0.21969700305490691
0.1782968755236206 0.4189713797415796 0.2944658872532097
0.27894035538460543 0.5033745309289702 0.28876886049323786
0.5296091727958208 0.37565236816972525 0.19479827494712776
0.3983501728087798 0.48044573169482013 0.21969700305490691
0.3782968755236206 0.4189713797415796 0.2944658872532097
0.47894035538460544 0.5033745309289702 0.28876886049323786
0.7296091727958207 0.37565236816972525 0.19479827494712776
0.5983501728087798 0.48044573169482013 0.21969700305490691
0.5782968755236205 0.4189713797415796 0.2944658872532097
0.6789403553846055 0.5033745309289702 0.28876886049323786
0.9296091727958207 0.37565236816972525 0.19479827494712776
0.7983501728087798 0.48044573169482013 0.21969700305490691
0.7782968755236206 0.4189713797415796 0.2944658872532097
0.8789403553846054 0.5033745309289702 0.28876886049323786
0.1296091727958207 0.5756523681697252 0.19479827494712776
-0.0016498271912202022 0.6804457316948201 0.21969700305490691
-0.021703124476379412 0.6189713797415797 0.2944658872532097
0.07894035538460545 0.7033745309289703 0.28876886049323786
0.32960917279582075 0.5756523681697252 0.19479827494712776
0.1983501728087798 0.6804457316948201 0.21969700305490691
0.1782968755236206 0.6189713797415797 0.2944658872532097
0.27894035538460543 0.7033745309289703 0.28876886049323786
0.5296091727958208 0.5756523681697252 0.19479827494712776
0.3983501728087798 0.6804457316948201 0.21969700305490691
0.3782968755236206 0.6189713797415797 0.2944658872532097
0.47894035538460544 0.7033745309289703 0.28876886049323786
0.7296091727958207 0.5756523681697252 0.19479827494712776
0.5983501728087798 0.6804457316948201 0.21969700305490691
0.5782968755236205 0.6189713797415797 0.2944658872532097
0.6789403553846055 0.7033745309289703 0.28876886049323786
0.9296091727958207 0.5756523681697252 0.19479827494712776
0.7983501728087798 0.6804457316948201 0.21969700305490691
0.7782968755236206 0.6189713797415797 0.2944658872532097
0.8789403553846054 0.7033745309289703 0.28876886049323786
0.1296091727958207 0.7756523681697253 0.19479827494712776
-0.0016498271912202022 0.8804457316948202 0.21969700305490691
-0.021703124476379412 0.8189713797415795 0.2944658872532097
0.07894035538460545 0.9033745309289701 0.28876886049323786
0.32960917279582075 0.7756523681697253 0.19479827494712776
0.1983501728087798 0.8804457316948202 0.21969700305490691
0.1782968755236206 0.8189713797415795 0.2944658872532097
0.27894035538460543 0.9033745309289701 0.28876886049323786
0.5296091727958208 0.7756523681697253 0.19479827494712776
0.3983501728087798 0.8804457316948202 0.21969700305490691
0.3782968755236206 0.8189713797415795 0.2944658872532097
0.47894035538460544 0.9033745309289701 0.28876886049323786
0.7296091727958207 0.7756523681697253 0.19479827494712776
0.5983501728087798 0.8804457316948202 0.21969700305490691
0.5782968755236205 0.8189713797415795 0.2944658872532097
0.6789403553846055 0.9033745309289701 0.28876886049323786
0.9296091727958207 0.7756523681697253 0.19479827494712776
0.7983501728087798 0.8804457316948202 0.21969700305490691
0.7782968755236206 0.8189713797415795 0.2944658872532097
0.8789403553846054 0.9033745309289701 0.28876886049323786
0.1296091727958207 -0.02434763183027476 0.39479827494712777
-0.0016498271912202022 0.08044573169482015 0.419697003054907
-0.021703124476379412 0.018971379741579555 0.4944658872532097
0.07894035538460545 0.10337453092897018 0.48876886049323787
0.32960917279582075 -0.02434763183027476 0.39479827494712777
0.1983501728087798 0.08044573169482015 0.419697003054907
0.1782968755236206 0.018971379741579555 0.4944658872532097
0.27894035538460543 0.10337453092897018 0.48876886049323787
0.5296091727958208 -0.02434763183027476 0.39479827494712777
0.3983501728087798 0.08044573169482015 0.419697003054907
0.3782968755236206 0.018971379741579555 0.4944658872532097
0.47894035538460544 0.10337453092897018 0.48876886049323787
0.7296091727958207 -0.02434763183027476 0.39479827494712777
0.5983501728087798 0.08044573169482015 0.419697003054907
0.5782968755236205 0.018971379741579555 0.4944658872532097
0.6789403553846055 0.10337453092897018 0.48876886049323787
0.9296091727958207 -0.02434763183027476 0.39479827494712777
0.7983501728087798 0.08044573169482015 0.419697003054907
0.7782968755236206 0.018971379741579555 0.4944658872532097
0.8789403553846054 0.10337453092897018 0.48876886049323787
0.1296091727958207 0.17565236816972526 0.39479827494712777
-0.0016498271912202022 0.2804457316948201 0.419697003054907
-0.021703124476379412 0.21897137974157954 0.4944658872532097
0.07894035538460545 0.3033745309289702 0.48876886049323787
0.32960917279582075 0.17565236816972526 0.39479827494712777
0.1983501728087798 0.2804457316948201 0.419697003054907
0.1782968755236206 0.21897137974157954 0.4944658872532097
0.27894035538460543 0.3033745309289702 0.48876886049323787
0.5296091727958208 0.17565236816972526 0.39479827494712777
0.3983501728087798 0.2804457316948201 0.419697003054907
0.3782968755236206 0.21897137974157954 0.4944658872532097
0.47894035538460544 0.3033745309289702 0.48876886049323787
0.7296091727958207 0.17565236816972526 0.39479827494712777
0.5983501728087798 0.2804457316948201 0.419697003054907
0.5782968755236205 0.21897137974157954 0.4944658872532097
0.6789403553846055 0.3033745309289702 0.48876886049323787
0.9296091727958207 0.17565236816972526 0.39479827494712777
0.7983501728087798 0.2804457316948201 0.419697003054907
0.7782968755236206 0.21897137974157954 0.4944658872532097
0.8789403553846054 0.3033745309289702 0.48876886049323787
0.1296091727958207 0.37565236816972525 0.39479827494712777
-0.0016498271912202022 0.48044573169482013 0.419697003054907
-0.021703124476379412 0.4189713797415796 0.4944658872532097
0.07894035538460545 0.5033745309289702 0.48876886049323787
0.32960917279582075 0.37565236816972525 0.39479827494712777
0.1983501728087798 0.48044573169482013 0.419697003054907
0.1782968755236206 0.4189713797415796 0.4944658872532097
0.27894035538460543 0.5033745309289702 0.48876886049323787
0.5296091727958208 0.37565236816972525 0.39479827494712777
0.3983501728087798 0.48044573169482013 0.419697003054907
0.3782968755236206 0.4189713797415796 0.4944658872532097
0.47894035538460544 0.5033745309289702 0.48876886049323787
0.7296091727958207 0.37565236816972525 0.39479827494712777
0.5983501728087798 0.48044573169482013 0.419697003054907
0.5782968755236205 0.4189713797415796 0.4944658872532097
0.6789403553846055 0.5033745309289702 0.48876886049323787
0.9296091727958207 0.37565236816972525 0.39479827494712777
0.7983501728087798 0.48044573169482013 0.419697003054907
0.7782968755236206 0.4189713797415796 0.4944658872532097
0.8789403553846054 0.5033745309289702 0.48876886049323787
0.1296091727958207 0.5756523681697252 0.39479827494712777
-0.0016498271912202022 0.6804457316948201 0.419697003054907
-0.021703124476379412 0.6189713797415797 0.4944658872532097
0.07894035538460545 0.7033745309289703 0.48876886049323787
0.32960917279582075 0.5756523681697252 0.39479827494712777
0.1983501728087798 0.6804457316948201 0.419697003054907
0.1782968755236206 0.6189713797415797 0.4944658872532097
0.27894035538460543 0.7033745309289703 0.48876886049323787
0.5296091727958208 0.5756523681697252 0.39479827494712777
0.3983501728087798 0.6804457316948201 0.419697003054907
0.3782968755236206 0.6189713797415797 0.4944658872532097
0.47894035538460544 0.7033745309289703 0.48876886049323787
0.7296091727958207 0.5756523681697252 0.39479827494712777
0.5983501728087798 0.6804457316948201 0.419697003054907
0.5782968755236205 0.6189713797415797 0.4944658872532097
0.6789403553846055 0.7033745309289703 0.48876886049323787
0.9296091727958207 0.5756523681697252 0.39479827494712777
0.7983501728087798 0.6804457316948201 0.419697003054907
0.7782968755236206 0.6189713797415797 0.4944658872532097
0.8789403553846054 0.7033745309289703 0.48876886049323787
0.1296091727958207 0.7756523681697253 0.39479827494712777
-0.0016498271912202022 0.8804457316948202 0.419697003054907
-0.021703124476379412 0.8189713797415795 0.4944658872532097
0.07894035538460545 0.9033745309289701 0.48876886049323787
0.32960917279582075 0.7756523681697253 0.39479827494712777
0.1983501728087798 0.8804457316948202 0.419697003054907
0.1782968755236206 0.8189713797415795 0.4944658872532097
0.27894035538460543 0.9033745309289701 0.48876886049323787
0.5296091727958208 0.7756523681697253 0.39479827494712777
0.3983501728087798 0.8804457316948202 0.419697003054907
0.3782968755236206 0.8189713797415795 0.4944658872532097
0.47894035538460544 0.9033745309289701 0.48876886049323787
0.7296091727958207 0.7756523681697253 0.39479827494712777
0.5983501728087798 0.8804457316948202 0.419697003054907
0.5782968755236205 0.8189713797415795 0.4944658872532097
0.6789403553846055 0.9033745309289701 0.48876886049323787
0.9296091727958207 0.7756523681697253 0.39479827494712777
0.7983501728087798 0.8804457316948202 0.419697003054907
0.7782968755236206 0.8189713797415795 0.4944658872532097
0.8789403553846054 0.9033745309289701 0.48876886049323787
0.1296091727958207 -0.02434763183027476 0.5947982749471278
-0.0016498271912202022 0.08044573169482015 0.6196970030549069
-0.021703124476379412 0.018971379741579555 0.6944658872532097
0.07894035538460545 0.10337453092897018 0.6887688604932379
0.32960917279582075 -0.02434763183027476 0.5947982749471278
0.1983501728087798 0.08044573169482015 0.6196970030549069
0.1782968755236206 0.018971379741579555 0.6944658872532097
0.27894035538460543 0.10337453092897018 0.6887688604932379
0.5296091727958208 -0.02434763183027476 0.5947982749471278
0.3983501728087798 0.08044573169482015 0.6196970030549069
0.3782968755236206 0.018971379741579555 0.6944658872532097
0.47894035538460544 0.10337453092897018 0.6887688604932379
0.7296091727958207 -0.02434763183027476 0.5947982749471278
0.5983501728087798 0.08044573169482015 0.6196970030549069
0.5782968755236205 0.018971379741579555 0.6944658872532097
0.6789403553846055 0.10337453092897018 0.6887688604932379
0.9296091727958207 -0.02434763183027476 0.5947982749471278
0.7983501728087798 0.08044573169482015 0.6196970030549069
0.7782968755236206 0.018971379741579555 0.6944658872532097
0.8789403553846054 0.10337453092897018 0.6887688604932379
0.1296091727958207 0.17565236816972526 0.5947982749471278
-0.0016498271912202022 0.2804457316948201 0.6196970030549069
-0.021703124476379412 0.21897137974157954 0.6944658872532097
0.07894035538460545 0.3033745309289702 0.6887688604932379
0.32960917279582075 0.17565236816972526 0.5947982749471278
0.1983501728087798 0.2804457316948201 0.6196970030549069
0.1782968755236206 0.21897137974157954 0.6944658872532097
0.27894035538460543 0.3033745309289702 0.6887688604932379
0.5296091727958208 0.17565236816972526 0.5947982749471278
0.3983501728087798 0.2804457316948201 0.6196970030549069
0.3782968755236206 0.21897137974157954 0.6944658872532097
0.47894035538460544 0.3033745309289702 0.6887688604932379
0.7296091727958207 0.17565236816972526 0.5947982749471278
0.5983501728087798 0.2804457316948201 0.6196970030549069
0.5782968755236205 0.21897137974157954 0.6944658872532097
0.6789403553846055 0.3033745309289702 0.6887688604932379
0.9296091727958207 0.17565236816972526 0.5947982749471278
0.7983501728087798 0.2804457316948201 0.6196970030549069
0.7782968755236206 0.21897137974157954 0.6944658872532097
0.8789403553846054 0.3033745309289702 0.6887688604932379
0.1296091727958207 0.37565236816972525 0.5947982749471278
-0.0016498271912202022 0.48044573169482013 0.6196970030549069
-0.021703124476379412 0.4189713797415796 0.6944658872532097
0.07894035538460545 0.5033745309289702 0.6887688604932379
0.32960917279582075 0.37565236816972525 0.5947982749471278
0.1983501728087798 0.48044573169482013 0.6196970030549069
0.1782968755236206 0.4189713797415796 0.6944658872532097
0.27894035538460543 0.5033745309289702 0.6887688604932379
0.5296091727958208 0.37565236816972525 0.5947982749471278
0.3983501728087798 0.48044573169482013 0.6196970030549069
0.3782968755236206 0.4189713797415796 0.6944658872532097
0.47894035538460544 0.5033745309289702 0.6887688604932379
0.7296091727958207 0.37565236816972525 0.5947982749471278
0.5983501728087798 0.48044573169482013 0.6196970030549069
0.5782968755236205 0.4189713797415796 0.6944658872532097
0.6789403553846055 0.5033745309289702 0.6887688604932379
0.9296091727958207 0.37565236816972525 0.5947982749471278
0.7983501728087798 0.48044573169482013 0.6196970030549069
0.7782968755236206 0.4189713797415796 0.6944658872532097
0.8789403553846054 0.5033745309289702 0.6887688604932379
0.1296091727958207 0.5756523681697252 0.5947982749471278
-0.0016498271912202022 0.6804457316948201 0.6196970030549069
-0.021703124476379412 0.6189713797415797 0.6944658872532097
0.07894035538460545 0.7033745309289703 0.6887688604932379
0.32960917279582075 0.5756523681697252 0.5947982749471278
0.1983501728087798 0.6804457316948201 0.6196970030549069
0.1782968755236206 0.6189713797415797 0.6944658872532097
0.27894035538460543 0.7033745309289703 0.6887688604932379
0.5296091727958208 0.5756523681697252 0.5947982749471278
0.3983501728087798 0.6804457316948201 0.6196970030549069
0.3782968755236206 0.6189713797415797 0.6944658872532097
0.47894035538460544 0.7033745309289703 0.6887688604932379
0.7296091727958207 0.5756523681697252 0.5947982749471278
0.5983501728087798 0.6804457316948201 0.6196970030549069
0.5782968755236205 0.6189713797415797 0.6944658872532097
0.6789403553846055 0.7033745309289703 0.6887688604932379
0.9296091727958207 0.5756523681697252 0.5947982749471278
0.7983501728087798 0.6804457316948201 0.6196970030549069
0.7782968755236206 0.6189713797415797 0.6944658872532097
0.8789403553846054 0.7033745309289703 0.6887688604932379
0.1296091727958207 0.7756523681697253 0.5947982749471278
-0.0016498271912202022 0.8804457316948202 0.6196970030549069
-0.021703124476379412 0.8189713797415795 0.6944658872532097
0.07894035538460545 0.9033745309289701 0.6887688604932379
0.32960917279582075 0.7756523681697253 0.5947982749471278
0.1983501728087798 0.8804457316948202 0.6196970030549069
0.1782968755236206 0.8189713797415795 0.6944658872532097
0.27894035538460543 0.9033745309289701 0.6887688604932379
0.5296091727958208 0.7756523681697253 0.5947982749471278
0.3983501728087798 0.8804457316948202 0.6196970030549069
0.3782968755236206 0.8189713797415795 0.6944658872532097
0.47894035538460544 0.9033745309289701 0.6887688604932379
0.7296091727958207 0.7756523681697253 0.5947982749471278
0.5983501728087798 0.8804457316948202 0.6196970030549069
0.5782968755236205 0.8189713797415795 0.6944658872532097
0.6789403553846055 0.9033745309289701 0.6887688604932379
0.9296091727958207 0.7756523681697253 0.5947982749471278
0.7983501728087798 0.8804457316948202 0.6196970030549069
0.7782968755236206 0.8189713797415795 0.6944658872532097
0.8789403553846054 0.9033745309289701 0.6887688604932379
0.1296091727958207 -0.02434763183027476 0.7947982749471278
-0.0016498271912202022 0.08044573169482015 0.819697003054907
-0.021703124476379412 0.018971379741579555 0.8944658872532097
0.07894035538460545 0.10337453092897018 0.8887688604932379
0.32960917279582075 -0.02434763183027476 0.7947982749471278
0.1983501728087798 0.08044573169482015 0.819697003054907
0.1782968755236206 0.018971379741579555 0.8944658872532097
0.27894035538460543 0.10337453092897018 0.8887688604932379
0.5296091727958208 -0.02434763183027476 0.7947982749471278
0.3983501728087798 0.08044573169482015 0.819697003054907
0.3782968755236206 0.018971379741579555 0.8944658872532097
0.47894035538460544 0.10337453092897018 0.8887688604932379
0.7296091727958207 -0.02434763183027476 0.7947982749471278
0.5983501728087798 0.08044573169482015 0.819697003054907
0.5782968755236205 0.018971379741579555 0.8944658872532097
0.6789403553846055 0.10337453092897018 0.8887688604932379
0.9296091727958207 -0.02434763183027476 0.7947982749471278
0.7983501728087798 0.08044573169482015 0.819697003054907
0.7782968755236206 0.018971379741579555 0.8944658872532097
0.8789403553846054 0.10337453092897018 0.8887688604932379
0.1296091727958207 0.17565236816972526 0.7947982749471278
-0.0016498271912202022 0.2804457316948201 0.819697003054907
-0.021703124476379412 0.21897137974157954 0.8944658872532097
0.07894035538460545 0.3033745309289702 0.8887688604932379
0.32960917279582075 0.17565236816972526 0.7947982749471278
0.1983501728087798 0.2804457316948201 0.819697003054907
0.1782968755236206 0.21897137974157954 0.8944658872532097
0.27894035538460543 0.3033745309289702 0.8887688604932379
0.5296091727958208 0.17565236816972526 0.7947982749471278
0.3983501728087798 0.2804457316948201 0.819697003054907
0.3782968755236206 0.21897137974157954 0.8944658872532097
0.47894035538460544 0.3033745309289702 0.8887688604932379
0.7296091727958207 0.17565236816972526 0.7947982749471278
0.5983501728087798 0.2804457316948201 0.819697003054907
0.5782968755236205 0.21897137974157954 0.8944658872532097
0.6789403553846055 0.3033745309289702 0.8887688604932379
0.9296091727958207 0.17565236816972526 0.7947982749471278
0.7983501728087798 0.2804457316948201 0.819697003054907
0.7782968755236206 0.21897137974157954 0.8944658872532097
0.8789403553846054 0.3033745309289702 0.8887688604932379
0.1296091727958207 0.37565236816972525 0.7947982749471278
-0.0016498271912202022 0.48044573169482013 0.819697003054907
-0.021703124476379412 0.4189713797415796 0.8944658872532097
0.07894035538460545 0.5033745309289702 0.8887688604932379
0.32960917279582075 0.37565236816972525 0.7947982749471278
0.1983501728087798 0.48044573169482013 0.819697003054907
0.1782968755236206 0.4189713797415796 0.8944658872532097
0.27894035538460543 0.5033745309289702 0.8887688604932379
0.5296091727958208 0.37565236816972525 0.7947982749471278
0.3983501728087798 0.48044573169482013 0.819697003054907
0.3782968755236206 0.4189713797415796 0.8944658872532097
0.47894035538460544 0.5033745309289702 0.8887688604932379
0.7296091727958207 0.37565236816972525 0.7947982749471278
0.5983501728087798 0.48044573169482013 0.819697003054907
0.5782968755236205 0.4189713797415796 0.8944658872532097
0.6789403553846055 0.5033745309289702 0.8887688604932379
0.9296091727958207 0.37565236816972525 0.7947982749471278
0.7983501728087798 0.48044573169482013 0.819697003054907
0.7782968755236206 0.4189713797415796 0.8944658872532097
0.8789403553846054 0.5033745309289702 0.8887688604932379
0.1296091727958207 0.5756523681697252 0.7947982749471278
-0.0016498271912202022 0.6804457316948201 0.819697003054907
-0.021703124476379412 0.6189713797415797 0.8944658872532097
0.07894035538460545 0.7033745309289703 0.8887688604932379
0.32960917279582075 0.5756523681697252 0.7947982749471278
0.1983501728087798 0.6804457316948201 0.819697003054907
0.1782968755236206 0.6189713797415797 0.8944658872532097
0.27894035538460543 0.7033745309289703 0.8887688604932379
0.5296091727958208 0.5756523681697252 0.7947982749471278
0.3983501728087798 0.6804457316948201 0.819697003054907
0.3782968755236206 0.6189713797415797 0.8944658872532097
0.47894035538460544 0.7033745309289703 0.8887688604932379
0.7296091727958207 0.5756523681697252 0.7947982749471278
0.5983501728087798 0.6804457316948201 0.819697003054907
0.5782968755236205 0.6189713797415797 0.8944658872532097
0.6789403553846055 0.7033745309289703 0.8887688604932379
0.9296091727958207 0.5756523681697252 0.7947982749471278
0.7983501728087798 0.6804457316948201 0.819697003054907
0.7782968755236206 0.6189713797415797 0.8944658872532097
0.8789403553846054 0.7033745309289703 0.8887688604932379
0.1296091727958207 0.7756523681697253 0.7947982749471278
-0.0016498271912202022 0.8804457316948202 0.819697003054907
-0.021703124476379412 0.8189713797415795 0.8944658872532097
0.07894035538460545 0.9033745309289701 0.8887688604932379
0.32960917279582075 0.7756523681697253 0.7947982749471278
0.1983501728087798 0.8804457316948202 0.819697003054907
0.1782968755236206 0.8189713797415795 0.8944658872532097
0.27894035538460543 0.9033745309289701 0.8887688604932379
0.5296091727958208 0.7756523681697253 0.7947982749471278
0.3983501728087798 0.8804457316948202 0.819697003054907
0.3782968755236206 0.8189713797415795 0.8944658872532097
0.47894035538460544 0.9033745309289701 0.8887688604932379
0.7296091727958207 0.7756523681697253 0.7947982749471278
0.5983501728087798 0.8804457316948202 0.819697003054907
0.5782968755236205 0.8189713797415795 0.8944658872532097
0.6789403553846055 0.9033745309289701 0.8887688604932379
0.9296091727958207 0.7756523681697253 0.7947982749471278
0.7983501728087798 0.8804457316948202 0.819697003054907
0.7782968755236206 0.8189713797415795 0.8944658872532097
0.8789403553846054 0.9033745309289701 0.8887688604932379
