FCC BaO
5.61604
3.0 0.0 0.0
0.0 3.0 0.0
0.0 0.0 3.0
Ba O 
108 108 
Direct
0.057636347837171455 -0.6233807005970782 -0.09938256404811203
0.040055750001984275 -0.12077361506253068 0.062015810750971956
0.5249730325697155 -0.7905339461172303 0.520045492018163
-0.404128801640945 0.31558121215018153 -0.024540769870628483
0.3909696811705048 -0.6233807005970782 -0.09938256404811203
0.37338908333531756 -0.12077361506253068 0.062015810750971956
0.858306365903049 -0.7905339461172303 0.520045492018163
-0.07079546830761166 0.31558121215018153 -0.024540769870628483
0.724303014503838 -0.6233807005970782 -0.09938256404811203
0.7067224166686509 -0.12077361506253068 0.062015810750971956
1.1916396992363822 -0.7905339461172303 0.520045492018163
0.26253786502572163 0.31558121215018153 -0.024540769870628483
0.057636347837171455 -0.2900473672637448 -0.09938256404811203
0.040055750001984275 0.2125597182708026 0.062015810750971956
0.5249730325697155 -0.4572006127838969 0.520045492018163
-0.404128801640945 0.6489145454835148 -0.024540769870628483
0.3909696811705048 -0.2900473672637448 -0.09938256404811203
0.37338908333531756 0.2125597182708026 0.062015810750971956
0.858306365903049 -0.4572006127838969 0.520045492018163
-0.07079546830761166 0.6489145454835148 -0.024540769870628483
0.724303014503838 -0.2900473672637448 -0.09938256404811203
0.7067224166686509 0.2125597182708026 0.062015810750971956
1.1916396992363822 -0.4572006127838969 0.520045492018163
0.26253786502572163 0.6489145454835148 -0.024540769870628483
0.057636347837171455 0.04328596606958849 -0.09938256404811203
0.040055750001984275 0.5458930516041359 0.062015810750971956
0.5249730325697155 -0.1238672794505636 0.520045492018163
-0.404128801640945 0.982247878816848 -0.024540769870628483
0.3909696811705048 0.04328596606958849 -0.09938256404811203
0.37338908333531756 0.5458930516041359 0.062015810750971956
0.858306365903049 -0.1238672794505636 0.520045492018163
-0.07079546830761166 0.982247878816848 -0.024540769870628483
0.724303014503838 0.04328596606958849 -0.09938256404811203
0.7067224166686509 0.5458930516041359 0.062015810750971956
1.1916396992363822 -0.1238672794505636 0.520045492018163
0.26253786502572163 0.982247878816848 -0.024540769870628483
0.057636347837171455 -0.6233807005970782 0.2339507692852213
0.040055750001984275 -0.12077361506253068 0.3953491440843053
0.5249730325697155 -0.7905339461172303 0.8533788253514963
-0.404128801640945 0.31558121215018153 0.30879256346270484
0.3909696811705048 -0.6233807005970782 0.2339507692852213
0.37338908333531756 -0.12077361506253068 0.3953491440843053
0.858306365903049 -0.7905339461172303 0.8533788253514963
-0.07079546830761166 0.31558121215018153 0.30879256346270484
0.724303014503838 -0.6233807005970782 0.2339507692852213
0.7067224166686509 -0.12077361506253068 0.3953491440843053
1.1916396992363822 -0.7905339461172303 0.8533788253514963
0.26253786502572163 0.31558121215018153 0.30879256346270484
0.057636347837171455 -0.2900473672637448 0.2339507692852213
0.040055750001984275 0.2125597182708026 0.3953491440843053
0.5249730325697155 -0.4572006127838969 0.8533788253514963
-0.404128801640945 0.6489145454835148 0.30879256346270484
0.3909696811705048 -0.2900473672637448 0.2339507692852213
0.37338908333531756 0.2125597182708026 0.3953491440843053
0.858306365903049 -0.4572006127838969 0.8533788253514963
-0.07079546830761166 0.6489145454835148 0.30879256346270484
0.724303014503838 -0.2900473672637448 0.2339507692852213
0.7067224166686509 0.2125597182708026 0.3953491440843053
1.1916396992363822 -0.4572006127838969 0.8533788253514963
0.26253786502572163 0.6489145454835148 0.30879256346270484
0.057636347837171455 0.04328596606958849 0.2339507692852213
0.040055750001984275 0.5458930516041359 0.3953491440843053
0.5249730325697155 -0.1238672794505636 0.8533788253514963
-0.404128801640945 0.982247878816848 0.30879256346270484
0.3909696811705048 0.04328596606958849 0.2339507692852213
0.37338908333531756 0.5458930516041359 0.3953491440843053
0.858306365903049 -0.1238672794505636 0.8533788253514963
-0.07079546830761166 0.982247878816848 0.30879256346270484
0.724303014503838 0.04328596606958849 0.2339507692852213
0.7067224166686509 0.5458930516041359 0.3953491440843053
1.1916396992363822 -0.1238672794505636 0.8533788253514963
0.26253786502572163 0.982247878816848 0.30879256346270484
0.057636347837171455 -0.6233807005970782 0.5672841026185546
0.040055750001984275 -0.12077361506253068 0.7286824774176386
0.5249730325697155 -0.7905339461172303 1.1867121586848297
-0.404128801640945 0.31558121215018153 0.6421258967960382
0.3909696811705048 -0.6233807005970782 0.5672841026185546
0.37338908333531756 -0.12077361506253068 0.7286824774176386
0.858306365903049 -0.7905339461172303 1.1867121586848297
-0.07079546830761166 0.31558121215018153 0.6421258967960382
0.724303014503838 -0.6233807005970782 0.5672841026185546
0.7067224166686509 -0.12077361506253068 0.7286824774176386
1.1916396992363822 -0.7905339461172303 1.1867121586848297
0.26253786502572163 0.31558121215018153 0.6421258967960382
0.057636347837171455 -0.2900473672637448 0.5672841026185546
0.040055750001984275 0.2125597182708026 0.7286824774176386
0.5249730325697155 -0.4572006127838969 1.1867121586848297
-0.404128801640945 0.6489145454835148 0.6421258967960382
0.3909696811705048 -0.2900473672637448 0.5672841026185546
0.37338908333531756 0.2125597182708026 0.7286824774176386
0.858306365903049 -0.4572006127838969 1.1867121586848297
-0.07079546830761166 0.6489145454835148 0.6421258967960382
0.724303014503838 -0.2900473672637448 0.5672841026185546
0.7067224166686509 0.2125597182708026 0.7286824774176386
1.1916396992363822 -0.4572006127838969 1.1867121586848297
0.26253786502572163 0.6489145454835148 0.6421258967960382
0.057636347837171455 0.04328596606958849 0.5672841026185546
0.040055750001984275 0.5458930516041359 0.7286824774176386
0.5249730325697155 -0.1238672794505636 1.1867121586848297
-0.404128801640945 0.982247878816848 0.6421258967960382
0.3909696811705048 0.04328596606958849 0.5672841026185546
0.37338908333531756 0.5458930516041359 0.7286824774176386
0.858306365903049 -0.1238672794505636 1.1867121586848297
-0.07079546830761166 0.982247878816848 0.6421258967960382
0.724303014503838 0.04328596606958849 0.5672841026185546
0.7067224166686509 0.5458930516041359 0.7286824774176386
1.1916396992363822 -0.1238672794505636 1.1867121586848297
0.26253786502572163 0.982247878816848 0.6421258967960382
0.8162309531608459 0.015192498057112933 -0.357966398128473
0.016407709428313252 0.5879726098466386 -0.41512046845071915
0.5609393742153381 0.31005648302600813 0.4004719469256326
0.09625614606163786 0.16415540018768032 -0.3272166926734762
1.1495642864941793 0.015192498057112933 -0.357966398128473
0.3497410427616466 0.5879726098466386 -0.41512046845071915
0.8942727075486714 0.31005648302600813 0.4004719469256326
0.42958947939497116 0.16415540018768032 -0.3272166926734762
1.4828976198275126 0.015192498057112933 -0.357966398128473
0.6830743760949798 0.5879726098466386 -0.41512046845071915
1.2276060408820046 0.31005648302600813 0.4004719469256326
0.7629228127283044 0.16415540018768032 -0.3272166926734762
0.8162309531608459 0.34852583139044624 -0.357966398128473
0.016407709428313252 0.9213059431799719 -0.41512046845071915
0.5609393742153381 0.6433898163593414 0.4004719469256326
0.09625614606163786 0.49748873352101364 -0.3272166926734762
1.1495642864941793 0.34852583139044624 -0.357966398128473
0.3497410427616466 0.9213059431799719 -0.41512046845071915
0.8942727075486714 0.6433898163593414 0.4004719469256326
0.42958947939497116 0.49748873352101364 -0.3272166926734762
1.4828976198275126 0.34852583139044624 -0.357966398128473
0.6830743760949798 0.9213059431799719 -0.41512046845071915
1.2276060408820046 0.6433898163593414 0.4004719469256326
0.7629228127283044 0.49748873352101364 -0.3272166926734762
0.8162309531608459 0.6818591647237795 -0.357966398128473
0.016407709428313252 1.2546392765133052 -0.41512046845071915
0.5609393742153381 0.9767231496926747 0.4004719469256326
0.09625614606163786 0.830822066854347 -0.3272166926734762
1.1495642864941793 0.6818591647237795 -0.357966398128473
0.3497410427616466 1.2546392765133052 -0.41512046845071915
0.8942727075486714 0.9767231496926747 0.4004719469256326
0.42958947939497116 0.830822066854347 -0.3272166926734762
1.4828976198275126 0.6818591647237795 -0.357966398128473
0.6830743760949798 1.2546392765133052 -0.41512046845071915
1.2276060408820046 0.9767231496926747 0.4004719469256326
0.7629228127283044 0.830822066854347 -0.3272166926734762
0.8162309531608459 0.015192498057112933 -0.024633064795139676
0.016407709428313252 0.5879726098466386 -0.08178713511738585
0.5609393742153381 0.31005648302600813 0.7338052802589659
0.09625614606163786 0.16415540018768032 0.006116640659857101
1.1495642864941793 0.015192498057112933 -0.024633064795139676
0.3497410427616466 0.5879726098466386 -0.08178713511738585
0.8942727075486714 0.31005648302600813 0.7338052802589659
0.42958947939497116 0.16415540018768032 0.006116640659857101
1.4828976198275126 0.015192498057112933 -0.024633064795139676
0.6830743760949798 0.5879726098466386 -0.08178713511738585
1.2276060408820046 0.31005648302600813 0.7338052802589659
0.7629228127283044 0.16415540018768032 0.006116640659857101
0.8162309531608459 0.34852583139044624 -0.024633064795139676
0.016407709428313252 0.9213059431799719 -0.08178713511738585
0.5609393742153381 0.6433898163593414 0.7338052802589659
0.09625614606163786 0.49748873352101364 0.006116640659857101
1.1495642864941793 0.34852583139044624 -0.024633064795139676
0.3497410427616466 0.9213059431799719 -0.08178713511738585
0.8942727075486714 0.6433898163593414 0.7338052802589659
0.42958947939497116 0.49748873352101364 0.006116640659857101
1.4828976198275126 0.34852583139044624 -0.024633064795139676
0.6830743760949798 0.9213059431799719 -0.08178713511738585
1.2276060408820046 0.6433898163593414 0.7338052802589659
0.7629228127283044 0.49748873352101364 0.006116640659857101
0.8162309531608459 0.6818591647237795 -0.024633064795139676
0.016407709428313252 1.2546392765133052 -0.08178713511738585
0.5609393742153381 0.9767231496926747 0.7338052802589659
0.09625614606163786 0.830822066854347 0.006116640659857101
1.1495642864941793 0.6818591647237795 -0.024633064795139676
0.3497410427616466 1.2546392765133052 -0.08178713511738585
0.8942727075486714 0.9767231496926747 0.7338052802589659
0.42958947939497116 0.830822066854347 0.006116640659857101
1.4828976198275126 0.6818591647237795 -0.024633064795139676
0.6830743760949798 1.2546392765133052 -0.08178713511738585
1.2276060408820046 0.9767231496926747 0.7338052802589659
0.7629228127283044 0.830822066854347 0.006116640659857101
0.8162309531608459 0.015192498057112933 0.30870026853819366
0.016407709428313252 0.5879726098466386 0.2515461982159475
0.5609393742153381 0.31005648302600813 1.0671386135922991
0.09625614606163786 0.16415540018768032 0.33944997399319043
1.1495642864941793 0.015192498057112933 0.30870026853819366
0.3497410427616466 0.5879726098466386 0.2515461982159475
0.8942727075486714 0.31005648302600813 1.0671386135922991
0.42958947939497116 0.16415540018768032 0.33944997399319043
1.4828976198275126 0.015192498057112933 0.30870026853819366
0.6830743760949798 0.5879726098466386 0.2515461982159475
1.2276060408820046 0.31005648302600813 1.0671386135922991
0.7629228127283044 0.16415540018768032 0.33944997399319043
0.8162309531608459 0.34852583139044624 0.30870026853819366
0.016407709428313252 0.9213059431799719 0.2515461982159475
0.5609393742153381 0.6433898163593414 1.0671386135922991
0.09625614606163786 0.49748873352101364 0.33944997399319043
1.1495642864941793 0.34852583139044624 0.30870026853819366
0.3497410427616466 0.9213059431799719 0.2515461982159475
0.8942727075486714 0.6433898163593414 1.0671386135922991
0.42958947939497116 0.49748873352101364 0.33944997399319043
1.4828976198275126 0.34852583139044624 0.30870026853819366
0.6830743760949798 0.9213059431799719 0.2515461982159475
1.2276060408820046 0.6433898163593414 1.0671386135922991
0.7629228127283044 0.49748873352101364 0.33944997399319043
0.8162309531608459 0.6818591647237795 0.30870026853819366
0.016407709428313252 1.2546392765133052 0.2515461982159475
0.5609393742153381 0.9767231496926747 1.0671386135922991
0.09625614606163786 0.830822066854347 0.33944997399319043
1.1495642864941793 0.6818591647237795 0.30870026853819366
0.3497410427616466 1.2546392765133052 0.2515461982159475
0.8942727075486714 0.9767231496926747 1.0671386135922991
0.42958947939497116 0.830822066854347 0.33944997399319043
1.4828976198275126 0.6818591647237795 0.30870026853819366
0.6830743760949798 1.2546392765133052 0.2515461982159475
1.2276060408820046 0.9767231496926747 1.0671386135922991
0.7629228127283044 0.830822066854347 0.33944997399319043
