FCC BaO
3.971
5.0 0.0 0.0
0.0 5.0 0.0
0.0 0.0 5.0
Ba O 
500 500 
Direct
0.02569818014134441 0.027933360400523993 0.01781893814899989
0.012439236268252869 0.1135715594571128 0.09079075182475864
0.07938514059502931 0.012658772645832445 0.08123561641356541
0.12232815980607664 0.08410237509911613 -0.020974241540692114
0.22569818014134443 0.027933360400523993 0.01781893814899989
0.2124392362682529 0.1135715594571128 0.09079075182475864
0.27938514059502934 0.012658772645832445 0.08123561641356541
0.32232815980607665 0.08410237509911613 -0.020974241540692114
0.4256981801413444 0.027933360400523993 0.01781893814899989
0.4124392362682529 0.1135715594571128 0.09079075182475864
0.47938514059502935 0.012658772645832445 0.08123561641356541
0.5223281598060766 0.08410237509911613 -0.020974241540692114
0.6256981801413444 0.027933360400523993 0.01781893814899989
0.6124392362682529 0.1135715594571128 0.09079075182475864
0.6793851405950293 0.012658772645832445 0.08123561641356541
0.7223281598060767 0.08410237509911613 -0.020974241540692114
0.8256981801413444 0.027933360400523993 0.01781893814899989
0.8124392362682529 0.1135715594571128 0.09079075182475864
0.8793851405950293 0.012658772645832445 0.08123561641356541
0.9223281598060766 0.08410237509911613 -0.020974241540692114
0.02569818014134441 0.227933360400524 0.01781893814899989
0.012439236268252869 0.3135715594571128 0.09079075182475864
0.07938514059502931 0.21265877264583244 0.08123561641356541
0.12232815980607664 0.2841023750991161 -0.020974241540692114
0.22569818014134443 0.227933360400524 0.01781893814899989
0.2124392362682529 0.3135715594571128 0.09079075182475864
0.27938514059502934 0.21265877264583244 0.08123561641356541
0.32232815980607665 0.2841023750991161 -0.020974241540692114
0.4256981801413444 0.227933360400524 0.01781893814899989
0.4124392362682529 0.3135715594571128 0.09079075182475864
0.47938514059502935 0.21265877264583244 0.08123561641356541
0.5223281598060766 0.2841023750991161 -0.020974241540692114
0.6256981801413444 0.227933360400524 0.01781893814899989
0.6124392362682529 0.3135715594571128 0.09079075182475864
0.6793851405950293 0.21265877264583244 0.08123561641356541
0.7223281598060767 0.2841023750991161 -0.020974241540692114
0.8256981801413444 0.227933360400524 0.01781893814899989
0.8124392362682529 0.3135715594571128 0.09079075182475864
0.8793851405950293 0.21265877264583244 0.08123561641356541
0.9223281598060766 0.2841023750991161 -0.020974241540692114
0.02569818014134441 0.427933360400524 0.01781893814899989
0.012439236268252869 0.5135715594571127 0.09079075182475864
0.07938514059502931 0.41265877264583245 0.08123561641356541
0.12232815980607664 0.4841023750991162 -0.020974241540692114
0.22569818014134443 0.427933360400524 0.01781893814899989
0.2124392362682529 0.5135715594571127 0.09079075182475864
0.27938514059502934 0.41265877264583245 0.08123561641356541
0.32232815980607665 0.4841023750991162 -0.020974241540692114
0.4256981801413444 0.427933360400524 0.01781893814899989
0.4124392362682529 0.5135715594571127 0.09079075182475864
0.47938514059502935 0.41265877264583245 0.08123561641356541
0.5223281598060766 0.4841023750991162 -0.020974241540692114
0.6256981801413444 0.427933360400524 0.01781893814899989
0.6124392362682529 0.5135715594571127 0.09079075182475864
0.6793851405950293 0.41265877264583245 0.08123561641356541
0.7223281598060767 0.4841023750991162 -0.020974241540692114
0.8256981801413444 0.427933360400524 0.01781893814899989
0.8124392362682529 0.5135715594571127 0.09079075182475864
0.8793851405950293 0.41265877264583245 0.08123561641356541
0.9223281598060766 0.4841023750991162 -0.020974241540692114
0.02569818014134441 0.627933360400524 0.01781893814899989
0.012439236268252869 0.7135715594571128 0.09079075182475864
0.07938514059502931 0.6126587726458325 0.08123561641356541
0.12232815980607664 0.6841023750991162 -0.020974241540692114
0.22569818014134443 0.627933360400524 0.01781893814899989
0.2124392362682529 0.7135715594571128 0.09079075182475864
0.27938514059502934 0.6126587726458325 0.08123561641356541
0.32232815980607665 0.6841023750991162 -0.020974241540692114
0.4256981801413444 0.627933360400524 0.01781893814899989
0.4124392362682529 0.7135715594571128 0.09079075182475864
0.47938514059502935 0.6126587726458325 0.08123561641356541
0.5223281598060766 0.6841023750991162 -0.020974241540692114
0.6256981801413444 0.627933360400524 0.01781893814899989
0.6124392362682529 0.7135715594571128 0.09079075182475864
0.6793851405950293 0.6126587726458325 0.08123561641356541
0.7223281598060767 0.6841023750991162 -0.020974241540692114
0.8256981801413444 0.627933360400524 0.01781893814899989
0.8124392362682529 0.7135715594571128 0.09079075182475864
0.8793851405950293 0.6126587726458325 0.08123561641356541
0.9223281598060766 0.6841023750991162 -0.020974241540692114
0.02569818014134441 0.827933360400524 0.01781893814899989
0.012439236268252869 0.9135715594571128 0.09079075182475864
0.07938514059502931 0.8126587726458325 0.08123561641356541
0.12232815980607664 0.8841023750991162 -0.020974241540692114
0.22569818014134443 0.827933360400524 0.01781893814899989
0.2124392362682529 0.9135715594571128 0.09079075182475864
0.27938514059502934 0.8126587726458325 0.08123561641356541
0.32232815980607665 0.8841023750991162 -0.020974241540692114
0.4256981801413444 0.827933360400524 0.01781893814899989
0.4124392362682529 0.9135715594571128 0.09079075182475864
0.47938514059502935 0.8126587726458325 0.08123561641356541
0.5223281598060766 0.8841023750991162 -0.020974241540692114
0.6256981801413444 0.827933360400524 0.01781893814899989
0.6124392362682529 0.9135715594571128 0.09079075182475864
0.6793851405950293 0.8126587726458325 0.08123561641356541
0.7223281598060767 0.8841023750991162 -0.020974241540692114
0.8256981801413444 0.827933360400524 0.01781893814899989
0.8124392362682529 0.9135715594571128 0.09079075182475864
0.8793851405950293 0.8126587726458325 0.08123561641356541
0.9223281598060766 0.8841023750991162 -0.020974241540692114
0.02569818014134441 0.027933360400523993 0.21781893814899989
0.012439236268252869 0.1135715594571128 0.29079075182475866
0.07938514059502931 0.012658772645832445 0.2812356164135654
0.12232815980607664 0.08410237509911613 0.1790257584593079
0.22569818014134443 0.027933360400523993 0.21781893814899989
0.2124392362682529 0.1135715594571128 0.29079075182475866
0.27938514059502934 0.012658772645832445 0.2812356164135654
0.32232815980607665 0.08410237509911613 0.1790257584593079
0.4256981801413444 0.027933360400523993 0.21781893814899989
0.4124392362682529 0.1135715594571128 0.29079075182475866
0.47938514059502935 0.012658772645832445 0.2812356164135654
0.5223281598060766 0.08410237509911613 0.1790257584593079
0.6256981801413444 0.027933360400523993 0.21781893814899989
0.6124392362682529 0.1135715594571128 0.29079075182475866
0.6793851405950293 0.012658772645832445 0.2812356164135654
0.7223281598060767 0.08410237509911613 0.1790257584593079
0.8256981801413444 0.027933360400523993 0.21781893814899989
0.8124392362682529 0.1135715594571128 0.29079075182475866
0.8793851405950293 0.012658772645832445 0.2812356164135654
0.9223281598060766 0.08410237509911613 0.1790257584593079
0.02569818014134441 0.227933360400524 0.21781893814899989
0.012439236268252869 0.3135715594571128 0.29079075182475866
0.07938514059502931 0.21265877264583244 0.2812356164135654
0.12232815980607664 0.2841023750991161 0.1790257584593079
0.22569818014134443 0.227933360400524 0.21781893814899989
0.2124392362682529 0.3135715594571128 0.29079075182475866
0.27938514059502934 0.21265877264583244 0.2812356164135654
0.32232815980607665 0.2841023750991161 0.1790257584593079
0.4256981801413444 0.227933360400524 0.21781893814899989
0.4124392362682529 0.3135715594571128 0.29079075182475866
0.47938514059502935 0.21265877264583244 0.2812356164135654
0.5223281598060766 0.2841023750991161 0.1790257584593079
0.6256981801413444 0.227933360400524 0.21781893814899989
0.6124392362682529 0.3135715594571128 0.29079075182475866
0.6793851405950293 0.21265877264583244 0.2812356164135654
0.7223281598060767 0.2841023750991161 0.1790257584593079
0.8256981801413444 0.227933360400524 0.21781893814899989
0.8124392362682529 0.3135715594571128 0.29079075182475866
0.8793851405950293 0.21265877264583244 0.2812356164135654
0.9223281598060766 0.2841023750991161 0.1790257584593079
0.02569818014134441 0.427933360400524 0.21781893814899989
0.012439236268252869 0.5135715594571127 0.29079075182475866
0.07938514059502931 0.41265877264583245 0.2812356164135654
0.12232815980607664 0.4841023750991162 0.1790257584593079
0.22569818014134443 0.427933360400524 0.21781893814899989
0.2124392362682529 0.5135715594571127 0.29079075182475866
0.27938514059502934 0.41265877264583245 0.2812356164135654
0.32232815980607665 0.4841023750991162 0.1790257584593079
0.4256981801413444 0.427933360400524 0.21781893814899989
0.4124392362682529 0.5135715594571127 0.29079075182475866
0.47938514059502935 0.41265877264583245 0.2812356164135654
0.5223281598060766 0.4841023750991162 0.1790257584593079
0.6256981801413444 0.427933360400524 0.21781893814899989
0.6124392362682529 0.5135715594571127 0.29079075182475866
0.6793851405950293 0.41265877264583245 0.2812356164135654
0.7223281598060767 0.4841023750991162 0.1790257584593079
0.8256981801413444 0.427933360400524 0.21781893814899989
0.8124392362682529 0.5135715594571127 0.29079075182475866
0.8793851405950293 0.41265877264583245 0.2812356164135654
0.9223281598060766 0.4841023750991162 0.1790257584593079
0.02569818014134441 0.627933360400524 0.21781893814899989
0.012439236268252869 0.7135715594571128 0.29079075182475866
0.07938514059502931 0.6126587726458325 0.2812356164135654
0.12232815980607664 0.6841023750991162 0.1790257584593079
0.22569818014134443 0.627933360400524 0.21781893814899989
0.2124392362682529 0.7135715594571128 0.29079075182475866
0.27938514059502934 0.6126587726458325 0.2812356164135654
0.32232815980607665 0.6841023750991162 0.1790257584593079
0.4256981801413444 0.627933360400524 0.21781893814899989
0.4124392362682529 0.7135715594571128 0.29079075182475866
0.47938514059502935 0.6126587726458325 0.2812356164135654
0.5223281598060766 0.6841023750991162 0.1790257584593079
0.6256981801413444 0.627933360400524 0.21781893814899989
0.6124392362682529 0.7135715594571128 0.29079075182475866
0.6793851405950293 0.6126587726458325 0.2812356164135654
0.7223281598060767 0.6841023750991162 0.1790257584593079
0.8256981801413444 0.627933360400524 0.21781893814899989
0.8124392362682529 0.7135715594571128 0.29079075182475866
0.8793851405950293 0.6126587726458325 0.2812356164135654
0.9223281598060766 0.6841023750991162 0.1790257584593079
0.02569818014134441 0.827933360400524 0.21781893814899989
0.012439236268252869 0.9135715594571128 0.29079075182475866
0.07938514059502931 0.8126587726458325 0.2812356164135654
0.12232815980607664 0.8841023750991162 0.1790257584593079
0.22569818014134443 0.827933360400524 0.21781893814899989
0.2124392362682529 0.9135715594571128 0.29079075182475866
0.27938514059502934 0.8126587726458325 0.2812356164135654
0.32232815980607665 0.8841023750991162 0.1790257584593079
0.4256981801413444 0.827933360400524 0.21781893814899989
0.4124392362682529 0.9135715594571128 0.29079075182475866
0.47938514059502935 0.8126587726458325 0.2812356164135654
0.5223281598060766 0.8841023750991162 0.1790257584593079
0.6256981801413444 0.827933360400524 0.21781893814899989
0.6124392362682529 0.9135715594571128 0.29079075182475866
0.6793851405950293 0.8126587726458325 0.2812356164135654
0.7223281598060767 0.8841023750991162 0.1790257584593079
0.8256981801413444 0.827933360400524 0.21781893814899989
0.8124392362682529 0.9135715594571128 0.29079075182475866
0.8793851405950293 0.8126587726458325 0.2812356164135654
0.9223281598060766 0.8841023750991162 0.1790257584593079
0.02569818014134441 0.027933360400523993 0.41781893814899995
0.012439236268252869 0.1135715594571128 0.4907907518247586
0.07938514059502931 0.012658772645832445 0.4812356164135654
0.12232815980607664 0.08410237509911613 0.3790257584593079
0.22569818014134443 0.027933360400523993 0.41781893814899995
0.2124392362682529 0.1135715594571128 0.4907907518247586
0.27938514059502934 0.012658772645832445 0.4812356164135654
0.32232815980607665 0.08410237509911613 0.3790257584593079
0.4256981801413444 0.027933360400523993 0.41781893814899995
0.4124392362682529 0.1135715594571128 0.4907907518247586
0.47938514059502935 0.012658772645832445 0.4812356164135654
0.5223281598060766 0.08410237509911613 0.3790257584593079
0.6256981801413444 0.027933360400523993 0.41781893814899995
0.6124392362682529 0.1135715594571128 0.4907907518247586
0.6793851405950293 0.012658772645832445 0.4812356164135654
0.7223281598060767 0.08410237509911613 0.3790257584593079
0.8256981801413444 0.027933360400523993 0.41781893814899995
0.8124392362682529 0.1135715594571128 0.4907907518247586
0.8793851405950293 0.012658772645832445 0.4812356164135654
0.9223281598060766 0.08410237509911613 0.3790257584593079
0.02569818014134441 0.227933360400524 0.41781893814899995
0.012439236268252869 0.3135715594571128 0.4907907518247586
0.07938514059502931 0.21265877264583244 0.4812356164135654
0.12232815980607664 0.2841023750991161 0.3790257584593079
0.22569818014134443 0.227933360400524 0.41781893814899995
0.2124392362682529 0.3135715594571128 0.4907907518247586
0.27938514059502934 0.21265877264583244 0.4812356164135654
0.32232815980607665 0.2841023750991161 0.3790257584593079
0.4256981801413444 0.227933360400524 0.41781893814899995
0.4124392362682529 0.3135715594571128 0.4907907518247586
0.47938514059502935 0.21265877264583244 0.4812356164135654
0.5223281598060766 0.2841023750991161 0.3790257584593079
0.6256981801413444 0.227933360400524 0.41781893814899995
0.6124392362682529 0.3135715594571128 0.4907907518247586
0.6793851405950293 0.21265877264583244 0.4812356164135654
0.7223281598060767 0.2841023750991161 0.3790257584593079
0.8256981801413444 0.227933360400524 0.41781893814899995
0.8124392362682529 0.3135715594571128 0.4907907518247586
0.8793851405950293 0.21265877264583244 0.4812356164135654
0.9223281598060766 0.2841023750991161 0.3790257584593079
0.02569818014134441 0.427933360400524 0.41781893814899995
0.012439236268252869 0.5135715594571127 0.4907907518247586
0.07938514059502931 0.41265877264583245 0.4812356164135654
0.12232815980607664 0.4841023750991162 0.3790257584593079
0.22569818014134443 0.427933360400524 0.41781893814899995
0.2124392362682529 0.5135715594571127 0.4907907518247586
0.27938514059502934 0.41265877264583245 0.4812356164135654
0.32232815980607665 0.4841023750991162 0.3790257584593079
0.4256981801413444 0.427933360400524 0.41781893814899995
0.4124392362682529 0.5135715594571127 0.4907907518247586
0.47938514059502935 0.41265877264583245 0.4812356164135654
0.5223281598060766 0.4841023750991162 0.3790257584593079
0.6256981801413444 0.427933360400524 0.41781893814899995
0.6124392362682529 0.5135715594571127 0.4907907518247586
0.6793851405950293 0.41265877264583245 0.4812356164135654
0.7223281598060767 0.4841023750991162 0.3790257584593079
0.8256981801413444 0.427933360400524 0.41781893814899995
0.8124392362682529 0.5135715594571127 0.4907907518247586
0.8793851405950293 0.41265877264583245 0.4812356164135654
0.9223281598060766 0.4841023750991162 0.3790257584593079
0.02569818014134441 0.627933360400524 0.41781893814899995
0.012439236268252869 0.7135715594571128 0.4907907518247586
0.07938514059502931 0.6126587726458325 0.4812356164135654
0.12232815980607664 0.6841023750991162 0.3790257584593079
0.22569818014134443 0.627933360400524 0.41781893814899995
0.2124392362682529 0.7135715594571128 0.4907907518247586
0.27938514059502934 0.6126587726458325 0.4812356164135654
0.32232815980607665 0.6841023750991162 0.3790257584593079
0.4256981801413444 0.627933360400524 0.41781893814899995
0.4124392362682529 0.7135715594571128 0.4907907518247586
0.47938514059502935 0.6126587726458325 0.4812356164135654
0.5223281598060766 0.6841023750991162 0.3790257584593079
0.6256981801413444 0.627933360400524 0.41781893814899995
0.6124392362682529 0.7135715594571128 0.4907907518247586
0.6793851405950293 0.6126587726458325 0.4812356164135654
0.7223281598060767 0.6841023750991162 0.3790257584593079
0.8256981801413444 0.627933360400524 0.41781893814899995
0.8124392362682529 0.7135715594571128 0.4907907518247586
0.8793851405950293 0.6126587726458325 0.4812356164135654
0.9223281598060766 0.6841023750991162 0.3790257584593079
0.02569818014134441 0.827933360400524 0.41781893814899995
0.012439236268252869 0.9135715594571128 0.4907907518247586
0.07938514059502931 0.8126587726458325 0.4812356164135654
0.12232815980607664 0.8841023750991162 0.3790257584593079
0.22569818014134443 0.827933360400524 0.41781893814899995
0.2124392362682529 0.9135715594571128 0.4907907518247586
0.27938514059502934 0.8126587726458325 0.4812356164135654
0.32232815980607665 0.8841023750991162 0.3790257584593079
0.4256981801413444 0.827933360400524 0.41781893814899995
0.4124392362682529 0.9135715594571128 0.4907907518247586
0.47938514059502935 0.8126587726458325 0.4812356164135654
0.5223281598060766 0.8841023750991162 0.3790257584593079
0.6256981801413444 0.827933360400524 0.41781893814899995
0.6124392362682529 0.9135715594571128 0.4907907518247586
0.6793851405950293 0.8126587726458325 0.4812356164135654
0.7223281598060767 0.8841023750991162 0.3790257584593079
0.8256981801413444 0.827933360400524 0.41781893814899995
0.8124392362682529 0.9135715594571128 0.4907907518247586
0.8793851405950293 0.8126587726458325 0.4812356164135654
0.9223281598060766 0.8841023750991162 0.3790257584593079
0.02569818014134441 0.027933360400523993 0.617818938149
0.012439236268252869 0.1135715594571128 0.6907907518247587
0.07938514059502931 0.012658772645832445 0.6812356164135654
0.12232815980607664 0.08410237509911613 0.5790257584593079
0.22569818014134443 0.027933360400523993 0.617818938149
0.2124392362682529 0.1135715594571128 0.6907907518247587
0.27938514059502934 0.012658772645832445 0.6812356164135654
0.32232815980607665 0.08410237509911613 0.5790257584593079
0.4256981801413444 0.027933360400523993 0.617818938149
0.4124392362682529 0.1135715594571128 0.6907907518247587
0.47938514059502935 0.012658772645832445 0.6812356164135654
0.5223281598060766 0.08410237509911613 0.5790257584593079
0.6256981801413444 0.027933360400523993 0.617818938149
0.6124392362682529 0.1135715594571128 0.6907907518247587
0.6793851405950293 0.012658772645832445 0.6812356164135654
0.7223281598060767 0.08410237509911613 0.5790257584593079
0.8256981801413444 0.027933360400523993 0.617818938149
0.8124392362682529 0.1135715594571128 0.6907907518247587
0.8793851405950293 0.012658772645832445 0.6812356164135654
0.9223281598060766 0.08410237509911613 0.5790257584593079
0.02569818014134441 0.227933360400524 0.617818938149
0.012439236268252869 0.3135715594571128 0.6907907518247587
0.07938514059502931 0.21265877264583244 0.6812356164135654
0.12232815980607664 0.2841023750991161 0.5790257584593079
0.22569818014134443 0.227933360400524 0.617818938149
0.2124392362682529 0.3135715594571128 0.6907907518247587
0.27938514059502934 0.21265877264583244 0.6812356164135654
0.32232815980607665 0.2841023750991161 0.5790257584593079
0.4256981801413444 0.227933360400524 0.617818938149
0.4124392362682529 0.3135715594571128 0.6907907518247587
0.47938514059502935 0.21265877264583244 0.6812356164135654
0.5223281598060766 0.2841023750991161 0.5790257584593079
0.6256981801413444 0.227933360400524 0.617818938149
0.6124392362682529 0.3135715594571128 0.6907907518247587
0.6793851405950293 0.21265877264583244 0.6812356164135654
0.7223281598060767 0.2841023750991161 0.5790257584593079
0.8256981801413444 0.227933360400524 0.617818938149
0.8124392362682529 0.3135715594571128 0.6907907518247587
0.8793851405950293 0.21265877264583244 0.6812356164135654
0.9223281598060766 0.2841023750991161 0.5790257584593079
0.02569818014134441 0.427933360400524 0.617818938149
0.012439236268252869 0.5135715594571127 0.6907907518247587
0.07938514059502931 0.41265877264583245 0.6812356164135654
0.12232815980607664 0.4841023750991162 0.5790257584593079
0.22569818014134443 0.427933360400524 0.617818938149
0.2124392362682529 0.5135715594571127 0.6907907518247587
0.27938514059502934 0.41265877264583245 0.6812356164135654
0.32232815980607665 0.4841023750991162 0.5790257584593079
0.4256981801413444 0.427933360400524 0.617818938149
0.4124392362682529 0.5135715594571127 0.6907907518247587
0.47938514059502935 0.41265877264583245 0.6812356164135654
0.5223281598060766 0.4841023750991162 0.5790257584593079
0.6256981801413444 0.427933360400524 0.617818938149
0.6124392362682529 0.5135715594571127 0.6907907518247587
0.6793851405950293 0.41265877264583245 0.6812356164135654
0.7223281598060767 0.4841023750991162 0.5790257584593079
0.8256981801413444 0.427933360400524 0.617818938149
0.8124392362682529 0.5135715594571127 0.6907907518247587
0.8793851405950293 0.41265877264583245 0.6812356164135654
0.9223281598060766 0.4841023750991162 0.5790257584593079
0.02569818014134441 0.627933360400524 0.617818938149
0.012439236268252869 0.7135715594571128 0.6907907518247587
0.07938514059502931 0.6126587726458325 0.6812356164135654
0.12232815980607664 0.6841023750991162 0.5790257584593079
0.22569818014134443 0.627933360400524 0.617818938149
0.2124392362682529 0.7135715594571128 0.6907907518247587
0.27938514059502934 0.6126587726458325 0.6812356164135654
0.32232815980607665 0.6841023750991162 0.5790257584593079
0.4256981801413444 0.627933360400524 0.617818938149
0.4124392362682529 0.7135715594571128 0.6907907518247587
0.47938514059502935 0.6126587726458325 0.6812356164135654
0.5223281598060766 0.6841023750991162 0.5790257584593079
0.6256981801413444 0.627933360400524 0.617818938149
0.6124392362682529 0.7135715594571128 0.6907907518247587
0.6793851405950293 0.6126587726458325 0.6812356164135654
0.7223281598060767 0.6841023750991162 0.5790257584593079
0.8256981801413444 0.627933360400524 0.617818938149
0.8124392362682529 0.7135715594571128 0.6907907518247587
0.8793851405950293 0.6126587726458325 0.6812356164135654
0.9223281598060766 0.6841023750991162 0.5790257584593079
0.02569818014134441 0.827933360400524 0.617818938149
0.012439236268252869 0.9135715594571128 0.6907907518247587
0.07938514059502931 0.8126587726458325 0.6812356164135654
0.12232815980607664 0.8841023750991162 0.5790257584593079
0.22569818014134443 0.827933360400524 0.617818938149
0.2124392362682529 0.9135715594571128 0.6907907518247587
0.27938514059502934 0.8126587726458325 0.6812356164135654
0.32232815980607665 0.8841023750991162 0.5790257584593079
0.4256981801413444 0.827933360400524 0.617818938149
0.4124392362682529 0.9135715594571128 0.6907907518247587
0.47938514059502935 0.8126587726458325 0.6812356164135654
0.5223281598060766 0.8841023750991162 0.5790257584593079
0.6256981801413444 0.827933360400524 0.617818938149
0.6124392362682529 0.9135715594571128 0.6907907518247587
0.6793851405950293 0.8126587726458325 0.6812356164135654
0.7223281598060767 0.8841023750991162 0.5790257584593079
0.8256981801413444 0.827933360400524 0.617818938149
0.8124392362682529 0.9135715594571128 0.6907907518247587
0.8793851405950293 0.8126587726458325 0.6812356164135654
0.9223281598060766 0.8841023750991162 0.5790257584593079
0.02569818014134441 0.027933360400523993 0.8178189381489999
0.012439236268252869 0.1135715594571128 0.8907907518247588
0.07938514059502931 0.012658772645832445 0.8812356164135654
0.12232815980607664 0.08410237509911613 0.779025758459308
0.22569818014134443 0.027933360400523993 0.8178189381489999
0.2124392362682529 0.1135715594571128 0.8907907518247588
0.27938514059502934 0.012658772645832445 0.8812356164135654
0.32232815980607665 0.08410237509911613 0.779025758459308
0.4256981801413444 0.027933360400523993 0.8178189381489999
0.4124392362682529 0.1135715594571128 0.8907907518247588
0.47938514059502935 0.012658772645832445 0.8812356164135654
0.5223281598060766 0.08410237509911613 0.779025758459308
0.6256981801413444 0.027933360400523993 0.8178189381489999
0.6124392362682529 0.1135715594571128 0.8907907518247588
0.6793851405950293 0.012658772645832445 0.8812356164135654
0.7223281598060767 0.08410237509911613 0.779025758459308
0.8256981801413444 0.027933360400523993 0.8178189381489999
0.8124392362682529 0.1135715594571128 0.8907907518247588
0.8793851405950293 0.012658772645832445 0.8812356164135654
0.9223281598060766 0.08410237509911613 0.779025758459308
0.02569818014134441 0.227933360400524 0.8178189381489999
0.012439236268252869 0.3135715594571128 0.8907907518247588
0.07938514059502931 0.21265877264583244 0.8812356164135654
0.12232815980607664 0.2841023750991161 0.779025758459308
0.22569818014134443 0.227933360400524 0.8178189381489999
0.2124392362682529 0.3135715594571128 0.8907907518247588
0.27938514059502934 0.21265877264583244 0.8812356164135654
0.32232815980607665 0.2841023750991161 0.779025758459308
0.4256981801413444 0.227933360400524 0.8178189381489999
0.4124392362682529 0.3135715594571128 0.8907907518247588
0.47938514059502935 0.21265877264583244 0.8812356164135654
0.5223281598060766 0.2841023750991161 0.779025758459308
0.6256981801413444 0.227933360400524 0.8178189381489999
0.6124392362682529 0.3135715594571128 0.8907907518247588
0.6793851405950293 0.21265877264583244 0.8812356164135654
0.7223281598060767 0.2841023750991161 0.779025758459308
0.8256981801413444 0.227933360400524 0.8178189381489999
0.8124392362682529 0.3135715594571128 0.8907907518247588
0.8793851405950293 0.21265877264583244 0.8812356164135654
0.9223281598060766 0.2841023750991161 0.779025758459308
0.02569818014134441 0.427933360400524 0.8178189381489999
0.012439236268252869 0.5135715594571127 0.8907907518247588
0.07938514059502931 0.41265877264583245 0.8812356164135654
0.12232815980607664 0.4841023750991162 0.779025758459308
0.22569818014134443 0.427933360400524 0.8178189381489999
0.2124392362682529 0.5135715594571127 0.8907907518247588
0.27938514059502934 0.41265877264583245 0.8812356164135654
0.32232815980607665 0.4841023750991162 0.779025758459308
0.4256981801413444 0.427933360400524 0.8178189381489999
0.4124392362682529 0.5135715594571127 0.8907907518247588
0.47938514059502935 0.41265877264583245 0.8812356164135654
0.5223281598060766 0.4841023750991162 0.779025758459308
0.6256981801413444 0.427933360400524 0.8178189381489999
0.6124392362682529 0.5135715594571127 0.8907907518247588
0.6793851405950293 0.41265877264583245 0.8812356164135654
0.7223281598060767 0.4841023750991162 0.779025758459308
0.8256981801413444 0.427933360400524 0.8178189381489999
0.8124392362682529 0.5135715594571127 0.8907907518247588
0.8793851405950293 0.41265877264583245 0.8812356164135654
0.9223281598060766 0.4841023750991162 0.779025758459308
0.02569818014134441 0.627933360400524 0.8178189381489999
0.012439236268252869 0.7135715594571128 0.8907907518247588
0.07938514059502931 0.6126587726458325 0.8812356164135654
0.12232815980607664 0.6841023750991162 0.779025758459308
0.22569818014134443 0.627933360400524 0.8178189381489999
0.2124392362682529 0.7135715594571128 0.8907907518247588
0.27938514059502934 0.6126587726458325 0.8812356164135654
0.32232815980607665 0.6841023750991162 0.779025758459308
0.4256981801413444 0.627933360400524 0.8178189381489999
0.4124392362682529 0.7135715594571128 0.8907907518247588
0.47938514059502935 0.6126587726458325 0.8812356164135654
0.5223281598060766 0.6841023750991162 0.779025758459308
0.6256981801413444 0.627933360400524 0.8178189381489999
0.6124392362682529 0.7135715594571128 0.8907907518247588
0.6793851405950293 0.6126587726458325 0.8812356164135654
0.7223281598060767 0.6841023750991162 0.779025758459308
0.8256981801413444 0.627933360400524 0.8178189381489999
0.8124392362682529 0.7135715594571128 0.8907907518247588
0.8793851405950293 0.6126587726458325 0.8812356164135654
0.9223281598060766 0.6841023750991162 0.779025758459308
0.02569818014134441 0.827933360400524 0.8178189381489999
0.012439236268252869 0.9135715594571128 0.8907907518247588
0.07938514059502931 0.8126587726458325 0.8812356164135654
0.12232815980607664 0.8841023750991162 0.779025758459308
0.22569818014134443 0.827933360400524 0.8178189381489999
0.2124392362682529 0.9135715594571128 0.8907907518247588
0.27938514059502934 0.8126587726458325 0.8812356164135654
0.32232815980607665 0.8841023750991162 0.779025758459308
0.4256981801413444 0.827933360400524 0.8178189381489999
0.4124392362682529 0.9135715594571128 0.8907907518247588
0.47938514059502935 0.8126587726458325 0.8812356164135654
0.5223281598060766 0.8841023750991162 0.779025758459308
0.6256981801413444 0.827933360400524 0.8178189381489999
0.6124392362682529 0.9135715594571128 0.8907907518247588
0.6793851405950293 0.8126587726458325 0.8812356164135654
0.7223281598060767 0.8841023750991162 0.779025758459308
0.8256981801413444 0.827933360400524 0.8178189381489999
0.8124392362682529 0.9135715594571128 0.8907907518247588
0.8793851405950293 0.8126587726458325 0.8812356164135654
0.9223281598060766 0.8841023750991162 0.779025758459308
0.1257915592869878 0.013216731025892839 0.012307524261491856
-0.025625288504655255 0.1029880020585907 0.01644112612704567
0.027741759863723677 -0.022753457340766295 0.09503611771484202
0.12749990529834568 0.09762302414985838 0.11489226798501698
0.3257915592869878 0.013216731025892839 0.012307524261491856
0.17437471149534478 0.1029880020585907 0.01644112612704567
0.2277417598637237 -0.022753457340766295 0.09503611771484202
0.3274999052983457 0.09762302414985838 0.11489226798501698
0.5257915592869878 0.013216731025892839 0.012307524261491856
0.3743747114953448 0.1029880020585907 0.01644112612704567
0.42774175986372365 -0.022753457340766295 0.09503611771484202
0.5274999052983457 0.09762302414985838 0.11489226798501698
0.7257915592869879 0.013216731025892839 0.012307524261491856
0.5743747114953448 0.1029880020585907 0.01644112612704567
0.6277417598637237 -0.022753457340766295 0.09503611771484202
0.7274999052983457 0.09762302414985838 0.11489226798501698
0.9257915592869879 0.013216731025892839 0.012307524261491856
0.7743747114953448 0.1029880020585907 0.01644112612704567
0.8277417598637238 -0.022753457340766295 0.09503611771484202
0.9274999052983457 0.09762302414985838 0.11489226798501698
0.1257915592869878 0.21321673102589284 0.012307524261491856
-0.025625288504655255 0.30298800205859067 0.01644112612704567
0.027741759863723677 0.1772465426592337 0.09503611771484202
0.12749990529834568 0.2976230241498584 0.11489226798501698
0.3257915592869878 0.21321673102589284 0.012307524261491856
0.17437471149534478 0.30298800205859067 0.01644112612704567
0.2277417598637237 0.1772465426592337 0.09503611771484202
0.3274999052983457 0.2976230241498584 0.11489226798501698
0.5257915592869878 0.21321673102589284 0.012307524261491856
0.3743747114953448 0.30298800205859067 0.01644112612704567
0.42774175986372365 0.1772465426592337 0.09503611771484202
0.5274999052983457 0.2976230241498584 0.11489226798501698
0.7257915592869879 0.21321673102589284 0.012307524261491856
0.5743747114953448 0.30298800205859067 0.01644112612704567
0.6277417598637237 0.1772465426592337 0.09503611771484202
0.7274999052983457 0.2976230241498584 0.11489226798501698
0.9257915592869879 0.21321673102589284 0.012307524261491856
0.7743747114953448 0.30298800205859067 0.01644112612704567
0.8277417598637238 0.1772465426592337 0.09503611771484202
0.9274999052983457 0.2976230241498584 0.11489226798501698
0.1257915592869878 0.4132167310258929 0.012307524261491856
-0.025625288504655255 0.5029880020585907 0.01644112612704567
0.027741759863723677 0.37724654265923374 0.09503611771484202
0.12749990529834568 0.49762302414985843 0.11489226798501698
0.3257915592869878 0.4132167310258929 0.012307524261491856
0.17437471149534478 0.5029880020585907 0.01644112612704567
0.2277417598637237 0.37724654265923374 0.09503611771484202
0.3274999052983457 0.49762302414985843 0.11489226798501698
0.5257915592869878 0.4132167310258929 0.012307524261491856
0.3743747114953448 0.5029880020585907 0.01644112612704567
0.42774175986372365 0.37724654265923374 0.09503611771484202
0.5274999052983457 0.49762302414985843 0.11489226798501698
0.7257915592869879 0.4132167310258929 0.012307524261491856
0.5743747114953448 0.5029880020585907 0.01644112612704567
0.6277417598637237 0.37724654265923374 0.09503611771484202
0.7274999052983457 0.49762302414985843 0.11489226798501698
0.9257915592869879 0.4132167310258929 0.012307524261491856
0.7743747114953448 0.5029880020585907 0.01644112612704567
0.8277417598637238 0.37724654265923374 0.09503611771484202
0.9274999052983457 0.49762302414985843 0.11489226798501698
0.1257915592869878 0.6132167310258929 0.012307524261491856
-0.025625288504655255 0.7029880020585907 0.01644112612704567
0.027741759863723677 0.5772465426592337 0.09503611771484202
0.12749990529834568 0.6976230241498584 0.11489226798501698
0.3257915592869878 0.6132167310258929 0.012307524261491856
0.17437471149534478 0.7029880020585907 0.01644112612704567
0.2277417598637237 0.5772465426592337 0.09503611771484202
0.3274999052983457 0.6976230241498584 0.11489226798501698
0.5257915592869878 0.6132167310258929 0.012307524261491856
0.3743747114953448 0.7029880020585907 0.01644112612704567
0.42774175986372365 0.5772465426592337 0.09503611771484202
0.5274999052983457 0.6976230241498584 0.11489226798501698
0.7257915592869879 0.6132167310258929 0.012307524261491856
0.5743747114953448 0.7029880020585907 0.01644112612704567
0.6277417598637237 0.5772465426592337 0.09503611771484202
0.7274999052983457 0.6976230241498584 0.11489226798501698
0.9257915592869879 0.6132167310258929 0.012307524261491856
0.7743747114953448 0.7029880020585907 0.01644112612704567
0.8277417598637238 0.5772465426592337 0.09503611771484202
0.9274999052983457 0.6976230241498584 0.11489226798501698
0.1257915592869878 0.8132167310258929 0.012307524261491856
-0.025625288504655255 0.9029880020585908 0.01644112612704567
0.027741759863723677 0.7772465426592338 0.09503611771484202
0.12749990529834568 0.8976230241498584 0.11489226798501698
0.3257915592869878 0.8132167310258929 0.012307524261491856
0.17437471149534478 0.9029880020585908 0.01644112612704567
0.2277417598637237 0.7772465426592338 0.09503611771484202
0.3274999052983457 0.8976230241498584 0.11489226798501698
0.5257915592869878 0.8132167310258929 0.012307524261491856
0.3743747114953448 0.9029880020585908 0.01644112612704567
0.42774175986372365 0.7772465426592338 0.09503611771484202
0.5274999052983457 0.8976230241498584 0.11489226798501698
0.7257915592869879 0.8132167310258929 0.012307524261491856
0.5743747114953448 0.9029880020585908 0.01644112612704567
0.6277417598637237 0.7772465426592338 0.09503611771484202
0.7274999052983457 0.8976230241498584 0.11489226798501698
0.9257915592869879 0.8132167310258929 0.012307524261491856
0.7743747114953448 0.9029880020585908 0.01644112612704567
0.8277417598637238 0.7772465426592338 0.09503611771484202
0.9274999052983457 0.8976230241498584 0.11489226798501698
0.1257915592869878 0.013216731025892839 0.21230752426149185
-0.025625288504655255 0.1029880020585907 0.2164411261270457
0.027741759863723677 -0.022753457340766295 0.29503611771484206
0.12749990529834568 0.09762302414985838 0.314892267985017
0.3257915592869878 0.013216731025892839 0.21230752426149185
0.17437471149534478 0.1029880020585907 0.2164411261270457
0.2277417598637237 -0.022753457340766295 0.29503611771484206
0.3274999052983457 0.09762302414985838 0.314892267985017
0.5257915592869878 0.013216731025892839 0.21230752426149185
0.3743747114953448 0.1029880020585907 0.2164411261270457
0.42774175986372365 -0.022753457340766295 0.29503611771484206
0.5274999052983457 0.09762302414985838 0.314892267985017
0.7257915592869879 0.013216731025892839 0.21230752426149185
0.5743747114953448 0.1029880020585907 0.2164411261270457
0.6277417598637237 -0.022753457340766295 0.29503611771484206
0.7274999052983457 0.09762302414985838 0.314892267985017
0.9257915592869879 0.013216731025892839 0.21230752426149185
0.7743747114953448 0.1029880020585907 0.2164411261270457
0.8277417598637238 -0.022753457340766295 0.29503611771484206
0.9274999052983457 0.09762302414985838 0.314892267985017
0.1257915592869878 0.21321673102589284 0.21230752426149185
-0.025625288504655255 0.30298800205859067 0.2164411261270457
0.027741759863723677 0.1772465426592337 0.29503611771484206
0.12749990529834568 0.2976230241498584 0.314892267985017
0.3257915592869878 0.21321673102589284 0.21230752426149185
0.17437471149534478 0.30298800205859067 0.2164411261270457
0.2277417598637237 0.1772465426592337 0.29503611771484206
0.3274999052983457 0.2976230241498584 0.314892267985017
0.5257915592869878 0.21321673102589284 0.21230752426149185
0.3743747114953448 0.30298800205859067 0.2164411261270457
0.42774175986372365 0.1772465426592337 0.29503611771484206
0.5274999052983457 0.2976230241498584 0.314892267985017
0.7257915592869879 0.21321673102589284 0.21230752426149185
0.5743747114953448 0.30298800205859067 0.2164411261270457
0.6277417598637237 0.1772465426592337 0.29503611771484206
0.7274999052983457 0.2976230241498584 0.314892267985017
0.9257915592869879 0.21321673102589284 0.21230752426149185
0.7743747114953448 0.30298800205859067 0.2164411261270457
0.8277417598637238 0.1772465426592337 0.29503611771484206
0.9274999052983457 0.2976230241498584 0.314892267985017
0.1257915592869878 0.4132167310258929 0.21230752426149185
-0.025625288504655255 0.5029880020585907 0.2164411261270457
0.027741759863723677 0.37724654265923374 0.29503611771484206
0.12749990529834568 0.49762302414985843 0.314892267985017
0.3257915592869878 0.4132167310258929 0.21230752426149185
0.17437471149534478 0.5029880020585907 0.2164411261270457
0.2277417598637237 0.37724654265923374 0.29503611771484206
0.3274999052983457 0.49762302414985843 0.314892267985017
0.5257915592869878 0.4132167310258929 0.21230752426149185
0.3743747114953448 0.5029880020585907 0.2164411261270457
0.42774175986372365 0.37724654265923374 0.29503611771484206
0.5274999052983457 0.49762302414985843 0.314892267985017
0.7257915592869879 0.4132167310258929 0.21230752426149185
0.5743747114953448 0.5029880020585907 0.2164411261270457
0.6277417598637237 0.37724654265923374 0.29503611771484206
0.7274999052983457 0.49762302414985843 0.314892267985017
0.9257915592869879 0.4132167310258929 0.21230752426149185
0.7743747114953448 0.5029880020585907 0.2164411261270457
0.8277417598637238 0.37724654265923374 0.29503611771484206
0.9274999052983457 0.49762302414985843 0.314892267985017
0.1257915592869878 0.6132167310258929 0.21230752426149185
-0.025625288504655255 0.7029880020585907 0.2164411261270457
0.027741759863723677 0.5772465426592337 0.29503611771484206
0.12749990529834568 0.6976230241498584 0.314892267985017
0.3257915592869878 0.6132167310258929 0.21230752426149185
0.17437471149534478 0.7029880020585907 0.2164411261270457
0.2277417598637237 0.5772465426592337 0.29503611771484206
0.3274999052983457 0.6976230241498584 0.314892267985017
0.5257915592869878 0.6132167310258929 0.21230752426149185
0.3743747114953448 0.7029880020585907 0.2164411261270457
0.42774175986372365 0.5772465426592337 0.29503611771484206
0.5274999052983457 0.6976230241498584 0.314892267985017
0.7257915592869879 0.6132167310258929 0.21230752426149185
0.5743747114953448 0.7029880020585907 0.2164411261270457
0.6277417598637237 0.5772465426592337 0.29503611771484206
0.7274999052983457 0.6976230241498584 0.314892267985017
0.9257915592869879 0.6132167310258929 0.21230752426149185
0.7743747114953448 0.7029880020585907 0.2164411261270457
0.8277417598637238 0.5772465426592337 0.29503611771484206
0.9274999052983457 0.6976230241498584 0.314892267985017
0.1257915592869878 0.8132167310258929 0.21230752426149185
-0.025625288504655255 0.9029880020585908 0.2164411261270457
0.027741759863723677 0.7772465426592338 0.29503611771484206
0.12749990529834568 0.8976230241498584 0.314892267985017
0.3257915592869878 0.8132167310258929 0.21230752426149185
0.17437471149534478 0.9029880020585908 0.2164411261270457
0.2277417598637237 0.7772465426592338 0.29503611771484206
0.3274999052983457 0.8976230241498584 0.314892267985017
0.5257915592869878 0.8132167310258929 0.21230752426149185
0.3743747114953448 0.9029880020585908 0.2164411261270457
0.42774175986372365 0.7772465426592338 0.29503611771484206
0.5274999052983457 0.8976230241498584 0.314892267985017
0.7257915592869879 0.8132167310258929 0.21230752426149185
0.5743747114953448 0.9029880020585908 0.2164411261270457
0.6277417598637237 0.7772465426592338 0.29503611771484206
0.7274999052983457 0.8976230241498584 0.314892267985017
0.9257915592869879 0.8132167310258929 0.21230752426149185
0.7743747114953448 0.9029880020585908 0.2164411261270457
0.8277417598637238 0.7772465426592338 0.29503611771484206
0.9274999052983457 0.8976230241498584 0.314892267985017
0.1257915592869878 0.013216731025892839 0.41230752426149186
-0.025625288504655255 0.1029880020585907 0.41644112612704576
0.027741759863723677 -0.022753457340766295 0.49503611771484207
0.12749990529834568 0.09762302414985838 0.514892267985017
0.3257915592869878 0.013216731025892839 0.41230752426149186
0.17437471149534478 0.1029880020585907 0.41644112612704576
0.2277417598637237 -0.022753457340766295 0.49503611771484207
0.3274999052983457 0.09762302414985838 0.514892267985017
0.5257915592869878 0.013216731025892839 0.41230752426149186
0.3743747114953448 0.1029880020585907 0.41644112612704576
0.42774175986372365 -0.022753457340766295 0.49503611771484207
0.5274999052983457 0.09762302414985838 0.514892267985017
0.7257915592869879 0.013216731025892839 0.41230752426149186
0.5743747114953448 0.1029880020585907 0.41644112612704576
0.6277417598637237 -0.022753457340766295 0.49503611771484207
0.7274999052983457 0.09762302414985838 0.514892267985017
0.9257915592869879 0.013216731025892839 0.41230752426149186
0.7743747114953448 0.1029880020585907 0.41644112612704576
0.8277417598637238 -0.022753457340766295 0.49503611771484207
0.9274999052983457 0.09762302414985838 0.514892267985017
0.1257915592869878 0.21321673102589284 0.41230752426149186
-0.025625288504655255 0.30298800205859067 0.41644112612704576
0.027741759863723677 0.1772465426592337 0.49503611771484207
0.12749990529834568 0.2976230241498584 0.514892267985017
0.3257915592869878 0.21321673102589284 0.41230752426149186
0.17437471149534478 0.30298800205859067 0.41644112612704576
0.2277417598637237 0.1772465426592337 0.49503611771484207
0.3274999052983457 0.2976230241498584 0.514892267985017
0.5257915592869878 0.21321673102589284 0.41230752426149186
0.3743747114953448 0.30298800205859067 0.41644112612704576
0.42774175986372365 0.1772465426592337 0.49503611771484207
0.5274999052983457 0.2976230241498584 0.514892267985017
0.7257915592869879 0.21321673102589284 0.41230752426149186
0.5743747114953448 0.30298800205859067 0.41644112612704576
0.6277417598637237 0.1772465426592337 0.49503611771484207
0.7274999052983457 0.2976230241498584 0.514892267985017
0.9257915592869879 0.21321673102589284 0.41230752426149186
0.7743747114953448 0.30298800205859067 0.41644112612704576
0.8277417598637238 0.1772465426592337 0.49503611771484207
0.9274999052983457 0.2976230241498584 0.514892267985017
0.1257915592869878 0.4132167310258929 0.41230752426149186
-0.025625288504655255 0.5029880020585907 0.41644112612704576
0.027741759863723677 0.37724654265923374 0.49503611771484207
0.12749990529834568 0.49762302414985843 0.514892267985017
0.3257915592869878 0.4132167310258929 0.41230752426149186
0.17437471149534478 0.5029880020585907 0.41644112612704576
0.2277417598637237 0.37724654265923374 0.49503611771484207
0.3274999052983457 0.49762302414985843 0.514892267985017
0.5257915592869878 0.4132167310258929 0.41230752426149186
0.3743747114953448 0.5029880020585907 0.41644112612704576
0.42774175986372365 0.37724654265923374 0.49503611771484207
0.5274999052983457 0.49762302414985843 0.514892267985017
0.7257915592869879 0.4132167310258929 0.41230752426149186
0.5743747114953448 0.5029880020585907 0.41644112612704576
0.6277417598637237 0.37724654265923374 0.49503611771484207
0.7274999052983457 0.49762302414985843 0.514892267985017
0.9257915592869879 0.4132167310258929 0.41230752426149186
0.7743747114953448 0.5029880020585907 0.41644112612704576
0.8277417598637238 0.37724654265923374 0.49503611771484207
0.9274999052983457 0.49762302414985843 0.514892267985017
0.1257915592869878 0.6132167310258929 0.41230752426149186
-0.025625288504655255 0.7029880020585907 0.41644112612704576
0.027741759863723677 0.5772465426592337 0.49503611771484207
0.12749990529834568 0.6976230241498584 0.514892267985017
0.3257915592869878 0.6132167310258929 0.41230752426149186
0.17437471149534478 0.7029880020585907 0.41644112612704576
0.2277417598637237 0.5772465426592337 0.49503611771484207
0.3274999052983457 0.6976230241498584 0.514892267985017
0.5257915592869878 0.6132167310258929 0.41230752426149186
0.3743747114953448 0.7029880020585907 0.41644112612704576
0.42774175986372365 0.5772465426592337 0.49503611771484207
0.5274999052983457 0.6976230241498584 0.514892267985017
0.7257915592869879 0.6132167310258929 0.41230752426149186
0.5743747114953448 0.7029880020585907 0.41644112612704576
0.6277417598637237 0.5772465426592337 0.49503611771484207
0.7274999052983457 0.6976230241498584 0.514892267985017
0.9257915592869879 0.6132167310258929 0.41230752426149186
0.7743747114953448 0.7029880020585907 0.41644112612704576
0.8277417598637238 0.5772465426592337 0.49503611771484207
0.9274999052983457 0.6976230241498584 0.514892267985017
0.1257915592869878 0.8132167310258929 0.41230752426149186
-0.025625288504655255 0.9029880020585908 0.41644112612704576
0.027741759863723677 0.7772465426592338 0.49503611771484207
0.12749990529834568 0.8976230241498584 0.514892267985017
0.3257915592869878 0.8132167310258929 0.41230752426149186
0.17437471149534478 0.9029880020585908 0.41644112612704576
0.2277417598637237 0.7772465426592338 0.49503611771484207
0.3274999052983457 0.8976230241498584 0.514892267985017
0.5257915592869878 0.8132167310258929 0.41230752426149186
0.3743747114953448 0.9029880020585908 0.41644112612704576
0.42774175986372365 0.7772465426592338 0.49503611771484207
0.5274999052983457 0.8976230241498584 0.514892267985017
0.7257915592869879 0.8132167310258929 0.41230752426149186
0.5743747114953448 0.9029880020585908 0.41644112612704576
0.6277417598637237 0.7772465426592338 0.49503611771484207
0.7274999052983457 0.8976230241498584 0.514892267985017
0.9257915592869879 0.8132167310258929 0.41230752426149186
0.7743747114953448 0.9029880020585908 0.41644112612704576
0.8277417598637238 0.7772465426592338 0.49503611771484207
0.9274999052983457 0.8976230241498584 0.514892267985017
0.1257915592869878 0.013216731025892839 0.6123075242614919
-0.025625288504655255 0.1029880020585907 0.6164411261270457
0.027741759863723677 -0.022753457340766295 0.6950361177148421
0.12749990529834568 0.09762302414985838 0.714892267985017
0.3257915592869878 0.013216731025892839 0.6123075242614919
0.17437471149534478 0.1029880020585907 0.6164411261270457
0.2277417598637237 -0.022753457340766295 0.6950361177148421
0.3274999052983457 0.09762302414985838 0.714892267985017
0.5257915592869878 0.013216731025892839 0.6123075242614919
0.3743747114953448 0.1029880020585907 0.6164411261270457
0.42774175986372365 -0.022753457340766295 0.6950361177148421
0.5274999052983457 0.09762302414985838 0.714892267985017
0.7257915592869879 0.013216731025892839 0.6123075242614919
0.5743747114953448 0.1029880020585907 0.6164411261270457
0.6277417598637237 -0.022753457340766295 0.6950361177148421
0.7274999052983457 0.09762302414985838 0.714892267985017
0.9257915592869879 0.013216731025892839 0.6123075242614919
0.7743747114953448 0.1029880020585907 0.6164411261270457
0.8277417598637238 -0.022753457340766295 0.6950361177148421
0.9274999052983457 0.09762302414985838 0.714892267985017
0.1257915592869878 0.21321673102589284 0.6123075242614919
-0.025625288504655255 0.30298800205859067 0.6164411261270457
0.027741759863723677 0.1772465426592337 0.6950361177148421
0.12749990529834568 0.2976230241498584 0.714892267985017
0.3257915592869878 0.21321673102589284 0.6123075242614919
0.17437471149534478 0.30298800205859067 0.6164411261270457
0.2277417598637237 0.1772465426592337 0.6950361177148421
0.3274999052983457 0.2976230241498584 0.714892267985017
0.5257915592869878 0.21321673102589284 0.6123075242614919
0.3743747114953448 0.30298800205859067 0.6164411261270457
0.42774175986372365 0.1772465426592337 0.6950361177148421
0.5274999052983457 0.2976230241498584 0.714892267985017
0.7257915592869879 0.21321673102589284 0.6123075242614919
0.5743747114953448 0.30298800205859067 0.6164411261270457
0.6277417598637237 0.1772465426592337 0.6950361177148421
0.7274999052983457 0.2976230241498584 0.714892267985017
0.9257915592869879 0.21321673102589284 0.6123075242614919
0.7743747114953448 0.30298800205859067 0.6164411261270457
0.8277417598637238 0.1772465426592337 0.6950361177148421
0.9274999052983457 0.2976230241498584 0.714892267985017
0.1257915592869878 0.4132167310258929 0.6123075242614919
-0.025625288504655255 0.5029880020585907 0.6164411261270457
0.027741759863723677 0.37724654265923374 0.6950361177148421
0.12749990529834568 0.49762302414985843 0.714892267985017
0.3257915592869878 0.4132167310258929 0.6123075242614919
0.17437471149534478 0.5029880020585907 0.6164411261270457
0.2277417598637237 0.37724654265923374 0.6950361177148421
0.3274999052983457 0.49762302414985843 0.714892267985017
0.5257915592869878 0.4132167310258929 0.6123075242614919
0.3743747114953448 0.5029880020585907 0.6164411261270457
0.42774175986372365 0.37724654265923374 0.6950361177148421
0.5274999052983457 0.49762302414985843 0.714892267985017
0.7257915592869879 0.4132167310258929 0.6123075242614919
0.5743747114953448 0.5029880020585907 0.6164411261270457
0.6277417598637237 0.37724654265923374 0.6950361177148421
0.7274999052983457 0.49762302414985843 0.714892267985017
0.9257915592869879 0.4132167310258929 0.6123075242614919
0.7743747114953448 0.5029880020585907 0.6164411261270457
0.8277417598637238 0.37724654265923374 0.6950361177148421
0.9274999052983457 0.49762302414985843 0.714892267985017
0.1257915592869878 0.6132167310258929 0.6123075242614919
-0.025625288504655255 0.7029880020585907 0.6164411261270457
0.027741759863723677 0.5772465426592337 0.6950361177148421
0.12749990529834568 0.6976230241498584 0.714892267985017
0.3257915592869878 0.6132167310258929 0.6123075242614919
0.17437471149534478 0.7029880020585907 0.6164411261270457
0.2277417598637237 0.5772465426592337 0.6950361177148421
0.3274999052983457 0.6976230241498584 0.714892267985017
0.5257915592869878 0.6132167310258929 0.6123075242614919
0.3743747114953448 0.7029880020585907 0.6164411261270457
0.42774175986372365 0.5772465426592337 0.6950361177148421
0.5274999052983457 0.6976230241498584 0.714892267985017
0.7257915592869879 0.6132167310258929 0.6123075242614919
0.5743747114953448 0.7029880020585907 0.6164411261270457
0.6277417598637237 0.5772465426592337 0.6950361177148421
0.7274999052983457 0.6976230241498584 0.714892267985017
0.9257915592869879 0.6132167310258929 0.6123075242614919
0.7743747114953448 0.7029880020585907 0.6164411261270457
0.8277417598637238 0.5772465426592337 0.6950361177148421
0.9274999052983457 0.6976230241498584 0.714892267985017
0.1257915592869878 0.8132167310258929 0.6123075242614919
-0.025625288504655255 0.9029880020585908 0.6164411261270457
0.027741759863723677 0.7772465426592338 0.6950361177148421
0.12749990529834568 0.8976230241498584 0.714892267985017
0.3257915592869878 0.8132167310258929 0.6123075242614919
0.17437471149534478 0.9029880020585908 0.6164411261270457
0.2277417598637237 0.7772465426592338 0.6950361177148421
0.3274999052983457 0.8976230241498584 0.714892267985017
0.5257915592869878 0.8132167310258929 0.6123075242614919
0.3743747114953448 0.9029880020585908 0.6164411261270457
0.42774175986372365 0.7772465426592338 0.6950361177148421
0.5274999052983457 0.8976230241498584 0.714892267985017
0.7257915592869879 0.8132167310258929 0.6123075242614919
0.5743747114953448 0.9029880020585908 0.6164411261270457
0.6277417598637237 0.7772465426592338 0.6950361177148421
0.7274999052983457 0.8976230241498584 0.714892267985017
0.9257915592869879 0.8132167310258929 0.6123075242614919
0.7743747114953448 0.9029880020585908 0.6164411261270457
0.8277417598637238 0.7772465426592338 0.6950361177148421
0.9274999052983457 0.8976230241498584 0.714892267985017
0.1257915592869878 0.013216731025892839 0.8123075242614919
-0.025625288504655255 0.1029880020585907 0.8164411261270458
0.027741759863723677 -0.022753457340766295 0.895036117714842
0.12749990529834568 0.09762302414985838 0.914892267985017
0.3257915592869878 0.013216731025892839 0.8123075242614919
0.17437471149534478 0.1029880020585907 0.8164411261270458
0.2277417598637237 -0.022753457340766295 0.895036117714842
0.3274999052983457 0.09762302414985838 0.914892267985017
0.5257915592869878 0.013216731025892839 0.8123075242614919
0.3743747114953448 0.1029880020585907 0.8164411261270458
0.42774175986372365 -0.022753457340766295 0.895036117714842
0.5274999052983457 0.09762302414985838 0.914892267985017
0.7257915592869879 0.013216731025892839 0.8123075242614919
0.5743747114953448 0.1029880020585907 0.8164411261270458
0.6277417598637237 -0.022753457340766295 0.895036117714842
0.7274999052983457 0.09762302414985838 0.914892267985017
0.9257915592869879 0.013216731025892839 0.8123075242614919
0.7743747114953448 0.1029880020585907 0.8164411261270458
0.8277417598637238 -0.022753457340766295 0.895036117714842
0.9274999052983457 0.09762302414985838 0.914892267985017
0.1257915592869878 0.21321673102589284 0.8123075242614919
-0.025625288504655255 0.30298800205859067 0.8164411261270458
0.027741759863723677 0.1772465426592337 0.895036117714842
0.12749990529834568 0.2976230241498584 0.914892267985017
0.3257915592869878 0.21321673102589284 0.8123075242614919
0.17437471149534478 0.30298800205859067 0.8164411261270458
0.2277417598637237 0.1772465426592337 0.895036117714842
0.3274999052983457 0.2976230241498584 0.914892267985017
0.5257915592869878 0.21321673102589284 0.8123075242614919
0.3743747114953448 0.30298800205859067 0.8164411261270458
0.42774175986372365 0.1772465426592337 0.895036117714842
0.5274999052983457 0.2976230241498584 0.914892267985017
0.7257915592869879 0.21321673102589284 0.8123075242614919
0.5743747114953448 0.30298800205859067 0.8164411261270458
0.6277417598637237 0.1772465426592337 0.895036117714842
0.7274999052983457 0.2976230241498584 0.914892267985017
0.9257915592869879 0.21321673102589284 0.8123075242614919
0.7743747114953448 0.30298800205859067 0.8164411261270458
0.8277417598637238 0.1772465426592337 0.895036117714842
0.9274999052983457 0.2976230241498584 0.914892267985017
0.1257915592869878 0.4132167310258929 0.8123075242614919
-0.025625288504655255 0.5029880020585907 0.8164411261270458
0.027741759863723677 0.37724654265923374 0.895036117714842
0.12749990529834568 0.49762302414985843 0.914892267985017
0.3257915592869878 0.4132167310258929 0.8123075242614919
0.17437471149534478 0.5029880020585907 0.8164411261270458
0.2277417598637237 0.37724654265923374 0.895036117714842
0.3274999052983457 0.49762302414985843 0.914892267985017
0.5257915592869878 0.4132167310258929 0.8123075242614919
0.3743747114953448 0.5029880020585907 0.8164411261270458
0.42774175986372365 0.37724654265923374 0.895036117714842
0.5274999052983457 0.49762302414985843 0.914892267985017
0.7257915592869879 0.4132167310258929 0.8123075242614919
0.5743747114953448 0.5029880020585907 0.8164411261270458
0.6277417598637237 0.37724654265923374 0.895036117714842
0.7274999052983457 0.49762302414985843 0.914892267985017
0.9257915592869879 0.4132167310258929 0.8123075242614919
0.7743747114953448 0.5029880020585907 0.8164411261270458
0.8277417598637238 0.37724654265923374 0.895036117714842
0.9274999052983457 0.49762302414985843 0.914892267985017
0.1257915592869878 0.6132167310258929 0.8123075242614919
-0.025625288504655255 0.7029880020585907 0.8164411261270458
0.027741759863723677 0.5772465426592337 0.895036117714842
0.12749990529834568 0.6976230241498584 0.914892267985017
0.3257915592869878 0.6132167310258929 0.8123075242614919
0.17437471149534478 0.7029880020585907 0.8164411261270458
0.2277417598637237 0.5772465426592337 0.895036117714842
0.3274999052983457 0.6976230241498584 0.914892267985017
0.5257915592869878 0.6132167310258929 0.8123075242614919
0.3743747114953448 0.7029880020585907 0.8164411261270458
0.42774175986372365 0.5772465426592337 0.895036117714842
0.5274999052983457 0.6976230241498584 0.914892267985017
0.7257915592869879 0.6132167310258929 0.8123075242614919
0.5743747114953448 0.7029880020585907 0.8164411261270458
0.6277417598637237 0.5772465426592337 0.895036117714842
0.7274999052983457 0.6976230241498584 0.914892267985017
0.9257915592869879 0.6132167310258929 0.8123075242614919
0.7743747114953448 0.7029880020585907 0.8164411261270458
0.8277417598637238 0.5772465426592337 0.895036117714842
0.9274999052983457 0.6976230241498584 0.914892267985017
0.1257915592869878 0.8132167310258929 0.8123075242614919
-0.025625288504655255 0.9029880020585908 0.8164411261270458
0.027741759863723677 0.7772465426592338 0.895036117714842
0.12749990529834568 0.8976230241498584 0.914892267985017
0.3257915592869878 0.8132167310258929 0.8123075242614919
0.17437471149534478 0.9029880020585908 0.8164411261270458
0.2277417598637237 0.7772465426592338 0.895036117714842
0.3274999052983457 0.8976230241498584 0.914892267985017
0.5257915592869878 0.8132167310258929 0.8123075242614919
0.3743747114953448 0.9029880020585908 0.8164411261270458
0.42774175986372365 0.7772465426592338 0.895036117714842
0.5274999052983457 0.8976230241498584 0.914892267985017
0.7257915592869879 0.8132167310258929 0.8123075242614919
0.5743747114953448 0.9029880020585908 0.8164411261270458
0.6277417598637237 0.7772465426592338 0.895036117714842
0.7274999052983457 0.8976230241498584 0.914892267985017
0.9257915592869879 0.8132167310258929 0.8123075242614919
0.7743747114953448 0.9029880020585908 0.8164411261270458
0.8277417598637238 0.7772465426592338 0.895036117714842
0.9274999052983457 0.8976230241498584 0.914892267985017
