FCC BaO
3.971
5.0 0.0 0.0
0.0 5.0 0.0
0.0 0.0 5.0
Ba O 
500 500 
Direct
-0.02472696780799584 0.012579211926902931 -0.009525913494585222
-0.0006514913190237637 0.10867512920603972 0.12644553105443787
0.10956313157844132 0.016402002263602024 0.1183374349313588
0.11264264980482093 0.10391960357192015 0.0004650465329911757
0.17527303219200419 0.012579211926902931 -0.009525913494585222
0.19934850868097626 0.10867512920603972 0.12644553105443787
0.3095631315784413 0.016402002263602024 0.1183374349313588
0.3126426498048209 0.10391960357192015 0.0004650465329911757
0.37527303219200414 0.012579211926902931 -0.009525913494585222
0.39934850868097627 0.10867512920603972 0.12644553105443787
0.5095631315784414 0.016402002263602024 0.1183374349313588
0.512642649804821 0.10391960357192015 0.0004650465329911757
0.5752730321920042 0.012579211926902931 -0.009525913494585222
0.5993485086809763 0.10867512920603972 0.12644553105443787
0.7095631315784413 0.016402002263602024 0.1183374349313588
0.712642649804821 0.10391960357192015 0.0004650465329911757
0.7752730321920042 0.012579211926902931 -0.009525913494585222
0.7993485086809763 0.10867512920603972 0.12644553105443787
0.9095631315784414 0.016402002263602024 0.1183374349313588
0.912642649804821 0.10391960357192015 0.0004650465329911757
-0.02472696780799584 0.21257921192690296 -0.009525913494585222
-0.0006514913190237637 0.30867512920603973 0.12644553105443787
0.10956313157844132 0.21640200226360207 0.1183374349313588
0.11264264980482093 0.30391960357192016 0.0004650465329911757
0.17527303219200419 0.21257921192690296 -0.009525913494585222
0.19934850868097626 0.30867512920603973 0.12644553105443787
0.3095631315784413 0.21640200226360207 0.1183374349313588
0.3126426498048209 0.30391960357192016 0.0004650465329911757
0.37527303219200414 0.21257921192690296 -0.009525913494585222
0.39934850868097627 0.30867512920603973 0.12644553105443787
0.5095631315784414 0.21640200226360207 0.1183374349313588
0.512642649804821 0.30391960357192016 0.0004650465329911757
0.5752730321920042 0.21257921192690296 -0.009525913494585222
0.5993485086809763 0.30867512920603973 0.12644553105443787
0.7095631315784413 0.21640200226360207 0.1183374349313588
0.712642649804821 0.30391960357192016 0.0004650465329911757
0.7752730321920042 0.21257921192690296 -0.009525913494585222
0.7993485086809763 0.30867512920603973 0.12644553105443787
0.9095631315784414 0.21640200226360207 0.1183374349313588
0.912642649804821 0.30391960357192016 0.0004650465329911757
-0.02472696780799584 0.41257921192690294 -0.009525913494585222
-0.0006514913190237637 0.5086751292060397 0.12644553105443787
0.10956313157844132 0.416402002263602 0.1183374349313588
0.11264264980482093 0.5039196035719201 0.0004650465329911757
0.17527303219200419 0.41257921192690294 -0.009525913494585222
0.19934850868097626 0.5086751292060397 0.12644553105443787
0.3095631315784413 0.416402002263602 0.1183374349313588
0.3126426498048209 0.5039196035719201 0.0004650465329911757
0.37527303219200414 0.41257921192690294 -0.009525913494585222
0.39934850868097627 0.5086751292060397 0.12644553105443787
0.5095631315784414 0.416402002263602 0.1183374349313588
0.512642649804821 0.5039196035719201 0.0004650465329911757
0.5752730321920042 0.41257921192690294 -0.009525913494585222
0.5993485086809763 0.5086751292060397 0.12644553105443787
0.7095631315784413 0.416402002263602 0.1183374349313588
0.712642649804821 0.5039196035719201 0.0004650465329911757
0.7752730321920042 0.41257921192690294 -0.009525913494585222
0.7993485086809763 0.5086751292060397 0.12644553105443787
0.9095631315784414 0.416402002263602 0.1183374349313588
0.912642649804821 0.5039196035719201 0.0004650465329911757
-0.02472696780799584 0.6125792119269029 -0.009525913494585222
-0.0006514913190237637 0.7086751292060397 0.12644553105443787
0.10956313157844132 0.6164020022636021 0.1183374349313588
0.11264264980482093 0.7039196035719202 0.0004650465329911757
0.17527303219200419 0.6125792119269029 -0.009525913494585222
0.19934850868097626 0.7086751292060397 0.12644553105443787
0.3095631315784413 0.6164020022636021 0.1183374349313588
0.3126426498048209 0.7039196035719202 0.0004650465329911757
0.37527303219200414 0.6125792119269029 -0.009525913494585222
0.39934850868097627 0.7086751292060397 0.12644553105443787
0.5095631315784414 0.6164020022636021 0.1183374349313588
0.512642649804821 0.7039196035719202 0.0004650465329911757
0.5752730321920042 0.6125792119269029 -0.009525913494585222
0.5993485086809763 0.7086751292060397 0.12644553105443787
0.7095631315784413 0.6164020022636021 0.1183374349313588
0.712642649804821 0.7039196035719202 0.0004650465329911757
0.7752730321920042 0.6125792119269029 -0.009525913494585222
0.7993485086809763 0.7086751292060397 0.12644553105443787
0.9095631315784414 0.6164020022636021 0.1183374349313588
0.912642649804821 0.7039196035719202 0.0004650465329911757
-0.02472696780799584 0.812579211926903 -0.009525913494585222
-0.0006514913190237637 0.9086751292060398 0.12644553105443787
0.10956313157844132 0.816402002263602 0.1183374349313588
0.11264264980482093 0.9039196035719201 0.0004650465329911757
0.17527303219200419 0.812579211926903 -0.009525913494585222
0.19934850868097626 0.9086751292060398 0.12644553105443787
0.3095631315784413 0.816402002263602 0.1183374349313588
0.3126426498048209 0.9039196035719201 0.0004650465329911757
0.37527303219200414 0.812579211926903 -0.009525913494585222
0.39934850868097627 0.9086751292060398 0.12644553105443787
0.5095631315784414 0.816402002263602 0.1183374349313588
0.512642649804821 0.9039196035719201 0.0004650465329911757
0.5752730321920042 0.812579211926903 -0.009525913494585222
0.5993485086809763 0.9086751292060398 0.12644553105443787
0.7095631315784413 0.816402002263602 0.1183374349313588
0.712642649804821 0.9039196035719201 0.0004650465329911757
0.7752730321920042 0.812579211926903 -0.009525913494585222
0.7993485086809763 0.9086751292060398 0.12644553105443787
0.9095631315784414 0.816402002263602 0.1183374349313588
0.912642649804821 0.9039196035719201 0.0004650465329911757
-0.02472696780799584 0.012579211926902931 0.19047408650541478
-0.0006514913190237637 0.10867512920603972 0.32644553105443785
0.10956313157844132 0.016402002263602024 0.3183374349313588
0.11264264980482093 0.10391960357192015 0.2004650465329912
0.17527303219200419 0.012579211926902931 0.19047408650541478
0.19934850868097626 0.10867512920603972 0.32644553105443785
0.3095631315784413 0.016402002263602024 0.3183374349313588
0.3126426498048209 0.10391960357192015 0.2004650465329912
0.37527303219200414 0.012579211926902931 0.19047408650541478
0.39934850868097627 0.10867512920603972 0.32644553105443785
0.5095631315784414 0.016402002263602024 0.3183374349313588
0.512642649804821 0.10391960357192015 0.2004650465329912
0.5752730321920042 0.012579211926902931 0.19047408650541478
0.5993485086809763 0.10867512920603972 0.32644553105443785
0.7095631315784413 0.016402002263602024 0.3183374349313588
0.712642649804821 0.10391960357192015 0.2004650465329912
0.7752730321920042 0.012579211926902931 0.19047408650541478
0.7993485086809763 0.10867512920603972 0.32644553105443785
0.9095631315784414 0.016402002263602024 0.3183374349313588
0.912642649804821 0.10391960357192015 0.2004650465329912
-0.02472696780799584 0.21257921192690296 0.19047408650541478
-0.0006514913190237637 0.30867512920603973 0.32644553105443785
0.10956313157844132 0.21640200226360207 0.3183374349313588
0.11264264980482093 0.30391960357192016 0.2004650465329912
0.17527303219200419 0.21257921192690296 0.19047408650541478
0.19934850868097626 0.30867512920603973 0.32644553105443785
0.3095631315784413 0.21640200226360207 0.3183374349313588
0.3126426498048209 0.30391960357192016 0.2004650465329912
0.37527303219200414 0.21257921192690296 0.19047408650541478
0.39934850868097627 0.30867512920603973 0.32644553105443785
0.5095631315784414 0.21640200226360207 0.3183374349313588
0.512642649804821 0.30391960357192016 0.2004650465329912
0.5752730321920042 0.21257921192690296 0.19047408650541478
0.5993485086809763 0.30867512920603973 0.32644553105443785
0.7095631315784413 0.21640200226360207 0.3183374349313588
0.712642649804821 0.30391960357192016 0.2004650465329912
0.7752730321920042 0.21257921192690296 0.19047408650541478
0.7993485086809763 0.30867512920603973 0.32644553105443785
0.9095631315784414 0.21640200226360207 0.3183374349313588
0.912642649804821 0.30391960357192016 0.2004650465329912
-0.02472696780799584 0.41257921192690294 0.19047408650541478
-0.0006514913190237637 0.5086751292060397 0.32644553105443785
0.10956313157844132 0.416402002263602 0.3183374349313588
0.11264264980482093 0.5039196035719201 0.2004650465329912
0.17527303219200419 0.41257921192690294 0.19047408650541478
0.19934850868097626 0.5086751292060397 0.32644553105443785
0.3095631315784413 0.416402002263602 0.3183374349313588
0.3126426498048209 0.5039196035719201 0.2004650465329912
0.37527303219200414 0.41257921192690294 0.19047408650541478
0.39934850868097627 0.5086751292060397 0.32644553105443785
0.5095631315784414 0.416402002263602 0.3183374349313588
0.512642649804821 0.5039196035719201 0.2004650465329912
0.5752730321920042 0.41257921192690294 0.19047408650541478
0.5993485086809763 0.5086751292060397 0.32644553105443785
0.7095631315784413 0.416402002263602 0.3183374349313588
0.712642649804821 0.5039196035719201 0.2004650465329912
0.7752730321920042 0.41257921192690294 0.19047408650541478
0.7993485086809763 0.5086751292060397 0.32644553105443785
0.9095631315784414 0.416402002263602 0.3183374349313588
0.912642649804821 0.5039196035719201 0.2004650465329912
-0.02472696780799584 0.6125792119269029 0.19047408650541478
-0.0006514913190237637 0.7086751292060397 0.32644553105443785
0.10956313157844132 0.6164020022636021 0.3183374349313588
0.11264264980482093 0.7039196035719202 0.2004650465329912
0.17527303219200419 0.6125792119269029 0.19047408650541478
0.19934850868097626 0.7086751292060397 0.32644553105443785
0.3095631315784413 0.6164020022636021 0.3183374349313588
0.3126426498048209 0.7039196035719202 0.2004650465329912
0.37527303219200414 0.6125792119269029 0.19047408650541478
0.39934850868097627 0.7086751292060397 0.32644553105443785
0.5095631315784414 0.6164020022636021 0.3183374349313588
0.512642649804821 0.7039196035719202 0.2004650465329912
0.5752730321920042 0.6125792119269029 0.19047408650541478
0.5993485086809763 0.7086751292060397 0.32644553105443785
0.7095631315784413 0.6164020022636021 0.3183374349313588
0.712642649804821 0.7039196035719202 0.2004650465329912
0.7752730321920042 0.6125792119269029 0.19047408650541478
0.7993485086809763 0.7086751292060397 0.32644553105443785
0.9095631315784414 0.6164020022636021 0.3183374349313588
0.912642649804821 0.7039196035719202 0.2004650465329912
-0.02472696780799584 0.812579211926903 0.19047408650541478
-0.0006514913190237637 0.9086751292060398 0.32644553105443785
0.10956313157844132 0.816402002263602 0.3183374349313588
0.11264264980482093 0.9039196035719201 0.2004650465329912
0.17527303219200419 0.812579211926903 0.19047408650541478
0.19934850868097626 0.9086751292060398 0.32644553105443785
0.3095631315784413 0.816402002263602 0.3183374349313588
0.3126426498048209 0.9039196035719201 0.2004650465329912
0.37527303219200414 0.812579211926903 0.19047408650541478
0.39934850868097627 0.9086751292060398 0.32644553105443785
0.5095631315784414 0.816402002263602 0.3183374349313588
0.512642649804821 0.9039196035719201 0.2004650465329912
0.5752730321920042 0.812579211926903 0.19047408650541478
0.5993485086809763 0.9086751292060398 0.32644553105443785
0.7095631315784413 0.816402002263602 0.3183374349313588
0.712642649804821 0.9039196035719201 0.2004650465329912
0.7752730321920042 0.812579211926903 0.19047408650541478
0.7993485086809763 0.9086751292060398 0.32644553105443785
0.9095631315784414 0.816402002263602 0.3183374349313588
0.912642649804821 0.9039196035719201 0.2004650465329912
-0.02472696780799584 0.012579211926902931 0.3904740865054148
-0.0006514913190237637 0.10867512920603972 0.5264455310544379
0.10956313157844132 0.016402002263602024 0.5183374349313589
0.11264264980482093 0.10391960357192015 0.40046504653299114
0.17527303219200419 0.012579211926902931 0.3904740865054148
0.19934850868097626 0.10867512920603972 0.5264455310544379
0.3095631315784413 0.016402002263602024 0.5183374349313589
0.3126426498048209 0.10391960357192015 0.40046504653299114
0.37527303219200414 0.012579211926902931 0.3904740865054148
0.39934850868097627 0.10867512920603972 0.5264455310544379
0.5095631315784414 0.016402002263602024 0.5183374349313589
0.512642649804821 0.10391960357192015 0.40046504653299114
0.5752730321920042 0.012579211926902931 0.3904740865054148
0.5993485086809763 0.10867512920603972 0.5264455310544379
0.7095631315784413 0.016402002263602024 0.5183374349313589
0.712642649804821 0.10391960357192015 0.40046504653299114
0.7752730321920042 0.012579211926902931 0.3904740865054148
0.7993485086809763 0.10867512920603972 0.5264455310544379
0.9095631315784414 0.016402002263602024 0.5183374349313589
0.912642649804821 0.10391960357192015 0.40046504653299114
-0.02472696780799584 0.21257921192690296 0.3904740865054148
-0.0006514913190237637 0.30867512920603973 0.5264455310544379
0.10956313157844132 0.21640200226360207 0.5183374349313589
0.11264264980482093 0.30391960357192016 0.40046504653299114
0.17527303219200419 0.21257921192690296 0.3904740865054148
0.19934850868097626 0.30867512920603973 0.5264455310544379
0.3095631315784413 0.21640200226360207 0.5183374349313589
0.3126426498048209 0.30391960357192016 0.40046504653299114
0.37527303219200414 0.21257921192690296 0.3904740865054148
0.39934850868097627 0.30867512920603973 0.5264455310544379
0.5095631315784414 0.21640200226360207 0.5183374349313589
0.512642649804821 0.30391960357192016 0.40046504653299114
0.5752730321920042 0.21257921192690296 0.3904740865054148
0.5993485086809763 0.30867512920603973 0.5264455310544379
0.7095631315784413 0.21640200226360207 0.5183374349313589
0.712642649804821 0.30391960357192016 0.40046504653299114
0.7752730321920042 0.21257921192690296 0.3904740865054148
0.7993485086809763 0.30867512920603973 0.5264455310544379
0.9095631315784414 0.21640200226360207 0.5183374349313589
0.912642649804821 0.30391960357192016 0.40046504653299114
-0.02472696780799584 0.41257921192690294 0.3904740865054148
-0.0006514913190237637 0.5086751292060397 0.5264455310544379
0.10956313157844132 0.416402002263602 0.5183374349313589
0.11264264980482093 0.5039196035719201 0.40046504653299114
0.17527303219200419 0.41257921192690294 0.3904740865054148
0.19934850868097626 0.5086751292060397 0.5264455310544379
0.3095631315784413 0.416402002263602 0.5183374349313589
0.3126426498048209 0.5039196035719201 0.40046504653299114
0.37527303219200414 0.41257921192690294 0.3904740865054148
0.39934850868097627 0.5086751292060397 0.5264455310544379
0.5095631315784414 0.416402002263602 0.5183374349313589
0.512642649804821 0.5039196035719201 0.40046504653299114
0.5752730321920042 0.41257921192690294 0.3904740865054148
0.5993485086809763 0.5086751292060397 0.5264455310544379
0.7095631315784413 0.416402002263602 0.5183374349313589
0.712642649804821 0.5039196035719201 0.40046504653299114
0.7752730321920042 0.41257921192690294 0.3904740865054148
0.7993485086809763 0.5086751292060397 0.5264455310544379
0.9095631315784414 0.416402002263602 0.5183374349313589
0.912642649804821 0.5039196035719201 0.40046504653299114
-0.02472696780799584 0.6125792119269029 0.3904740865054148
-0.0006514913190237637 0.7086751292060397 0.5264455310544379
0.10956313157844132 0.6164020022636021 0.5183374349313589
0.11264264980482093 0.7039196035719202 0.40046504653299114
0.17527303219200419 0.6125792119269029 0.3904740865054148
0.19934850868097626 0.7086751292060397 0.5264455310544379
0.3095631315784413 0.6164020022636021 0.5183374349313589
0.3126426498048209 0.7039196035719202 0.40046504653299114
0.37527303219200414 0.6125792119269029 0.3904740865054148
0.39934850868097627 0.7086751292060397 0.5264455310544379
0.5095631315784414 0.6164020022636021 0.5183374349313589
0.512642649804821 0.7039196035719202 0.40046504653299114
0.5752730321920042 0.6125792119269029 0.3904740865054148
0.5993485086809763 0.7086751292060397 0.5264455310544379
0.7095631315784413 0.6164020022636021 0.5183374349313589
0.712642649804821 0.7039196035719202 0.40046504653299114
0.7752730321920042 0.6125792119269029 0.3904740865054148
0.7993485086809763 0.7086751292060397 0.5264455310544379
0.9095631315784414 0.6164020022636021 0.5183374349313589
0.912642649804821 0.7039196035719202 0.40046504653299114
-0.02472696780799584 0.812579211926903 0.3904740865054148
-0.0006514913190237637 0.9086751292060398 0.5264455310544379
0.10956313157844132 0.816402002263602 0.5183374349313589
0.11264264980482093 0.9039196035719201 0.40046504653299114
0.17527303219200419 0.812579211926903 0.3904740865054148
0.19934850868097626 0.9086751292060398 0.5264455310544379
0.3095631315784413 0.816402002263602 0.5183374349313589
0.3126426498048209 0.9039196035719201 0.40046504653299114
0.37527303219200414 0.812579211926903 0.3904740865054148
0.39934850868097627 0.9086751292060398 0.5264455310544379
0.5095631315784414 0.816402002263602 0.5183374349313589
0.512642649804821 0.9039196035719201 0.40046504653299114
0.5752730321920042 0.812579211926903 0.3904740865054148
0.5993485086809763 0.9086751292060398 0.5264455310544379
0.7095631315784413 0.816402002263602 0.5183374349313589
0.712642649804821 0.9039196035719201 0.40046504653299114
0.7752730321920042 0.812579211926903 0.3904740865054148
0.7993485086809763 0.9086751292060398 0.5264455310544379
0.9095631315784414 0.816402002263602 0.5183374349313589
0.912642649804821 0.9039196035719201 0.40046504653299114
-0.02472696780799584 0.012579211926902931 0.5904740865054148
-0.0006514913190237637 0.10867512920603972 0.7264455310544379
0.10956313157844132 0.016402002263602024 0.7183374349313589
0.11264264980482093 0.10391960357192015 0.6004650465329912
0.17527303219200419 0.012579211926902931 0.5904740865054148
0.19934850868097626 0.10867512920603972 0.7264455310544379
0.3095631315784413 0.016402002263602024 0.7183374349313589
0.3126426498048209 0.10391960357192015 0.6004650465329912
0.37527303219200414 0.012579211926902931 0.5904740865054148
0.39934850868097627 0.10867512920603972 0.7264455310544379
0.5095631315784414 0.016402002263602024 0.7183374349313589
0.512642649804821 0.10391960357192015 0.6004650465329912
0.5752730321920042 0.012579211926902931 0.5904740865054148
0.5993485086809763 0.10867512920603972 0.7264455310544379
0.7095631315784413 0.016402002263602024 0.7183374349313589
0.712642649804821 0.10391960357192015 0.6004650465329912
0.7752730321920042 0.012579211926902931 0.5904740865054148
0.7993485086809763 0.10867512920603972 0.7264455310544379
0.9095631315784414 0.016402002263602024 0.7183374349313589
0.912642649804821 0.10391960357192015 0.6004650465329912
-0.02472696780799584 0.21257921192690296 0.5904740865054148
-0.0006514913190237637 0.30867512920603973 0.7264455310544379
0.10956313157844132 0.21640200226360207 0.7183374349313589
0.11264264980482093 0.30391960357192016 0.6004650465329912
0.17527303219200419 0.21257921192690296 0.5904740865054148
0.19934850868097626 0.30867512920603973 0.7264455310544379
0.3095631315784413 0.21640200226360207 0.7183374349313589
0.3126426498048209 0.30391960357192016 0.6004650465329912
0.37527303219200414 0.21257921192690296 0.5904740865054148
0.39934850868097627 0.30867512920603973 0.7264455310544379
0.5095631315784414 0.21640200226360207 0.7183374349313589
0.512642649804821 0.30391960357192016 0.6004650465329912
0.5752730321920042 0.21257921192690296 0.5904740865054148
0.5993485086809763 0.30867512920603973 0.7264455310544379
0.7095631315784413 0.21640200226360207 0.7183374349313589
0.712642649804821 0.30391960357192016 0.6004650465329912
0.7752730321920042 0.21257921192690296 0.5904740865054148
0.7993485086809763 0.30867512920603973 0.7264455310544379
0.9095631315784414 0.21640200226360207 0.7183374349313589
0.912642649804821 0.30391960357192016 0.6004650465329912
-0.02472696780799584 0.41257921192690294 0.5904740865054148
-0.0006514913190237637 0.5086751292060397 0.7264455310544379
0.10956313157844132 0.416402002263602 0.7183374349313589
0.11264264980482093 0.5039196035719201 0.6004650465329912
0.17527303219200419 0.41257921192690294 0.5904740865054148
0.19934850868097626 0.5086751292060397 0.7264455310544379
0.3095631315784413 0.416402002263602 0.7183374349313589
0.3126426498048209 0.5039196035719201 0.6004650465329912
0.37527303219200414 0.41257921192690294 0.5904740865054148
0.39934850868097627 0.5086751292060397 0.7264455310544379
0.5095631315784414 0.416402002263602 0.7183374349313589
0.512642649804821 0.5039196035719201 0.6004650465329912
0.5752730321920042 0.41257921192690294 0.5904740865054148
0.5993485086809763 0.5086751292060397 0.7264455310544379
0.7095631315784413 0.416402002263602 0.7183374349313589
0.712642649804821 0.5039196035719201 0.6004650465329912
0.7752730321920042 0.41257921192690294 0.5904740865054148
0.7993485086809763 0.5086751292060397 0.7264455310544379
0.9095631315784414 0.416402002263602 0.7183374349313589
0.912642649804821 0.5039196035719201 0.6004650465329912
-0.02472696780799584 0.6125792119269029 0.5904740865054148
-0.0006514913190237637 0.7086751292060397 0.7264455310544379
0.10956313157844132 0.6164020022636021 0.7183374349313589
0.11264264980482093 0.7039196035719202 0.6004650465329912
0.17527303219200419 0.6125792119269029 0.5904740865054148
0.19934850868097626 0.7086751292060397 0.7264455310544379
0.3095631315784413 0.6164020022636021 0.7183374349313589
0.3126426498048209 0.7039196035719202 0.6004650465329912
0.37527303219200414 0.6125792119269029 0.5904740865054148
0.39934850868097627 0.7086751292060397 0.7264455310544379
0.5095631315784414 0.6164020022636021 0.7183374349313589
0.512642649804821 0.7039196035719202 0.6004650465329912
0.5752730321920042 0.6125792119269029 0.5904740865054148
0.5993485086809763 0.7086751292060397 0.7264455310544379
0.7095631315784413 0.6164020022636021 0.7183374349313589
0.712642649804821 0.7039196035719202 0.6004650465329912
0.7752730321920042 0.6125792119269029 0.5904740865054148
0.7993485086809763 0.7086751292060397 0.7264455310544379
0.9095631315784414 0.6164020022636021 0.7183374349313589
0.912642649804821 0.7039196035719202 0.6004650465329912
-0.02472696780799584 0.812579211926903 0.5904740865054148
-0.0006514913190237637 0.9086751292060398 0.7264455310544379
0.10956313157844132 0.816402002263602 0.7183374349313589
0.11264264980482093 0.9039196035719201 0.6004650465329912
0.17527303219200419 0.812579211926903 0.5904740865054148
0.19934850868097626 0.9086751292060398 0.7264455310544379
0.3095631315784413 0.816402002263602 0.7183374349313589
0.3126426498048209 0.9039196035719201 0.6004650465329912
0.37527303219200414 0.812579211926903 0.5904740865054148
0.39934850868097627 0.9086751292060398 0.7264455310544379
0.5095631315784414 0.816402002263602 0.7183374349313589
0.512642649804821 0.9039196035719201 0.6004650465329912
0.5752730321920042 0.812579211926903 0.5904740865054148
0.5993485086809763 0.9086751292060398 0.7264455310544379
0.7095631315784413 0.816402002263602 0.7183374349313589
0.712642649804821 0.9039196035719201 0.6004650465329912
0.7752730321920042 0.812579211926903 0.5904740865054148
0.7993485086809763 0.9086751292060398 0.7264455310544379
0.9095631315784414 0.816402002263602 0.7183374349313589
0.912642649804821 0.9039196035719201 0.6004650465329912
-0.02472696780799584 0.012579211926902931 0.7904740865054148
-0.0006514913190237637 0.10867512920603972 0.9264455310544379
0.10956313157844132 0.016402002263602024 0.9183374349313589
0.11264264980482093 0.10391960357192015 0.8004650465329912
0.17527303219200419 0.012579211926902931 0.7904740865054148
0.19934850868097626 0.10867512920603972 0.9264455310544379
0.3095631315784413 0.016402002263602024 0.9183374349313589
0.3126426498048209 0.10391960357192015 0.8004650465329912
0.37527303219200414 0.012579211926902931 0.7904740865054148
0.39934850868097627 0.10867512920603972 0.9264455310544379
0.5095631315784414 0.016402002263602024 0.9183374349313589
0.512642649804821 0.10391960357192015 0.8004650465329912
0.5752730321920042 0.012579211926902931 0.7904740865054148
0.5993485086809763 0.10867512920603972 0.9264455310544379
0.7095631315784413 0.016402002263602024 0.9183374349313589
0.712642649804821 0.10391960357192015 0.8004650465329912
0.7752730321920042 0.012579211926902931 0.7904740865054148
0.7993485086809763 0.10867512920603972 0.9264455310544379
0.9095631315784414 0.016402002263602024 0.9183374349313589
0.912642649804821 0.10391960357192015 0.8004650465329912
-0.02472696780799584 0.21257921192690296 0.7904740865054148
-0.0006514913190237637 0.30867512920603973 0.9264455310544379
0.10956313157844132 0.21640200226360207 0.9183374349313589
0.11264264980482093 0.30391960357192016 0.8004650465329912
0.17527303219200419 0.21257921192690296 0.7904740865054148
0.19934850868097626 0.30867512920603973 0.9264455310544379
0.3095631315784413 0.21640200226360207 0.9183374349313589
0.3126426498048209 0.30391960357192016 0.8004650465329912
0.37527303219200414 0.21257921192690296 0.7904740865054148
0.39934850868097627 0.30867512920603973 0.9264455310544379
0.5095631315784414 0.21640200226360207 0.9183374349313589
0.512642649804821 0.30391960357192016 0.8004650465329912
0.5752730321920042 0.21257921192690296 0.7904740865054148
0.5993485086809763 0.30867512920603973 0.9264455310544379
0.7095631315784413 0.21640200226360207 0.9183374349313589
0.712642649804821 0.30391960357192016 0.8004650465329912
0.7752730321920042 0.21257921192690296 0.7904740865054148
0.7993485086809763 0.30867512920603973 0.9264455310544379
0.9095631315784414 0.21640200226360207 0.9183374349313589
0.912642649804821 0.30391960357192016 0.8004650465329912
-0.02472696780799584 0.41257921192690294 0.7904740865054148
-0.0006514913190237637 0.5086751292060397 0.9264455310544379
0.10956313157844132 0.416402002263602 0.9183374349313589
0.11264264980482093 0.5039196035719201 0.8004650465329912
0.17527303219200419 0.41257921192690294 0.7904740865054148
0.19934850868097626 0.5086751292060397 0.9264455310544379
0.3095631315784413 0.416402002263602 0.9183374349313589
0.3126426498048209 0.5039196035719201 0.8004650465329912
0.37527303219200414 0.41257921192690294 0.7904740865054148
0.39934850868097627 0.5086751292060397 0.9264455310544379
0.5095631315784414 0.416402002263602 0.9183374349313589
0.512642649804821 0.5039196035719201 0.8004650465329912
0.5752730321920042 0.41257921192690294 0.7904740865054148
0.5993485086809763 0.5086751292060397 0.9264455310544379
0.7095631315784413 0.416402002263602 0.9183374349313589
0.712642649804821 0.5039196035719201 0.8004650465329912
0.7752730321920042 0.41257921192690294 0.7904740865054148
0.7993485086809763 0.5086751292060397 0.9264455310544379
0.9095631315784414 0.416402002263602 0.9183374349313589
0.912642649804821 0.5039196035719201 0.8004650465329912
-0.02472696780799584 0.6125792119269029 0.7904740865054148
-0.0006514913190237637 0.7086751292060397 0.9264455310544379
0.10956313157844132 0.6164020022636021 0.9183374349313589
0.11264264980482093 0.7039196035719202 0.8004650465329912
0.17527303219200419 0.6125792119269029 0.7904740865054148
0.19934850868097626 0.7086751292060397 0.9264455310544379
0.3095631315784413 0.6164020022636021 0.9183374349313589
0.3126426498048209 0.7039196035719202 0.8004650465329912
0.37527303219200414 0.6125792119269029 0.7904740865054148
0.39934850868097627 0.7086751292060397 0.9264455310544379
0.5095631315784414 0.6164020022636021 0.9183374349313589
0.512642649804821 0.7039196035719202 0.8004650465329912
0.5752730321920042 0.6125792119269029 0.7904740865054148
0.5993485086809763 0.7086751292060397 0.9264455310544379
0.7095631315784413 0.6164020022636021 0.9183374349313589
0.712642649804821 0.7039196035719202 0.8004650465329912
0.7752730321920042 0.6125792119269029 0.7904740865054148
0.7993485086809763 0.7086751292060397 0.9264455310544379
0.9095631315784414 0.6164020022636021 0.9183374349313589
0.912642649804821 0.7039196035719202 0.8004650465329912
-0.02472696780799584 0.812579211926903 0.7904740865054148
-0.0006514913190237637 0.9086751292060398 0.9264455310544379
0.10956313157844132 0.816402002263602 0.9183374349313589
0.11264264980482093 0.9039196035719201 0.8004650465329912
0.17527303219200419 0.812579211926903 0.7904740865054148
0.19934850868097626 0.9086751292060398 0.9264455310544379
0.3095631315784413 0.816402002263602 0.9183374349313589
0.3126426498048209 0.9039196035719201 0.8004650465329912
0.37527303219200414 0.812579211926903 0.7904740865054148
0.39934850868097627 0.9086751292060398 0.9264455310544379
0.5095631315784414 0.816402002263602 0.9183374349313589
0.512642649804821 0.9039196035719201 0.8004650465329912
0.5752730321920042 0.812579211926903 0.7904740865054148
0.5993485086809763 0.9086751292060398 0.9264455310544379
0.7095631315784413 0.816402002263602 0.9183374349313589
0.712642649804821 0.9039196035719201 0.8004650465329912
0.7752730321920042 0.812579211926903 0.7904740865054148
0.7993485086809763 0.9086751292060398 0.9264455310544379
0.9095631315784414 0.816402002263602 0.9183374349313589
0.912642649804821 0.9039196035719201 0.8004650465329912
0.07536763038640788 -0.02605435841806671 -0.011124318627971601
-0.02411834767984573 0.09452066136587815 -0.004745026316040145
0.00781254739391215 -0.02817662679445338 0.0855476885460912
0.08570302292211822 0.09532544745321572 0.07429588499685816
0.2753676303864079 -0.02605435841806671 -0.011124318627971601
0.1758816523201543 0.09452066136587815 -0.004745026316040145
0.2078125473939122 -0.02817662679445338 0.0855476885460912
0.2857030229221182 0.09532544745321572 0.07429588499685816
0.47536763038640795 -0.02605435841806671 -0.011124318627971601
0.3758816523201543 0.09452066136587815 -0.004745026316040145
0.4078125473939122 -0.02817662679445338 0.0855476885460912
0.48570302292211825 0.09532544745321572 0.07429588499685816
0.675367630386408 -0.02605435841806671 -0.011124318627971601
0.5758816523201543 0.09452066136587815 -0.004745026316040145
0.6078125473939122 -0.02817662679445338 0.0855476885460912
0.6857030229221183 0.09532544745321572 0.07429588499685816
0.875367630386408 -0.02605435841806671 -0.011124318627971601
0.7758816523201544 0.09452066136587815 -0.004745026316040145
0.8078125473939122 -0.02817662679445338 0.0855476885460912
0.8857030229221183 0.09532544745321572 0.07429588499685816
0.07536763038640788 0.1739456415819333 -0.011124318627971601
-0.02411834767984573 0.2945206613658781 -0.004745026316040145
0.00781254739391215 0.17182337320554664 0.0855476885460912
0.08570302292211822 0.2953254474532157 0.07429588499685816
0.2753676303864079 0.1739456415819333 -0.011124318627971601
0.1758816523201543 0.2945206613658781 -0.004745026316040145
0.2078125473939122 0.17182337320554664 0.0855476885460912
0.2857030229221182 0.2953254474532157 0.07429588499685816
0.47536763038640795 0.1739456415819333 -0.011124318627971601
0.3758816523201543 0.2945206613658781 -0.004745026316040145
0.4078125473939122 0.17182337320554664 0.0855476885460912
0.48570302292211825 0.2953254474532157 0.07429588499685816
0.675367630386408 0.1739456415819333 -0.011124318627971601
0.5758816523201543 0.2945206613658781 -0.004745026316040145
0.6078125473939122 0.17182337320554664 0.0855476885460912
0.6857030229221183 0.2953254474532157 0.07429588499685816
0.875367630386408 0.1739456415819333 -0.011124318627971601
0.7758816523201544 0.2945206613658781 -0.004745026316040145
0.8078125473939122 0.17182337320554664 0.0855476885460912
0.8857030229221183 0.2953254474532157 0.07429588499685816
0.07536763038640788 0.37394564158193333 -0.011124318627971601
-0.02411834767984573 0.49452066136587813 -0.004745026316040145
0.00781254739391215 0.37182337320554665 0.0855476885460912
0.08570302292211822 0.4953254474532157 0.07429588499685816
0.2753676303864079 0.37394564158193333 -0.011124318627971601
0.1758816523201543 0.49452066136587813 -0.004745026316040145
0.2078125473939122 0.37182337320554665 0.0855476885460912
0.2857030229221182 0.4953254474532157 0.07429588499685816
0.47536763038640795 0.37394564158193333 -0.011124318627971601
0.3758816523201543 0.49452066136587813 -0.004745026316040145
0.4078125473939122 0.37182337320554665 0.0855476885460912
0.48570302292211825 0.4953254474532157 0.07429588499685816
0.675367630386408 0.37394564158193333 -0.011124318627971601
0.5758816523201543 0.49452066136587813 -0.004745026316040145
0.6078125473939122 0.37182337320554665 0.0855476885460912
0.6857030229221183 0.4953254474532157 0.07429588499685816
0.875367630386408 0.37394564158193333 -0.011124318627971601
0.7758816523201544 0.49452066136587813 -0.004745026316040145
0.8078125473939122 0.37182337320554665 0.0855476885460912
0.8857030229221183 0.4953254474532157 0.07429588499685816
0.07536763038640788 0.5739456415819334 -0.011124318627971601
-0.02411834767984573 0.6945206613658782 -0.004745026316040145
0.00781254739391215 0.5718233732055467 0.0855476885460912
0.08570302292211822 0.6953254474532158 0.07429588499685816
0.2753676303864079 0.5739456415819334 -0.011124318627971601
0.1758816523201543 0.6945206613658782 -0.004745026316040145
0.2078125473939122 0.5718233732055467 0.0855476885460912
0.2857030229221182 0.6953254474532158 0.07429588499685816
0.47536763038640795 0.5739456415819334 -0.011124318627971601
0.3758816523201543 0.6945206613658782 -0.004745026316040145
0.4078125473939122 0.5718233732055467 0.0855476885460912
0.48570302292211825 0.6953254474532158 0.07429588499685816
0.675367630386408 0.5739456415819334 -0.011124318627971601
0.5758816523201543 0.6945206613658782 -0.004745026316040145
0.6078125473939122 0.5718233732055467 0.0855476885460912
0.6857030229221183 0.6953254474532158 0.07429588499685816
0.875367630386408 0.5739456415819334 -0.011124318627971601
0.7758816523201544 0.6945206613658782 -0.004745026316040145
0.8078125473939122 0.5718233732055467 0.0855476885460912
0.8857030229221183 0.6953254474532158 0.07429588499685816
0.07536763038640788 0.7739456415819334 -0.011124318627971601
-0.02411834767984573 0.8945206613658782 -0.004745026316040145
0.00781254739391215 0.7718233732055467 0.0855476885460912
0.08570302292211822 0.8953254474532157 0.07429588499685816
0.2753676303864079 0.7739456415819334 -0.011124318627971601
0.1758816523201543 0.8945206613658782 -0.004745026316040145
0.2078125473939122 0.7718233732055467 0.0855476885460912
0.2857030229221182 0.8953254474532157 0.07429588499685816
0.47536763038640795 0.7739456415819334 -0.011124318627971601
0.3758816523201543 0.8945206613658782 -0.004745026316040145
0.4078125473939122 0.7718233732055467 0.0855476885460912
0.48570302292211825 0.8953254474532157 0.07429588499685816
0.675367630386408 0.7739456415819334 -0.011124318627971601
0.5758816523201543 0.8945206613658782 -0.004745026316040145
0.6078125473939122 0.7718233732055467 0.0855476885460912
0.6857030229221183 0.8953254474532157 0.07429588499685816
0.875367630386408 0.7739456415819334 -0.011124318627971601
0.7758816523201544 0.8945206613658782 -0.004745026316040145
0.8078125473939122 0.7718233732055467 0.0855476885460912
0.8857030229221183 0.8953254474532157 0.07429588499685816
0.07536763038640788 -0.02605435841806671 0.1888756813720284
-0.02411834767984573 0.09452066136587815 0.19525497368395986
0.00781254739391215 -0.02817662679445338 0.2855476885460912
0.08570302292211822 0.09532544745321572 0.27429588499685814
0.2753676303864079 -0.02605435841806671 0.1888756813720284
0.1758816523201543 0.09452066136587815 0.19525497368395986
0.2078125473939122 -0.02817662679445338 0.2855476885460912
0.2857030229221182 0.09532544745321572 0.27429588499685814
0.47536763038640795 -0.02605435841806671 0.1888756813720284
0.3758816523201543 0.09452066136587815 0.19525497368395986
0.4078125473939122 -0.02817662679445338 0.2855476885460912
0.48570302292211825 0.09532544745321572 0.27429588499685814
0.675367630386408 -0.02605435841806671 0.1888756813720284
0.5758816523201543 0.09452066136587815 0.19525497368395986
0.6078125473939122 -0.02817662679445338 0.2855476885460912
0.6857030229221183 0.09532544745321572 0.27429588499685814
0.875367630386408 -0.02605435841806671 0.1888756813720284
0.7758816523201544 0.09452066136587815 0.19525497368395986
0.8078125473939122 -0.02817662679445338 0.2855476885460912
0.8857030229221183 0.09532544745321572 0.27429588499685814
0.07536763038640788 0.1739456415819333 0.1888756813720284
-0.02411834767984573 0.2945206613658781 0.19525497368395986
0.00781254739391215 0.17182337320554664 0.2855476885460912
0.08570302292211822 0.2953254474532157 0.27429588499685814
0.2753676303864079 0.1739456415819333 0.1888756813720284
0.1758816523201543 0.2945206613658781 0.19525497368395986
0.2078125473939122 0.17182337320554664 0.2855476885460912
0.2857030229221182 0.2953254474532157 0.27429588499685814
0.47536763038640795 0.1739456415819333 0.1888756813720284
0.3758816523201543 0.2945206613658781 0.19525497368395986
0.4078125473939122 0.17182337320554664 0.2855476885460912
0.48570302292211825 0.2953254474532157 0.27429588499685814
0.675367630386408 0.1739456415819333 0.1888756813720284
0.5758816523201543 0.2945206613658781 0.19525497368395986
0.6078125473939122 0.17182337320554664 0.2855476885460912
0.6857030229221183 0.2953254474532157 0.27429588499685814
0.875367630386408 0.1739456415819333 0.1888756813720284
0.7758816523201544 0.2945206613658781 0.19525497368395986
0.8078125473939122 0.17182337320554664 0.2855476885460912
0.8857030229221183 0.2953254474532157 0.27429588499685814
0.07536763038640788 0.37394564158193333 0.1888756813720284
-0.02411834767984573 0.49452066136587813 0.19525497368395986
0.00781254739391215 0.37182337320554665 0.2855476885460912
0.08570302292211822 0.4953254474532157 0.27429588499685814
0.2753676303864079 0.37394564158193333 0.1888756813720284
0.1758816523201543 0.49452066136587813 0.19525497368395986
0.2078125473939122 0.37182337320554665 0.2855476885460912
0.2857030229221182 0.4953254474532157 0.27429588499685814
0.47536763038640795 0.37394564158193333 0.1888756813720284
0.3758816523201543 0.49452066136587813 0.19525497368395986
0.4078125473939122 0.37182337320554665 0.2855476885460912
0.48570302292211825 0.4953254474532157 0.27429588499685814
0.675367630386408 0.37394564158193333 0.1888756813720284
0.5758816523201543 0.49452066136587813 0.19525497368395986
0.6078125473939122 0.37182337320554665 0.2855476885460912
0.6857030229221183 0.4953254474532157 0.27429588499685814
0.875367630386408 0.37394564158193333 0.1888756813720284
0.7758816523201544 0.49452066136587813 0.19525497368395986
0.8078125473939122 0.37182337320554665 0.2855476885460912
0.8857030229221183 0.4953254474532157 0.27429588499685814
0.07536763038640788 0.5739456415819334 0.1888756813720284
-0.02411834767984573 0.6945206613658782 0.19525497368395986
0.00781254739391215 0.5718233732055467 0.2855476885460912
0.08570302292211822 0.6953254474532158 0.27429588499685814
0.2753676303864079 0.5739456415819334 0.1888756813720284
0.1758816523201543 0.6945206613658782 0.19525497368395986
0.2078125473939122 0.5718233732055467 0.2855476885460912
0.2857030229221182 0.6953254474532158 0.27429588499685814
0.47536763038640795 0.5739456415819334 0.1888756813720284
0.3758816523201543 0.6945206613658782 0.19525497368395986
0.4078125473939122 0.5718233732055467 0.2855476885460912
0.48570302292211825 0.6953254474532158 0.27429588499685814
0.675367630386408 0.5739456415819334 0.1888756813720284
0.5758816523201543 0.6945206613658782 0.19525497368395986
0.6078125473939122 0.5718233732055467 0.2855476885460912
0.6857030229221183 0.6953254474532158 0.27429588499685814
0.875367630386408 0.5739456415819334 0.1888756813720284
0.7758816523201544 0.6945206613658782 0.19525497368395986
0.8078125473939122 0.5718233732055467 0.2855476885460912
0.8857030229221183 0.6953254474532158 0.27429588499685814
0.07536763038640788 0.7739456415819334 0.1888756813720284
-0.02411834767984573 0.8945206613658782 0.19525497368395986
0.00781254739391215 0.7718233732055467 0.2855476885460912
0.08570302292211822 0.8953254474532157 0.27429588499685814
0.2753676303864079 0.7739456415819334 0.1888756813720284
0.1758816523201543 0.8945206613658782 0.19525497368395986
0.2078125473939122 0.7718233732055467 0.2855476885460912
0.2857030229221182 0.8953254474532157 0.27429588499685814
0.47536763038640795 0.7739456415819334 0.1888756813720284
0.3758816523201543 0.8945206613658782 0.19525497368395986
0.4078125473939122 0.7718233732055467 0.2855476885460912
0.48570302292211825 0.8953254474532157 0.27429588499685814
0.675367630386408 0.7739456415819334 0.1888756813720284
0.5758816523201543 0.8945206613658782 0.19525497368395986
0.6078125473939122 0.7718233732055467 0.2855476885460912
0.6857030229221183 0.8953254474532157 0.27429588499685814
0.875367630386408 0.7739456415819334 0.1888756813720284
0.7758816523201544 0.8945206613658782 0.19525497368395986
0.8078125473939122 0.7718233732055467 0.2855476885460912
0.8857030229221183 0.8953254474532157 0.27429588499685814
0.07536763038640788 -0.02605435841806671 0.38887568137202844
-0.02411834767984573 0.09452066136587815 0.3952549736839599
0.00781254739391215 -0.02817662679445338 0.4855476885460912
0.08570302292211822 0.09532544745321572 0.47429588499685815
0.2753676303864079 -0.02605435841806671 0.38887568137202844
0.1758816523201543 0.09452066136587815 0.3952549736839599
0.2078125473939122 -0.02817662679445338 0.4855476885460912
0.2857030229221182 0.09532544745321572 0.47429588499685815
0.47536763038640795 -0.02605435841806671 0.38887568137202844
0.3758816523201543 0.09452066136587815 0.3952549736839599
0.4078125473939122 -0.02817662679445338 0.4855476885460912
0.48570302292211825 0.09532544745321572 0.47429588499685815
0.675367630386408 -0.02605435841806671 0.38887568137202844
0.5758816523201543 0.09452066136587815 0.3952549736839599
0.6078125473939122 -0.02817662679445338 0.4855476885460912
0.6857030229221183 0.09532544745321572 0.47429588499685815
0.875367630386408 -0.02605435841806671 0.38887568137202844
0.7758816523201544 0.09452066136587815 0.3952549736839599
0.8078125473939122 -0.02817662679445338 0.4855476885460912
0.8857030229221183 0.09532544745321572 0.47429588499685815
0.07536763038640788 0.1739456415819333 0.38887568137202844
-0.02411834767984573 0.2945206613658781 0.3952549736839599
0.00781254739391215 0.17182337320554664 0.4855476885460912
0.08570302292211822 0.2953254474532157 0.47429588499685815
0.2753676303864079 0.1739456415819333 0.38887568137202844
0.1758816523201543 0.2945206613658781 0.3952549736839599
0.2078125473939122 0.17182337320554664 0.4855476885460912
0.2857030229221182 0.2953254474532157 0.47429588499685815
0.47536763038640795 0.1739456415819333 0.38887568137202844
0.3758816523201543 0.2945206613658781 0.3952549736839599
0.4078125473939122 0.17182337320554664 0.4855476885460912
0.48570302292211825 0.2953254474532157 0.47429588499685815
0.675367630386408 0.1739456415819333 0.38887568137202844
0.5758816523201543 0.2945206613658781 0.3952549736839599
0.6078125473939122 0.17182337320554664 0.4855476885460912
0.6857030229221183 0.2953254474532157 0.47429588499685815
0.875367630386408 0.1739456415819333 0.38887568137202844
0.7758816523201544 0.2945206613658781 0.3952549736839599
0.8078125473939122 0.17182337320554664 0.4855476885460912
0.8857030229221183 0.2953254474532157 0.47429588499685815
0.07536763038640788 0.37394564158193333 0.38887568137202844
-0.02411834767984573 0.49452066136587813 0.3952549736839599
0.00781254739391215 0.37182337320554665 0.4855476885460912
0.08570302292211822 0.4953254474532157 0.47429588499685815
0.2753676303864079 0.37394564158193333 0.38887568137202844
0.1758816523201543 0.49452066136587813 0.3952549736839599
0.2078125473939122 0.37182337320554665 0.4855476885460912
0.2857030229221182 0.4953254474532157 0.47429588499685815
0.47536763038640795 0.37394564158193333 0.38887568137202844
0.3758816523201543 0.49452066136587813 0.3952549736839599
0.4078125473939122 0.37182337320554665 0.4855476885460912
0.48570302292211825 0.4953254474532157 0.47429588499685815
0.675367630386408 0.37394564158193333 0.38887568137202844
0.5758816523201543 0.49452066136587813 0.3952549736839599
0.6078125473939122 0.37182337320554665 0.4855476885460912
0.6857030229221183 0.4953254474532157 0.47429588499685815
0.875367630386408 0.37394564158193333 0.38887568137202844
0.7758816523201544 0.49452066136587813 0.3952549736839599
0.8078125473939122 0.37182337320554665 0.4855476885460912
0.8857030229221183 0.4953254474532157 0.47429588499685815
0.07536763038640788 0.5739456415819334 0.38887568137202844
-0.02411834767984573 0.6945206613658782 0.3952549736839599
0.00781254739391215 0.5718233732055467 0.4855476885460912
0.08570302292211822 0.6953254474532158 0.47429588499685815
0.2753676303864079 0.5739456415819334 0.38887568137202844
0.1758816523201543 0.6945206613658782 0.3952549736839599
0.2078125473939122 0.5718233732055467 0.4855476885460912
0.2857030229221182 0.6953254474532158 0.47429588499685815
0.47536763038640795 0.5739456415819334 0.38887568137202844
0.3758816523201543 0.6945206613658782 0.3952549736839599
0.4078125473939122 0.5718233732055467 0.4855476885460912
0.48570302292211825 0.6953254474532158 0.47429588499685815
0.675367630386408 0.5739456415819334 0.38887568137202844
0.5758816523201543 0.6945206613658782 0.3952549736839599
0.6078125473939122 0.5718233732055467 0.4855476885460912
0.6857030229221183 0.6953254474532158 0.47429588499685815
0.875367630386408 0.5739456415819334 0.38887568137202844
0.7758816523201544 0.6945206613658782 0.3952549736839599
0.8078125473939122 0.5718233732055467 0.4855476885460912
0.8857030229221183 0.6953254474532158 0.47429588499685815
0.07536763038640788 0.7739456415819334 0.38887568137202844
-0.02411834767984573 0.8945206613658782 0.3952549736839599
0.00781254739391215 0.7718233732055467 0.4855476885460912
0.08570302292211822 0.8953254474532157 0.47429588499685815
0.2753676303864079 0.7739456415819334 0.38887568137202844
0.1758816523201543 0.8945206613658782 0.3952549736839599
0.2078125473939122 0.7718233732055467 0.4855476885460912
0.2857030229221182 0.8953254474532157 0.47429588499685815
0.47536763038640795 0.7739456415819334 0.38887568137202844
0.3758816523201543 0.8945206613658782 0.3952549736839599
0.4078125473939122 0.7718233732055467 0.4855476885460912
0.48570302292211825 0.8953254474532157 0.47429588499685815
0.675367630386408 0.7739456415819334 0.38887568137202844
0.5758816523201543 0.8945206613658782 0.3952549736839599
0.6078125473939122 0.7718233732055467 0.4855476885460912
0.6857030229221183 0.8953254474532157 0.47429588499685815
0.875367630386408 0.7739456415819334 0.38887568137202844
0.7758816523201544 0.8945206613658782 0.3952549736839599
0.8078125473939122 0.7718233732055467 0.4855476885460912
0.8857030229221183 0.8953254474532157 0.47429588499685815
0.07536763038640788 -0.02605435841806671 0.5888756813720284
-0.02411834767984573 0.09452066136587815 0.5952549736839599
0.00781254739391215 -0.02817662679445338 0.6855476885460913
0.08570302292211822 0.09532544745321572 0.6742958849968582
0.2753676303864079 -0.02605435841806671 0.5888756813720284
0.1758816523201543 0.09452066136587815 0.5952549736839599
0.2078125473939122 -0.02817662679445338 0.6855476885460913
0.2857030229221182 0.09532544745321572 0.6742958849968582
0.47536763038640795 -0.02605435841806671 0.5888756813720284
0.3758816523201543 0.09452066136587815 0.5952549736839599
0.4078125473939122 -0.02817662679445338 0.6855476885460913
0.48570302292211825 0.09532544745321572 0.6742958849968582
0.675367630386408 -0.02605435841806671 0.5888756813720284
0.5758816523201543 0.09452066136587815 0.5952549736839599
0.6078125473939122 -0.02817662679445338 0.6855476885460913
0.6857030229221183 0.09532544745321572 0.6742958849968582
0.875367630386408 -0.02605435841806671 0.5888756813720284
0.7758816523201544 0.09452066136587815 0.5952549736839599
0.8078125473939122 -0.02817662679445338 0.6855476885460913
0.8857030229221183 0.09532544745321572 0.6742958849968582
0.07536763038640788 0.1739456415819333 0.5888756813720284
-0.02411834767984573 0.2945206613658781 0.5952549736839599
0.00781254739391215 0.17182337320554664 0.6855476885460913
0.08570302292211822 0.2953254474532157 0.6742958849968582
0.2753676303864079 0.1739456415819333 0.5888756813720284
0.1758816523201543 0.2945206613658781 0.5952549736839599
0.2078125473939122 0.17182337320554664 0.6855476885460913
0.2857030229221182 0.2953254474532157 0.6742958849968582
0.47536763038640795 0.1739456415819333 0.5888756813720284
0.3758816523201543 0.2945206613658781 0.5952549736839599
0.4078125473939122 0.17182337320554664 0.6855476885460913
0.48570302292211825 0.2953254474532157 0.6742958849968582
0.675367630386408 0.1739456415819333 0.5888756813720284
0.5758816523201543 0.2945206613658781 0.5952549736839599
0.6078125473939122 0.17182337320554664 0.6855476885460913
0.6857030229221183 0.2953254474532157 0.6742958849968582
0.875367630386408 0.1739456415819333 0.5888756813720284
0.7758816523201544 0.2945206613658781 0.5952549736839599
0.8078125473939122 0.17182337320554664 0.6855476885460913
0.8857030229221183 0.2953254474532157 0.6742958849968582
0.07536763038640788 0.37394564158193333 0.5888756813720284
-0.02411834767984573 0.49452066136587813 0.5952549736839599
0.00781254739391215 0.37182337320554665 0.6855476885460913
0.08570302292211822 0.4953254474532157 0.6742958849968582
0.2753676303864079 0.37394564158193333 0.5888756813720284
0.1758816523201543 0.49452066136587813 0.5952549736839599
0.2078125473939122 0.37182337320554665 0.6855476885460913
0.2857030229221182 0.4953254474532157 0.6742958849968582
0.47536763038640795 0.37394564158193333 0.5888756813720284
0.3758816523201543 0.49452066136587813 0.5952549736839599
0.4078125473939122 0.37182337320554665 0.6855476885460913
0.48570302292211825 0.4953254474532157 0.6742958849968582
0.675367630386408 0.37394564158193333 0.5888756813720284
0.5758816523201543 0.49452066136587813 0.5952549736839599
0.6078125473939122 0.37182337320554665 0.6855476885460913
0.6857030229221183 0.4953254474532157 0.6742958849968582
0.875367630386408 0.37394564158193333 0.5888756813720284
0.7758816523201544 0.49452066136587813 0.5952549736839599
0.8078125473939122 0.37182337320554665 0.6855476885460913
0.8857030229221183 0.4953254474532157 0.6742958849968582
0.07536763038640788 0.5739456415819334 0.5888756813720284
-0.02411834767984573 0.6945206613658782 0.5952549736839599
0.00781254739391215 0.5718233732055467 0.6855476885460913
0.08570302292211822 0.6953254474532158 0.6742958849968582
0.2753676303864079 0.5739456415819334 0.5888756813720284
0.1758816523201543 0.6945206613658782 0.5952549736839599
0.2078125473939122 0.5718233732055467 0.6855476885460913
0.2857030229221182 0.6953254474532158 0.6742958849968582
0.47536763038640795 0.5739456415819334 0.5888756813720284
0.3758816523201543 0.6945206613658782 0.5952549736839599
0.4078125473939122 0.5718233732055467 0.6855476885460913
0.48570302292211825 0.6953254474532158 0.6742958849968582
0.675367630386408 0.5739456415819334 0.5888756813720284
0.5758816523201543 0.6945206613658782 0.5952549736839599
0.6078125473939122 0.5718233732055467 0.6855476885460913
0.6857030229221183 0.6953254474532158 0.6742958849968582
0.875367630386408 0.5739456415819334 0.5888756813720284
0.7758816523201544 0.6945206613658782 0.5952549736839599
0.8078125473939122 0.5718233732055467 0.6855476885460913
0.8857030229221183 0.6953254474532158 0.6742958849968582
0.07536763038640788 0.7739456415819334 0.5888756813720284
-0.02411834767984573 0.8945206613658782 0.5952549736839599
0.00781254739391215 0.7718233732055467 0.6855476885460913
0.08570302292211822 0.8953254474532157 0.6742958849968582
0.2753676303864079 0.7739456415819334 0.5888756813720284
0.1758816523201543 0.8945206613658782 0.5952549736839599
0.2078125473939122 0.7718233732055467 0.6855476885460913
0.2857030229221182 0.8953254474532157 0.6742958849968582
0.47536763038640795 0.7739456415819334 0.5888756813720284
0.3758816523201543 0.8945206613658782 0.5952549736839599
0.4078125473939122 0.7718233732055467 0.6855476885460913
0.48570302292211825 0.8953254474532157 0.6742958849968582
0.675367630386408 0.7739456415819334 0.5888756813720284
0.5758816523201543 0.8945206613658782 0.5952549736839599
0.6078125473939122 0.7718233732055467 0.6855476885460913
0.6857030229221183 0.8953254474532157 0.6742958849968582
0.875367630386408 0.7739456415819334 0.5888756813720284
0.7758816523201544 0.8945206613658782 0.5952549736839599
0.8078125473939122 0.7718233732055467 0.6855476885460913
0.8857030229221183 0.8953254474532157 0.6742958849968582
0.07536763038640788 -0.02605435841806671 0.7888756813720285
-0.02411834767984573 0.09452066136587815 0.7952549736839599
0.00781254739391215 -0.02817662679445338 0.8855476885460911
0.08570302292211822 0.09532544745321572 0.8742958849968581
0.2753676303864079 -0.02605435841806671 0.7888756813720285
0.1758816523201543 0.09452066136587815 0.7952549736839599
0.2078125473939122 -0.02817662679445338 0.8855476885460911
0.2857030229221182 0.09532544745321572 0.8742958849968581
0.47536763038640795 -0.02605435841806671 0.7888756813720285
0.3758816523201543 0.09452066136587815 0.7952549736839599
0.4078125473939122 -0.02817662679445338 0.8855476885460911
0.48570302292211825 0.09532544745321572 0.8742958849968581
0.675367630386408 -0.02605435841806671 0.7888756813720285
0.5758816523201543 0.09452066136587815 0.7952549736839599
0.6078125473939122 -0.02817662679445338 0.8855476885460911
0.6857030229221183 0.09532544745321572 0.8742958849968581
0.875367630386408 -0.02605435841806671 0.7888756813720285
0.7758816523201544 0.09452066136587815 0.7952549736839599
0.8078125473939122 -0.02817662679445338 0.8855476885460911
0.8857030229221183 0.09532544745321572 0.8742958849968581
0.07536763038640788 0.1739456415819333 0.7888756813720285
-0.02411834767984573 0.2945206613658781 0.7952549736839599
0.00781254739391215 0.17182337320554664 0.8855476885460911
0.08570302292211822 0.2953254474532157 0.8742958849968581
0.2753676303864079 0.1739456415819333 0.7888756813720285
0.1758816523201543 0.2945206613658781 0.7952549736839599
0.2078125473939122 0.17182337320554664 0.8855476885460911
0.2857030229221182 0.2953254474532157 0.8742958849968581
0.47536763038640795 0.1739456415819333 0.7888756813720285
0.3758816523201543 0.2945206613658781 0.7952549736839599
0.4078125473939122 0.17182337320554664 0.8855476885460911
0.48570302292211825 0.2953254474532157 0.8742958849968581
0.675367630386408 0.1739456415819333 0.7888756813720285
0.5758816523201543 0.2945206613658781 0.7952549736839599
0.6078125473939122 0.17182337320554664 0.8855476885460911
0.6857030229221183 0.2953254474532157 0.8742958849968581
0.875367630386408 0.1739456415819333 0.7888756813720285
0.7758816523201544 0.2945206613658781 0.7952549736839599
0.8078125473939122 0.17182337320554664 0.8855476885460911
0.8857030229221183 0.2953254474532157 0.8742958849968581
0.07536763038640788 0.37394564158193333 0.7888756813720285
-0.02411834767984573 0.49452066136587813 0.7952549736839599
0.00781254739391215 0.37182337320554665 0.8855476885460911
0.08570302292211822 0.4953254474532157 0.8742958849968581
0.2753676303864079 0.37394564158193333 0.7888756813720285
0.1758816523201543 0.49452066136587813 0.7952549736839599
0.2078125473939122 0.37182337320554665 0.8855476885460911
0.2857030229221182 0.4953254474532157 0.8742958849968581
0.47536763038640795 0.37394564158193333 0.7888756813720285
0.3758816523201543 0.49452066136587813 0.7952549736839599
0.4078125473939122 0.37182337320554665 0.8855476885460911
0.48570302292211825 0.4953254474532157 0.8742958849968581
0.675367630386408 0.37394564158193333 0.7888756813720285
0.5758816523201543 0.49452066136587813 0.7952549736839599
0.6078125473939122 0.37182337320554665 0.8855476885460911
0.6857030229221183 0.4953254474532157 0.8742958849968581
0.875367630386408 0.37394564158193333 0.7888756813720285
0.7758816523201544 0.49452066136587813 0.7952549736839599
0.8078125473939122 0.37182337320554665 0.8855476885460911
0.8857030229221183 0.4953254474532157 0.8742958849968581
0.07536763038640788 0.5739456415819334 0.7888756813720285
-0.02411834767984573 0.6945206613658782 0.7952549736839599
0.00781254739391215 0.5718233732055467 0.8855476885460911
0.08570302292211822 0.6953254474532158 0.8742958849968581
0.2753676303864079 0.5739456415819334 0.7888756813720285
0.1758816523201543 0.6945206613658782 0.7952549736839599
0.2078125473939122 0.5718233732055467 0.8855476885460911
0.2857030229221182 0.6953254474532158 0.8742958849968581
0.47536763038640795 0.5739456415819334 0.7888756813720285
0.3758816523201543 0.6945206613658782 0.7952549736839599
0.4078125473939122 0.5718233732055467 0.8855476885460911
0.48570302292211825 0.6953254474532158 0.8742958849968581
0.675367630386408 0.5739456415819334 0.7888756813720285
0.5758816523201543 0.6945206613658782 0.7952549736839599
0.6078125473939122 0.5718233732055467 0.8855476885460911
0.6857030229221183 0.6953254474532158 0.8742958849968581
0.875367630386408 0.5739456415819334 0.7888756813720285
0.7758816523201544 0.6945206613658782 0.7952549736839599
0.8078125473939122 0.5718233732055467 0.8855476885460911
0.8857030229221183 0.6953254474532158 0.8742958849968581
0.07536763038640788 0.7739456415819334 0.7888756813720285
-0.02411834767984573 0.8945206613658782 0.7952549736839599
0.00781254739391215 0.7718233732055467 0.8855476885460911
0.08570302292211822 0.8953254474532157 0.8742958849968581
0.2753676303864079 0.7739456415819334 0.7888756813720285
0.1758816523201543 0.8945206613658782 0.7952549736839599
0.2078125473939122 0.7718233732055467 0.8855476885460911
0.2857030229221182 0.8953254474532157 0.8742958849968581
0.47536763038640795 0.7739456415819334 0.7888756813720285
0.3758816523201543 0.8945206613658782 0.7952549736839599
0.4078125473939122 0.7718233732055467 0.8855476885460911
0.48570302292211825 0.8953254474532157 0.8742958849968581
0.675367630386408 0.7739456415819334 0.7888756813720285
0.5758816523201543 0.8945206613658782 0.7952549736839599
0.6078125473939122 0.7718233732055467 0.8855476885460911
0.6857030229221183 0.8953254474532157 0.8742958849968581
0.875367630386408 0.7739456415819334 0.7888756813720285
0.7758816523201544 0.8945206613658782 0.7952549736839599
0.8078125473939122 0.7718233732055467 0.8855476885460911
0.8857030229221183 0.8953254474532157 0.8742958849968581
