FCC BaO
5.61604
3.0 0.0 0.0
0.0 3.0 0.0
0.0 0.0 3.0
Ba O 
108 108 
Direct
-0.14700678138267337 0.07074145242756069 -0.041527156025764234
0.03529045381011327 0.053001201662457954 0.14231068749826004
0.23506528016520525 0.21530774243106188 0.11786904120813209
0.03157784658024315 -0.05737020848052289 0.13735232433645955
0.18632655195065995 0.07074145242756069 -0.041527156025764234
0.3686237871434466 0.053001201662457954 0.14231068749826004
0.5683986134985386 0.21530774243106188 0.11786904120813209
0.36491117991357647 -0.05737020848052289 0.13735232433645955
0.5196598852839932 0.07074145242756069 -0.041527156025764234
0.7019571204767799 0.053001201662457954 0.14231068749826004
0.901731946831872 0.21530774243106188 0.11786904120813209
0.6982445132469098 -0.05737020848052289 0.13735232433645955
-0.14700678138267337 0.404074785760894 -0.041527156025764234
0.03529045381011327 0.38633453499579123 0.14231068749826004
0.23506528016520525 0.5486410757643951 0.11786904120813209
0.03157784658024315 0.2759631248528104 0.13735232433645955
0.18632655195065995 0.404074785760894 -0.041527156025764234
0.3686237871434466 0.38633453499579123 0.14231068749826004
0.5683986134985386 0.5486410757643951 0.11786904120813209
0.36491117991357647 0.2759631248528104 0.13735232433645955
0.5196598852839932 0.404074785760894 -0.041527156025764234
0.7019571204767799 0.38633453499579123 0.14231068749826004
0.901731946831872 0.5486410757643951 0.11786904120813209
0.6982445132469098 0.2759631248528104 0.13735232433645955
-0.14700678138267337 0.7374081190942273 -0.041527156025764234
0.03529045381011327 0.7196678683291245 0.14231068749826004
0.23506528016520525 0.8819744090977286 0.11786904120813209
0.03157784658024315 0.6092964581861438 0.13735232433645955
0.18632655195065995 0.7374081190942273 -0.041527156025764234
0.3686237871434466 0.7196678683291245 0.14231068749826004
0.5683986134985386 0.8819744090977286 0.11786904120813209
0.36491117991357647 0.6092964581861438 0.13735232433645955
0.5196598852839932 0.7374081190942273 -0.041527156025764234
0.7019571204767799 0.7196678683291245 0.14231068749826004
0.901731946831872 0.8819744090977286 0.11786904120813209
0.6982445132469098 0.6092964581861438 0.13735232433645955
-0.14700678138267337 0.07074145242756069 0.2918061773075691
0.03529045381011327 0.053001201662457954 0.47564402083159335
0.23506528016520525 0.21530774243106188 0.4512023745414654
0.03157784658024315 -0.05737020848052289 0.47068565766979287
0.18632655195065995 0.07074145242756069 0.2918061773075691
0.3686237871434466 0.053001201662457954 0.47564402083159335
0.5683986134985386 0.21530774243106188 0.4512023745414654
0.36491117991357647 -0.05737020848052289 0.47068565766979287
0.5196598852839932 0.07074145242756069 0.2918061773075691
0.7019571204767799 0.053001201662457954 0.47564402083159335
0.901731946831872 0.21530774243106188 0.4512023745414654
0.6982445132469098 -0.05737020848052289 0.47068565766979287
-0.14700678138267337 0.404074785760894 0.2918061773075691
0.03529045381011327 0.38633453499579123 0.47564402083159335
0.23506528016520525 0.5486410757643951 0.4512023745414654
0.03157784658024315 0.2759631248528104 0.47068565766979287
0.18632655195065995 0.404074785760894 0.2918061773075691
0.3686237871434466 0.38633453499579123 0.47564402083159335
0.5683986134985386 0.5486410757643951 0.4512023745414654
0.36491117991357647 0.2759631248528104 0.47068565766979287
0.5196598852839932 0.404074785760894 0.2918061773075691
0.7019571204767799 0.38633453499579123 0.47564402083159335
0.901731946831872 0.5486410757643951 0.4512023745414654
0.6982445132469098 0.2759631248528104 0.47068565766979287
-0.14700678138267337 0.7374081190942273 0.2918061773075691
0.03529045381011327 0.7196678683291245 0.47564402083159335
0.23506528016520525 0.8819744090977286 0.4512023745414654
0.03157784658024315 0.6092964581861438 0.47068565766979287
0.18632655195065995 0.7374081190942273 0.2918061773075691
0.3686237871434466 0.7196678683291245 0.47564402083159335
0.5683986134985386 0.8819744090977286 0.4512023745414654
0.36491117991357647 0.6092964581861438 0.47068565766979287
0.5196598852839932 0.7374081190942273 0.2918061773075691
0.7019571204767799 0.7196678683291245 0.47564402083159335
0.901731946831872 0.8819744090977286 0.4512023745414654
0.6982445132469098 0.6092964581861438 0.47068565766979287
-0.14700678138267337 0.07074145242756069 0.6251395106409023
0.03529045381011327 0.053001201662457954 0.8089773541649266
0.23506528016520525 0.21530774243106188 0.7845357078747988
0.03157784658024315 -0.05737020848052289 0.8040189910031261
0.18632655195065995 0.07074145242756069 0.6251395106409023
0.3686237871434466 0.053001201662457954 0.8089773541649266
0.5683986134985386 0.21530774243106188 0.7845357078747988
0.36491117991357647 -0.05737020848052289 0.8040189910031261
0.5196598852839932 0.07074145242756069 0.6251395106409023
0.7019571204767799 0.053001201662457954 0.8089773541649266
0.901731946831872 0.21530774243106188 0.7845357078747988
0.6982445132469098 -0.05737020848052289 0.8040189910031261
-0.14700678138267337 0.404074785760894 0.6251395106409023
0.03529045381011327 0.38633453499579123 0.8089773541649266
0.23506528016520525 0.5486410757643951 0.7845357078747988
0.03157784658024315 0.2759631248528104 0.8040189910031261
0.18632655195065995 0.404074785760894 0.6251395106409023
0.3686237871434466 0.38633453499579123 0.8089773541649266
0.5683986134985386 0.5486410757643951 0.7845357078747988
0.36491117991357647 0.2759631248528104 0.8040189910031261
0.5196598852839932 0.404074785760894 0.6251395106409023
0.7019571204767799 0.38633453499579123 0.8089773541649266
0.901731946831872 0.5486410757643951 0.7845357078747988
0.6982445132469098 0.2759631248528104 0.8040189910031261
-0.14700678138267337 0.7374081190942273 0.6251395106409023
0.03529045381011327 0.7196678683291245 0.8089773541649266
0.23506528016520525 0.8819744090977286 0.7845357078747988
0.03157784658024315 0.6092964581861438 0.8040189910031261
0.18632655195065995 0.7374081190942273 0.6251395106409023
0.3686237871434466 0.7196678683291245 0.8089773541649266
0.5683986134985386 0.8819744090977286 0.7845357078747988
0.36491117991357647 0.6092964581861438 0.8040189910031261
0.5196598852839932 0.7374081190942273 0.6251395106409023
0.7019571204767799 0.7196678683291245 0.8089773541649266
0.901731946831872 0.8819744090977286 0.7845357078747988
0.6982445132469098 0.6092964581861438 0.8040189910031261
0.3500863504783743 -0.08632129407961084 -0.018529230788891394
-0.017396871353541517 0.037487349525199616 -0.058550293147428475
0.12677461418389807 -0.18246204627048662 0.17571175770843306
0.15485223704793055 0.3095552549109555 0.11498771953773618
0.6834196838117076 -0.08632129407961084 -0.018529230788891394
0.3159364619797918 0.037487349525199616 -0.058550293147428475
0.46010794751723144 -0.18246204627048662 0.17571175770843306
0.4881855703812639 0.3095552549109555 0.11498771953773618
1.016753017145041 -0.08632129407961084 -0.018529230788891394
0.6492697953131251 0.037487349525199616 -0.058550293147428475
0.7934412808505648 -0.18246204627048662 0.17571175770843306
0.8215189037145972 0.3095552549109555 0.11498771953773618
0.3500863504783743 0.2470120392537225 -0.018529230788891394
-0.017396871353541517 0.370820682858533 -0.058550293147428475
0.12677461418389807 0.1508712870628467 0.17571175770843306
0.15485223704793055 0.6428885882442887 0.11498771953773618
0.6834196838117076 0.2470120392537225 -0.018529230788891394
0.3159364619797918 0.370820682858533 -0.058550293147428475
0.46010794751723144 0.1508712870628467 0.17571175770843306
0.4881855703812639 0.6428885882442887 0.11498771953773618
1.016753017145041 0.2470120392537225 -0.018529230788891394
0.6492697953131251 0.370820682858533 -0.058550293147428475
0.7934412808505648 0.1508712870628467 0.17571175770843306
0.8215189037145972 0.6428885882442887 0.11498771953773618
0.3500863504783743 0.5803453725870558 -0.018529230788891394
-0.017396871353541517 0.7041540161918662 -0.058550293147428475
0.12677461418389807 0.48420462039617995 0.17571175770843306
0.15485223704793055 0.9762219215776221 0.11498771953773618
0.6834196838117076 0.5803453725870558 -0.018529230788891394
0.3159364619797918 0.7041540161918662 -0.058550293147428475
0.46010794751723144 0.48420462039617995 0.17571175770843306
0.4881855703812639 0.9762219215776221 0.11498771953773618
1.016753017145041 0.5803453725870558 -0.018529230788891394
0.6492697953131251 0.7041540161918662 -0.058550293147428475
0.7934412808505648 0.48420462039617995 0.17571175770843306
0.8215189037145972 0.9762219215776221 0.11498771953773618
0.3500863504783743 -0.08632129407961084 0.3148041025444419
-0.017396871353541517 0.037487349525199616 0.2747830401859048
0.12677461418389807 -0.18246204627048662 0.5090450910417663
0.15485223704793055 0.3095552549109555 0.4483210528710695
0.6834196838117076 -0.08632129407961084 0.3148041025444419
0.3159364619797918 0.037487349525199616 0.2747830401859048
0.46010794751723144 -0.18246204627048662 0.5090450910417663
0.4881855703812639 0.3095552549109555 0.4483210528710695
1.016753017145041 -0.08632129407961084 0.3148041025444419
0.6492697953131251 0.037487349525199616 0.2747830401859048
0.7934412808505648 -0.18246204627048662 0.5090450910417663
0.8215189037145972 0.3095552549109555 0.4483210528710695
0.3500863504783743 0.2470120392537225 0.3148041025444419
-0.017396871353541517 0.370820682858533 0.2747830401859048
0.12677461418389807 0.1508712870628467 0.5090450910417663
0.15485223704793055 0.6428885882442887 0.4483210528710695
0.6834196838117076 0.2470120392537225 0.3148041025444419
0.3159364619797918 0.370820682858533 0.2747830401859048
0.46010794751723144 0.1508712870628467 0.5090450910417663
0.4881855703812639 0.6428885882442887 0.4483210528710695
1.016753017145041 0.2470120392537225 0.3148041025444419
0.6492697953131251 0.370820682858533 0.2747830401859048
0.7934412808505648 0.1508712870628467 0.5090450910417663
0.8215189037145972 0.6428885882442887 0.4483210528710695
0.3500863504783743 0.5803453725870558 0.3148041025444419
-0.017396871353541517 0.7041540161918662 0.2747830401859048
0.12677461418389807 0.48420462039617995 0.5090450910417663
0.15485223704793055 0.9762219215776221 0.4483210528710695
0.6834196838117076 0.5803453725870558 0.3148041025444419
0.3159364619797918 0.7041540161918662 0.2747830401859048
0.46010794751723144 0.48420462039617995 0.5090450910417663
0.4881855703812639 0.9762219215776221 0.4483210528710695
1.016753017145041 0.5803453725870558 0.3148041025444419
0.6492697953131251 0.7041540161918662 0.2747830401859048
0.7934412808505648 0.48420462039617995 0.5090450910417663
0.8215189037145972 0.9762219215776221 0.4483210528710695
0.3500863504783743 -0.08632129407961084 0.6481374358777752
-0.017396871353541517 0.037487349525199616 0.6081163735192381
0.12677461418389807 -0.18246204627048662 0.8423784243750997
0.15485223704793055 0.3095552549109555 0.7816543862044029
0.6834196838117076 -0.08632129407961084 0.6481374358777752
0.3159364619797918 0.037487349525199616 0.6081163735192381
0.46010794751723144 -0.18246204627048662 0.8423784243750997
0.4881855703812639 0.3095552549109555 0.7816543862044029
1.016753017145041 -0.08632129407961084 0.6481374358777752
0.6492697953131251 0.037487349525199616 0.6081163735192381
0.7934412808505648 -0.18246204627048662 0.8423784243750997
0.8215189037145972 0.3095552549109555 0.7816543862044029
0.3500863504783743 0.2470120392537225 0.6481374358777752
-0.017396871353541517 0.370820682858533 0.6081163735192381
0.12677461418389807 0.1508712870628467 0.8423784243750997
0.15485223704793055 0.6428885882442887 0.7816543862044029
0.6834196838117076 0.2470120392537225 0.6481374358777752
0.3159364619797918 0.370820682858533 0.6081163735192381
0.46010794751723144 0.1508712870628467 0.8423784243750997
0.4881855703812639 0.6428885882442887 0.7816543862044029
1.016753017145041 0.2470120392537225 0.6481374358777752
0.6492697953131251 0.370820682858533 0.6081163735192381
0.7934412808505648 0.1508712870628467 0.8423784243750997
0.8215189037145972 0.6428885882442887 0.7816543862044029
0.3500863504783743 0.5803453725870558 0.6481374358777752
-0.017396871353541517 0.7041540161918662 0.6081163735192381
0.12677461418389807 0.48420462039617995 0.8423784243750997
0.15485223704793055 0.9762219215776221 0.7816543862044029
0.6834196838117076 0.5803453725870558 0.6481374358777752
0.3159364619797918 0.7041540161918662 0.6081163735192381
0.46010794751723144 0.48420462039617995 0.8423784243750997
0.4881855703812639 0.9762219215776221 0.7816543862044029
1.016753017145041 0.5803453725870558 0.6481374358777752
0.6492697953131251 0.7041540161918662 0.6081163735192381
0.7934412808505648 0.48420462039617995 0.8423784243750997
0.8215189037145972 0.9762219215776221 0.7816543862044029
