FCC BaO
3.971
5.0 0.0 0.0
0.0 5.0 0.0
0.0 0.0 5.0
Ba O 
500 500 
Direct
-0.02107061775276106 0.007614206201574682 0.009346939941845376
-0.022921805872786118 0.08537101990160789 0.10081419505946856
0.12361135250857574 0.008839412086651332 0.08536239551737967
0.07419512531091889 0.10214356170051936 -0.017437076125586447
0.17892938224723895 0.007614206201574682 0.009346939941845376
0.1770781941272139 0.08537101990160789 0.10081419505946856
0.32361135250857576 0.008839412086651332 0.08536239551737967
0.2741951253109189 0.10214356170051936 -0.017437076125586447
0.378929382247239 0.007614206201574682 0.009346939941845376
0.3770781941272139 0.08537101990160789 0.10081419505946856
0.5236113525085758 0.008839412086651332 0.08536239551737967
0.4741951253109189 0.10214356170051936 -0.017437076125586447
0.578929382247239 0.007614206201574682 0.009346939941845376
0.577078194127214 0.08537101990160789 0.10081419505946856
0.7236113525085758 0.008839412086651332 0.08536239551737967
0.674195125310919 0.10214356170051936 -0.017437076125586447
0.778929382247239 0.007614206201574682 0.009346939941845376
0.7770781941272139 0.08537101990160789 0.10081419505946856
0.9236113525085758 0.008839412086651332 0.08536239551737967
0.8741951253109189 0.10214356170051936 -0.017437076125586447
-0.02107061775276106 0.20761420620157467 0.009346939941845376
-0.022921805872786118 0.2853710199016079 0.10081419505946856
0.12361135250857574 0.20883941208665135 0.08536239551737967
0.07419512531091889 0.30214356170051937 -0.017437076125586447
0.17892938224723895 0.20761420620157467 0.009346939941845376
0.1770781941272139 0.2853710199016079 0.10081419505946856
0.32361135250857576 0.20883941208665135 0.08536239551737967
0.2741951253109189 0.30214356170051937 -0.017437076125586447
0.378929382247239 0.20761420620157467 0.009346939941845376
0.3770781941272139 0.2853710199016079 0.10081419505946856
0.5236113525085758 0.20883941208665135 0.08536239551737967
0.4741951253109189 0.30214356170051937 -0.017437076125586447
0.578929382247239 0.20761420620157467 0.009346939941845376
0.577078194127214 0.2853710199016079 0.10081419505946856
0.7236113525085758 0.20883941208665135 0.08536239551737967
0.674195125310919 0.30214356170051937 -0.017437076125586447
0.778929382247239 0.20761420620157467 0.009346939941845376
0.7770781941272139 0.2853710199016079 0.10081419505946856
0.9236113525085758 0.20883941208665135 0.08536239551737967
0.8741951253109189 0.30214356170051937 -0.017437076125586447
-0.02107061775276106 0.40761420620157474 0.009346939941845376
-0.022921805872786118 0.4853710199016079 0.10081419505946856
0.12361135250857574 0.40883941208665137 0.08536239551737967
0.07419512531091889 0.5021435617005194 -0.017437076125586447
0.17892938224723895 0.40761420620157474 0.009346939941845376
0.1770781941272139 0.4853710199016079 0.10081419505946856
0.32361135250857576 0.40883941208665137 0.08536239551737967
0.2741951253109189 0.5021435617005194 -0.017437076125586447
0.378929382247239 0.40761420620157474 0.009346939941845376
0.3770781941272139 0.4853710199016079 0.10081419505946856
0.5236113525085758 0.40883941208665137 0.08536239551737967
0.4741951253109189 0.5021435617005194 -0.017437076125586447
0.578929382247239 0.40761420620157474 0.009346939941845376
0.577078194127214 0.4853710199016079 0.10081419505946856
0.7236113525085758 0.40883941208665137 0.08536239551737967
0.674195125310919 0.5021435617005194 -0.017437076125586447
0.778929382247239 0.40761420620157474 0.009346939941845376
0.7770781941272139 0.4853710199016079 0.10081419505946856
0.9236113525085758 0.40883941208665137 0.08536239551737967
0.8741951253109189 0.5021435617005194 -0.017437076125586447
-0.02107061775276106 0.6076142062015748 0.009346939941845376
-0.022921805872786118 0.6853710199016079 0.10081419505946856
0.12361135250857574 0.6088394120866514 0.08536239551737967
0.07419512531091889 0.7021435617005194 -0.017437076125586447
0.17892938224723895 0.6076142062015748 0.009346939941845376
0.1770781941272139 0.6853710199016079 0.10081419505946856
0.32361135250857576 0.6088394120866514 0.08536239551737967
0.2741951253109189 0.7021435617005194 -0.017437076125586447
0.378929382247239 0.6076142062015748 0.009346939941845376
0.3770781941272139 0.6853710199016079 0.10081419505946856
0.5236113525085758 0.6088394120866514 0.08536239551737967
0.4741951253109189 0.7021435617005194 -0.017437076125586447
0.578929382247239 0.6076142062015748 0.009346939941845376
0.577078194127214 0.6853710199016079 0.10081419505946856
0.7236113525085758 0.6088394120866514 0.08536239551737967
0.674195125310919 0.7021435617005194 -0.017437076125586447
0.778929382247239 0.6076142062015748 0.009346939941845376
0.7770781941272139 0.6853710199016079 0.10081419505946856
0.9236113525085758 0.6088394120866514 0.08536239551737967
0.8741951253109189 0.7021435617005194 -0.017437076125586447
-0.02107061775276106 0.8076142062015746 0.009346939941845376
-0.022921805872786118 0.885371019901608 0.10081419505946856
0.12361135250857574 0.8088394120866513 0.08536239551737967
0.07419512531091889 0.9021435617005195 -0.017437076125586447
0.17892938224723895 0.8076142062015746 0.009346939941845376
0.1770781941272139 0.885371019901608 0.10081419505946856
0.32361135250857576 0.8088394120866513 0.08536239551737967
0.2741951253109189 0.9021435617005195 -0.017437076125586447
0.378929382247239 0.8076142062015746 0.009346939941845376
0.3770781941272139 0.885371019901608 0.10081419505946856
0.5236113525085758 0.8088394120866513 0.08536239551737967
0.4741951253109189 0.9021435617005195 -0.017437076125586447
0.578929382247239 0.8076142062015746 0.009346939941845376
0.577078194127214 0.885371019901608 0.10081419505946856
0.7236113525085758 0.8088394120866513 0.08536239551737967
0.674195125310919 0.9021435617005195 -0.017437076125586447
0.778929382247239 0.8076142062015746 0.009346939941845376
0.7770781941272139 0.885371019901608 0.10081419505946856
0.9236113525085758 0.8088394120866513 0.08536239551737967
0.8741951253109189 0.9021435617005195 -0.017437076125586447
-0.02107061775276106 0.007614206201574682 0.2093469399418454
-0.022921805872786118 0.08537101990160789 0.3008141950594686
0.12361135250857574 0.008839412086651332 0.2853623955173797
0.07419512531091889 0.10214356170051936 0.18256292387441356
0.17892938224723895 0.007614206201574682 0.2093469399418454
0.1770781941272139 0.08537101990160789 0.3008141950594686
0.32361135250857576 0.008839412086651332 0.2853623955173797
0.2741951253109189 0.10214356170051936 0.18256292387441356
0.378929382247239 0.007614206201574682 0.2093469399418454
0.3770781941272139 0.08537101990160789 0.3008141950594686
0.5236113525085758 0.008839412086651332 0.2853623955173797
0.4741951253109189 0.10214356170051936 0.18256292387441356
0.578929382247239 0.007614206201574682 0.2093469399418454
0.577078194127214 0.08537101990160789 0.3008141950594686
0.7236113525085758 0.008839412086651332 0.2853623955173797
0.674195125310919 0.10214356170051936 0.18256292387441356
0.778929382247239 0.007614206201574682 0.2093469399418454
0.7770781941272139 0.08537101990160789 0.3008141950594686
0.9236113525085758 0.008839412086651332 0.2853623955173797
0.8741951253109189 0.10214356170051936 0.18256292387441356
-0.02107061775276106 0.20761420620157467 0.2093469399418454
-0.022921805872786118 0.2853710199016079 0.3008141950594686
0.12361135250857574 0.20883941208665135 0.2853623955173797
0.07419512531091889 0.30214356170051937 0.18256292387441356
0.17892938224723895 0.20761420620157467 0.2093469399418454
0.1770781941272139 0.2853710199016079 0.3008141950594686
0.32361135250857576 0.20883941208665135 0.2853623955173797
0.2741951253109189 0.30214356170051937 0.18256292387441356
0.378929382247239 0.20761420620157467 0.2093469399418454
0.3770781941272139 0.2853710199016079 0.3008141950594686
0.5236113525085758 0.20883941208665135 0.2853623955173797
0.4741951253109189 0.30214356170051937 0.18256292387441356
0.578929382247239 0.20761420620157467 0.2093469399418454
0.577078194127214 0.2853710199016079 0.3008141950594686
0.7236113525085758 0.20883941208665135 0.2853623955173797
0.674195125310919 0.30214356170051937 0.18256292387441356
0.778929382247239 0.20761420620157467 0.2093469399418454
0.7770781941272139 0.2853710199016079 0.3008141950594686
0.9236113525085758 0.20883941208665135 0.2853623955173797
0.8741951253109189 0.30214356170051937 0.18256292387441356
-0.02107061775276106 0.40761420620157474 0.2093469399418454
-0.022921805872786118 0.4853710199016079 0.3008141950594686
0.12361135250857574 0.40883941208665137 0.2853623955173797
0.07419512531091889 0.5021435617005194 0.18256292387441356
0.17892938224723895 0.40761420620157474 0.2093469399418454
0.1770781941272139 0.4853710199016079 0.3008141950594686
0.32361135250857576 0.40883941208665137 0.2853623955173797
0.2741951253109189 0.5021435617005194 0.18256292387441356
0.378929382247239 0.40761420620157474 0.2093469399418454
0.3770781941272139 0.4853710199016079 0.3008141950594686
0.5236113525085758 0.40883941208665137 0.2853623955173797
0.4741951253109189 0.5021435617005194 0.18256292387441356
0.578929382247239 0.40761420620157474 0.2093469399418454
0.577078194127214 0.4853710199016079 0.3008141950594686
0.7236113525085758 0.40883941208665137 0.2853623955173797
0.674195125310919 0.5021435617005194 0.18256292387441356
0.778929382247239 0.40761420620157474 0.2093469399418454
0.7770781941272139 0.4853710199016079 0.3008141950594686
0.9236113525085758 0.40883941208665137 0.2853623955173797
0.8741951253109189 0.5021435617005194 0.18256292387441356
-0.02107061775276106 0.6076142062015748 0.2093469399418454
-0.022921805872786118 0.6853710199016079 0.3008141950594686
0.12361135250857574 0.6088394120866514 0.2853623955173797
0.07419512531091889 0.7021435617005194 0.18256292387441356
0.17892938224723895 0.6076142062015748 0.2093469399418454
0.1770781941272139 0.6853710199016079 0.3008141950594686
0.32361135250857576 0.6088394120866514 0.2853623955173797
0.2741951253109189 0.7021435617005194 0.18256292387441356
0.378929382247239 0.6076142062015748 0.2093469399418454
0.3770781941272139 0.6853710199016079 0.3008141950594686
0.5236113525085758 0.6088394120866514 0.2853623955173797
0.4741951253109189 0.7021435617005194 0.18256292387441356
0.578929382247239 0.6076142062015748 0.2093469399418454
0.577078194127214 0.6853710199016079 0.3008141950594686
0.7236113525085758 0.6088394120866514 0.2853623955173797
0.674195125310919 0.7021435617005194 0.18256292387441356
0.778929382247239 0.6076142062015748 0.2093469399418454
0.7770781941272139 0.6853710199016079 0.3008141950594686
0.9236113525085758 0.6088394120866514 0.2853623955173797
0.8741951253109189 0.7021435617005194 0.18256292387441356
-0.02107061775276106 0.8076142062015746 0.2093469399418454
-0.022921805872786118 0.885371019901608 0.3008141950594686
0.12361135250857574 0.8088394120866513 0.2853623955173797
0.07419512531091889 0.9021435617005195 0.18256292387441356
0.17892938224723895 0.8076142062015746 0.2093469399418454
0.1770781941272139 0.885371019901608 0.3008141950594686
0.32361135250857576 0.8088394120866513 0.2853623955173797
0.2741951253109189 0.9021435617005195 0.18256292387441356
0.378929382247239 0.8076142062015746 0.2093469399418454
0.3770781941272139 0.885371019901608 0.3008141950594686
0.5236113525085758 0.8088394120866513 0.2853623955173797
0.4741951253109189 0.9021435617005195 0.18256292387441356
0.578929382247239 0.8076142062015746 0.2093469399418454
0.577078194127214 0.885371019901608 0.3008141950594686
0.7236113525085758 0.8088394120866513 0.2853623955173797
0.674195125310919 0.9021435617005195 0.18256292387441356
0.778929382247239 0.8076142062015746 0.2093469399418454
0.7770781941272139 0.885371019901608 0.3008141950594686
0.9236113525085758 0.8088394120866513 0.2853623955173797
0.8741951253109189 0.9021435617005195 0.18256292387441356
-0.02107061775276106 0.007614206201574682 0.4093469399418454
-0.022921805872786118 0.08537101990160789 0.5008141950594686
0.12361135250857574 0.008839412086651332 0.4853623955173797
0.07419512531091889 0.10214356170051936 0.3825629238744136
0.17892938224723895 0.007614206201574682 0.4093469399418454
0.1770781941272139 0.08537101990160789 0.5008141950594686
0.32361135250857576 0.008839412086651332 0.4853623955173797
0.2741951253109189 0.10214356170051936 0.3825629238744136
0.378929382247239 0.007614206201574682 0.4093469399418454
0.3770781941272139 0.08537101990160789 0.5008141950594686
0.5236113525085758 0.008839412086651332 0.4853623955173797
0.4741951253109189 0.10214356170051936 0.3825629238744136
0.578929382247239 0.007614206201574682 0.4093469399418454
0.577078194127214 0.08537101990160789 0.5008141950594686
0.7236113525085758 0.008839412086651332 0.4853623955173797
0.674195125310919 0.10214356170051936 0.3825629238744136
0.778929382247239 0.007614206201574682 0.4093469399418454
0.7770781941272139 0.08537101990160789 0.5008141950594686
0.9236113525085758 0.008839412086651332 0.4853623955173797
0.8741951253109189 0.10214356170051936 0.3825629238744136
-0.02107061775276106 0.20761420620157467 0.4093469399418454
-0.022921805872786118 0.2853710199016079 0.5008141950594686
0.12361135250857574 0.20883941208665135 0.4853623955173797
0.07419512531091889 0.30214356170051937 0.3825629238744136
0.17892938224723895 0.20761420620157467 0.4093469399418454
0.1770781941272139 0.2853710199016079 0.5008141950594686
0.32361135250857576 0.20883941208665135 0.4853623955173797
0.2741951253109189 0.30214356170051937 0.3825629238744136
0.378929382247239 0.20761420620157467 0.4093469399418454
0.3770781941272139 0.2853710199016079 0.5008141950594686
0.5236113525085758 0.20883941208665135 0.4853623955173797
0.4741951253109189 0.30214356170051937 0.3825629238744136
0.578929382247239 0.20761420620157467 0.4093469399418454
0.577078194127214 0.2853710199016079 0.5008141950594686
0.7236113525085758 0.20883941208665135 0.4853623955173797
0.674195125310919 0.30214356170051937 0.3825629238744136
0.778929382247239 0.20761420620157467 0.4093469399418454
0.7770781941272139 0.2853710199016079 0.5008141950594686
0.9236113525085758 0.20883941208665135 0.4853623955173797
0.8741951253109189 0.30214356170051937 0.3825629238744136
-0.02107061775276106 0.40761420620157474 0.4093469399418454
-0.022921805872786118 0.4853710199016079 0.5008141950594686
0.12361135250857574 0.40883941208665137 0.4853623955173797
0.07419512531091889 0.5021435617005194 0.3825629238744136
0.17892938224723895 0.40761420620157474 0.4093469399418454
0.1770781941272139 0.4853710199016079 0.5008141950594686
0.32361135250857576 0.40883941208665137 0.4853623955173797
0.2741951253109189 0.5021435617005194 0.3825629238744136
0.378929382247239 0.40761420620157474 0.4093469399418454
0.3770781941272139 0.4853710199016079 0.5008141950594686
0.5236113525085758 0.40883941208665137 0.4853623955173797
0.4741951253109189 0.5021435617005194 0.3825629238744136
0.578929382247239 0.40761420620157474 0.4093469399418454
0.577078194127214 0.4853710199016079 0.5008141950594686
0.7236113525085758 0.40883941208665137 0.4853623955173797
0.674195125310919 0.5021435617005194 0.3825629238744136
0.778929382247239 0.40761420620157474 0.4093469399418454
0.7770781941272139 0.4853710199016079 0.5008141950594686
0.9236113525085758 0.40883941208665137 0.4853623955173797
0.8741951253109189 0.5021435617005194 0.3825629238744136
-0.02107061775276106 0.6076142062015748 0.4093469399418454
-0.022921805872786118 0.6853710199016079 0.5008141950594686
0.12361135250857574 0.6088394120866514 0.4853623955173797
0.07419512531091889 0.7021435617005194 0.3825629238744136
0.17892938224723895 0.6076142062015748 0.4093469399418454
0.1770781941272139 0.6853710199016079 0.5008141950594686
0.32361135250857576 0.6088394120866514 0.4853623955173797
0.2741951253109189 0.7021435617005194 0.3825629238744136
0.378929382247239 0.6076142062015748 0.4093469399418454
0.3770781941272139 0.6853710199016079 0.5008141950594686
0.5236113525085758 0.6088394120866514 0.4853623955173797
0.4741951253109189 0.7021435617005194 0.3825629238744136
0.578929382247239 0.6076142062015748 0.4093469399418454
0.577078194127214 0.6853710199016079 0.5008141950594686
0.7236113525085758 0.6088394120866514 0.4853623955173797
0.674195125310919 0.7021435617005194 0.3825629238744136
0.778929382247239 0.6076142062015748 0.4093469399418454
0.7770781941272139 0.6853710199016079 0.5008141950594686
0.9236113525085758 0.6088394120866514 0.4853623955173797
0.8741951253109189 0.7021435617005194 0.3825629238744136
-0.02107061775276106 0.8076142062015746 0.4093469399418454
-0.022921805872786118 0.885371019901608 0.5008141950594686
0.12361135250857574 0.8088394120866513 0.4853623955173797
0.07419512531091889 0.9021435617005195 0.3825629238744136
0.17892938224723895 0.8076142062015746 0.4093469399418454
0.1770781941272139 0.885371019901608 0.5008141950594686
0.32361135250857576 0.8088394120866513 0.4853623955173797
0.2741951253109189 0.9021435617005195 0.3825629238744136
0.378929382247239 0.8076142062015746 0.4093469399418454
0.3770781941272139 0.885371019901608 0.5008141950594686
0.5236113525085758 0.8088394120866513 0.4853623955173797
0.4741951253109189 0.9021435617005195 0.3825629238744136
0.578929382247239 0.8076142062015746 0.4093469399418454
0.577078194127214 0.885371019901608 0.5008141950594686
0.7236113525085758 0.8088394120866513 0.4853623955173797
0.674195125310919 0.9021435617005195 0.3825629238744136
0.778929382247239 0.8076142062015746 0.4093469399418454
0.7770781941272139 0.885371019901608 0.5008141950594686
0.9236113525085758 0.8088394120866513 0.4853623955173797
0.8741951253109189 0.9021435617005195 0.3825629238744136
-0.02107061775276106 0.007614206201574682 0.6093469399418454
-0.022921805872786118 0.08537101990160789 0.7008141950594686
0.12361135250857574 0.008839412086651332 0.6853623955173798
0.07419512531091889 0.10214356170051936 0.5825629238744136
0.17892938224723895 0.007614206201574682 0.6093469399418454
0.1770781941272139 0.08537101990160789 0.7008141950594686
0.32361135250857576 0.008839412086651332 0.6853623955173798
0.2741951253109189 0.10214356170051936 0.5825629238744136
0.378929382247239 0.007614206201574682 0.6093469399418454
0.3770781941272139 0.08537101990160789 0.7008141950594686
0.5236113525085758 0.008839412086651332 0.6853623955173798
0.4741951253109189 0.10214356170051936 0.5825629238744136
0.578929382247239 0.007614206201574682 0.6093469399418454
0.577078194127214 0.08537101990160789 0.7008141950594686
0.7236113525085758 0.008839412086651332 0.6853623955173798
0.674195125310919 0.10214356170051936 0.5825629238744136
0.778929382247239 0.007614206201574682 0.6093469399418454
0.7770781941272139 0.08537101990160789 0.7008141950594686
0.9236113525085758 0.008839412086651332 0.6853623955173798
0.8741951253109189 0.10214356170051936 0.5825629238744136
-0.02107061775276106 0.20761420620157467 0.6093469399418454
-0.022921805872786118 0.2853710199016079 0.7008141950594686
0.12361135250857574 0.20883941208665135 0.6853623955173798
0.07419512531091889 0.30214356170051937 0.5825629238744136
0.17892938224723895 0.20761420620157467 0.6093469399418454
0.1770781941272139 0.2853710199016079 0.7008141950594686
0.32361135250857576 0.20883941208665135 0.6853623955173798
0.2741951253109189 0.30214356170051937 0.5825629238744136
0.378929382247239 0.20761420620157467 0.6093469399418454
0.3770781941272139 0.2853710199016079 0.7008141950594686
0.5236113525085758 0.20883941208665135 0.6853623955173798
0.4741951253109189 0.30214356170051937 0.5825629238744136
0.578929382247239 0.20761420620157467 0.6093469399418454
0.577078194127214 0.2853710199016079 0.7008141950594686
0.7236113525085758 0.20883941208665135 0.6853623955173798
0.674195125310919 0.30214356170051937 0.5825629238744136
0.778929382247239 0.20761420620157467 0.6093469399418454
0.7770781941272139 0.2853710199016079 0.7008141950594686
0.9236113525085758 0.20883941208665135 0.6853623955173798
0.8741951253109189 0.30214356170051937 0.5825629238744136
-0.02107061775276106 0.40761420620157474 0.6093469399418454
-0.022921805872786118 0.4853710199016079 0.7008141950594686
0.12361135250857574 0.40883941208665137 0.6853623955173798
0.07419512531091889 0.5021435617005194 0.5825629238744136
0.17892938224723895 0.40761420620157474 0.6093469399418454
0.1770781941272139 0.4853710199016079 0.7008141950594686
0.32361135250857576 0.40883941208665137 0.6853623955173798
0.2741951253109189 0.5021435617005194 0.5825629238744136
0.378929382247239 0.40761420620157474 0.6093469399418454
0.3770781941272139 0.4853710199016079 0.7008141950594686
0.5236113525085758 0.40883941208665137 0.6853623955173798
0.4741951253109189 0.5021435617005194 0.5825629238744136
0.578929382247239 0.40761420620157474 0.6093469399418454
0.577078194127214 0.4853710199016079 0.7008141950594686
0.7236113525085758 0.40883941208665137 0.6853623955173798
0.674195125310919 0.5021435617005194 0.5825629238744136
0.778929382247239 0.40761420620157474 0.6093469399418454
0.7770781941272139 0.4853710199016079 0.7008141950594686
0.9236113525085758 0.40883941208665137 0.6853623955173798
0.8741951253109189 0.5021435617005194 0.5825629238744136
-0.02107061775276106 0.6076142062015748 0.6093469399418454
-0.022921805872786118 0.6853710199016079 0.7008141950594686
0.12361135250857574 0.6088394120866514 0.6853623955173798
0.07419512531091889 0.7021435617005194 0.5825629238744136
0.17892938224723895 0.6076142062015748 0.6093469399418454
0.1770781941272139 0.6853710199016079 0.7008141950594686
0.32361135250857576 0.6088394120866514 0.6853623955173798
0.2741951253109189 0.7021435617005194 0.5825629238744136
0.378929382247239 0.6076142062015748 0.6093469399418454
0.3770781941272139 0.6853710199016079 0.7008141950594686
0.5236113525085758 0.6088394120866514 0.6853623955173798
0.4741951253109189 0.7021435617005194 0.5825629238744136
0.578929382247239 0.6076142062015748 0.6093469399418454
0.577078194127214 0.6853710199016079 0.7008141950594686
0.7236113525085758 0.6088394120866514 0.6853623955173798
0.674195125310919 0.7021435617005194 0.5825629238744136
0.778929382247239 0.6076142062015748 0.6093469399418454
0.7770781941272139 0.6853710199016079 0.7008141950594686
0.9236113525085758 0.6088394120866514 0.6853623955173798
0.8741951253109189 0.7021435617005194 0.5825629238744136
-0.02107061775276106 0.8076142062015746 0.6093469399418454
-0.022921805872786118 0.885371019901608 0.7008141950594686
0.12361135250857574 0.8088394120866513 0.6853623955173798
0.07419512531091889 0.9021435617005195 0.5825629238744136
0.17892938224723895 0.8076142062015746 0.6093469399418454
0.1770781941272139 0.885371019901608 0.7008141950594686
0.32361135250857576 0.8088394120866513 0.6853623955173798
0.2741951253109189 0.9021435617005195 0.5825629238744136
0.378929382247239 0.8076142062015746 0.6093469399418454
0.3770781941272139 0.885371019901608 0.7008141950594686
0.5236113525085758 0.8088394120866513 0.6853623955173798
0.4741951253109189 0.9021435617005195 0.5825629238744136
0.578929382247239 0.8076142062015746 0.6093469399418454
0.577078194127214 0.885371019901608 0.7008141950594686
0.7236113525085758 0.8088394120866513 0.6853623955173798
0.674195125310919 0.9021435617005195 0.5825629238744136
0.778929382247239 0.8076142062015746 0.6093469399418454
0.7770781941272139 0.885371019901608 0.7008141950594686
0.9236113525085758 0.8088394120866513 0.6853623955173798
0.8741951253109189 0.9021435617005195 0.5825629238744136
-0.02107061775276106 0.007614206201574682 0.8093469399418455
-0.022921805872786118 0.08537101990160789 0.9008141950594686
0.12361135250857574 0.008839412086651332 0.8853623955173797
0.07419512531091889 0.10214356170051936 0.7825629238744136
0.17892938224723895 0.007614206201574682 0.8093469399418455
0.1770781941272139 0.08537101990160789 0.9008141950594686
0.32361135250857576 0.008839412086651332 0.8853623955173797
0.2741951253109189 0.10214356170051936 0.7825629238744136
0.378929382247239 0.007614206201574682 0.8093469399418455
0.3770781941272139 0.08537101990160789 0.9008141950594686
0.5236113525085758 0.008839412086651332 0.8853623955173797
0.4741951253109189 0.10214356170051936 0.7825629238744136
0.578929382247239 0.007614206201574682 0.8093469399418455
0.577078194127214 0.08537101990160789 0.9008141950594686
0.7236113525085758 0.008839412086651332 0.8853623955173797
0.674195125310919 0.10214356170051936 0.7825629238744136
0.778929382247239 0.007614206201574682 0.8093469399418455
0.7770781941272139 0.08537101990160789 0.9008141950594686
0.9236113525085758 0.008839412086651332 0.8853623955173797
0.8741951253109189 0.10214356170051936 0.7825629238744136
-0.02107061775276106 0.20761420620157467 0.8093469399418455
-0.022921805872786118 0.2853710199016079 0.9008141950594686
0.12361135250857574 0.20883941208665135 0.8853623955173797
0.07419512531091889 0.30214356170051937 0.7825629238744136
0.17892938224723895 0.20761420620157467 0.8093469399418455
0.1770781941272139 0.2853710199016079 0.9008141950594686
0.32361135250857576 0.20883941208665135 0.8853623955173797
0.2741951253109189 0.30214356170051937 0.7825629238744136
0.378929382247239 0.20761420620157467 0.8093469399418455
0.3770781941272139 0.2853710199016079 0.9008141950594686
0.5236113525085758 0.20883941208665135 0.8853623955173797
0.4741951253109189 0.30214356170051937 0.7825629238744136
0.578929382247239 0.20761420620157467 0.8093469399418455
0.577078194127214 0.2853710199016079 0.9008141950594686
0.7236113525085758 0.20883941208665135 0.8853623955173797
0.674195125310919 0.30214356170051937 0.7825629238744136
0.778929382247239 0.20761420620157467 0.8093469399418455
0.7770781941272139 0.2853710199016079 0.9008141950594686
0.9236113525085758 0.20883941208665135 0.8853623955173797
0.8741951253109189 0.30214356170051937 0.7825629238744136
-0.02107061775276106 0.40761420620157474 0.8093469399418455
-0.022921805872786118 0.4853710199016079 0.9008141950594686
0.12361135250857574 0.40883941208665137 0.8853623955173797
0.07419512531091889 0.5021435617005194 0.7825629238744136
0.17892938224723895 0.40761420620157474 0.8093469399418455
0.1770781941272139 0.4853710199016079 0.9008141950594686
0.32361135250857576 0.40883941208665137 0.8853623955173797
0.2741951253109189 0.5021435617005194 0.7825629238744136
0.378929382247239 0.40761420620157474 0.8093469399418455
0.3770781941272139 0.4853710199016079 0.9008141950594686
0.5236113525085758 0.40883941208665137 0.8853623955173797
0.4741951253109189 0.5021435617005194 0.7825629238744136
0.578929382247239 0.40761420620157474 0.8093469399418455
0.577078194127214 0.4853710199016079 0.9008141950594686
0.7236113525085758 0.40883941208665137 0.8853623955173797
0.674195125310919 0.5021435617005194 0.7825629238744136
0.778929382247239 0.40761420620157474 0.8093469399418455
0.7770781941272139 0.4853710199016079 0.9008141950594686
0.9236113525085758 0.40883941208665137 0.8853623955173797
0.8741951253109189 0.5021435617005194 0.7825629238744136
-0.02107061775276106 0.6076142062015748 0.8093469399418455
-0.022921805872786118 0.6853710199016079 0.9008141950594686
0.12361135250857574 0.6088394120866514 0.8853623955173797
0.07419512531091889 0.7021435617005194 0.7825629238744136
0.17892938224723895 0.6076142062015748 0.8093469399418455
0.1770781941272139 0.6853710199016079 0.9008141950594686
0.32361135250857576 0.6088394120866514 0.8853623955173797
0.2741951253109189 0.7021435617005194 0.7825629238744136
0.378929382247239 0.6076142062015748 0.8093469399418455
0.3770781941272139 0.6853710199016079 0.9008141950594686
0.5236113525085758 0.6088394120866514 0.8853623955173797
0.4741951253109189 0.7021435617005194 0.7825629238744136
0.578929382247239 0.6076142062015748 0.8093469399418455
0.577078194127214 0.6853710199016079 0.9008141950594686
0.7236113525085758 0.6088394120866514 0.8853623955173797
0.674195125310919 0.7021435617005194 0.7825629238744136
0.778929382247239 0.6076142062015748 0.8093469399418455
0.7770781941272139 0.6853710199016079 0.9008141950594686
0.9236113525085758 0.6088394120866514 0.8853623955173797
0.8741951253109189 0.7021435617005194 0.7825629238744136
-0.02107061775276106 0.8076142062015746 0.8093469399418455
-0.022921805872786118 0.885371019901608 0.9008141950594686
0.12361135250857574 0.8088394120866513 0.8853623955173797
0.07419512531091889 0.9021435617005195 0.7825629238744136
0.17892938224723895 0.8076142062015746 0.8093469399418455
0.1770781941272139 0.885371019901608 0.9008141950594686
0.32361135250857576 0.8088394120866513 0.8853623955173797
0.2741951253109189 0.9021435617005195 0.7825629238744136
0.378929382247239 0.8076142062015746 0.8093469399418455
0.3770781941272139 0.885371019901608 0.9008141950594686
0.5236113525085758 0.8088394120866513 0.8853623955173797
0.4741951253109189 0.9021435617005195 0.7825629238744136
0.578929382247239 0.8076142062015746 0.8093469399418455
0.577078194127214 0.885371019901608 0.9008141950594686
0.7236113525085758 0.8088394120866513 0.8853623955173797
0.674195125310919 0.9021435617005195 0.7825629238744136
0.778929382247239 0.8076142062015746 0.8093469399418455
0.7770781941272139 0.885371019901608 0.9008141950594686
0.9236113525085758 0.8088394120866513 0.8853623955173797
0.8741951253109189 0.9021435617005195 0.7825629238744136
0.10193264918862242 -0.014315219617805484 -0.01513529372293706
-0.024410729624713398 0.07855562551580911 -0.0008326160300778074
-0.029993163032053117 -0.02966357732031029 0.11891108089414022
0.08441610436490918 0.07406512884221123 0.07400799498506998
0.30193264918862245 -0.014315219617805484 -0.01513529372293706
0.1755892703752866 0.07855562551580911 -0.0008326160300778074
0.17000683696794688 -0.02966357732031029 0.11891108089414022
0.28441610436490916 0.07406512884221123 0.07400799498506998
0.5019326491886223 -0.014315219617805484 -0.01513529372293706
0.3755892703752866 0.07855562551580911 -0.0008326160300778074
0.3700068369679469 -0.02966357732031029 0.11891108089414022
0.48441610436490923 0.07406512884221123 0.07400799498506998
0.7019326491886224 -0.014315219617805484 -0.01513529372293706
0.5755892703752866 0.07855562551580911 -0.0008326160300778074
0.570006836967947 -0.02966357732031029 0.11891108089414022
0.6844161043649093 0.07406512884221123 0.07400799498506998
0.9019326491886224 -0.014315219617805484 -0.01513529372293706
0.7755892703752867 0.07855562551580911 -0.0008326160300778074
0.7700068369679469 -0.02966357732031029 0.11891108089414022
0.8844161043649091 0.07406512884221123 0.07400799498506998
0.10193264918862242 0.18568478038219452 -0.01513529372293706
-0.024410729624713398 0.2785556255158091 -0.0008326160300778074
-0.029993163032053117 0.17033642267968974 0.11891108089414022
0.08441610436490918 0.27406512884221124 0.07400799498506998
0.30193264918862245 0.18568478038219452 -0.01513529372293706
0.1755892703752866 0.2785556255158091 -0.0008326160300778074
0.17000683696794688 0.17033642267968974 0.11891108089414022
0.28441610436490916 0.27406512884221124 0.07400799498506998
0.5019326491886223 0.18568478038219452 -0.01513529372293706
0.3755892703752866 0.2785556255158091 -0.0008326160300778074
0.3700068369679469 0.17033642267968974 0.11891108089414022
0.48441610436490923 0.27406512884221124 0.07400799498506998
0.7019326491886224 0.18568478038219452 -0.01513529372293706
0.5755892703752866 0.2785556255158091 -0.0008326160300778074
0.570006836967947 0.17033642267968974 0.11891108089414022
0.6844161043649093 0.27406512884221124 0.07400799498506998
0.9019326491886224 0.18568478038219452 -0.01513529372293706
0.7755892703752867 0.2785556255158091 -0.0008326160300778074
0.7700068369679469 0.17033642267968974 0.11891108089414022
0.8844161043649091 0.27406512884221124 0.07400799498506998
0.10193264918862242 0.38568478038219456 -0.01513529372293706
-0.024410729624713398 0.4785556255158091 -0.0008326160300778074
-0.029993163032053117 0.37033642267968975 0.11891108089414022
0.08441610436490918 0.4740651288422113 0.07400799498506998
0.30193264918862245 0.38568478038219456 -0.01513529372293706
0.1755892703752866 0.4785556255158091 -0.0008326160300778074
0.17000683696794688 0.37033642267968975 0.11891108089414022
0.28441610436490916 0.4740651288422113 0.07400799498506998
0.5019326491886223 0.38568478038219456 -0.01513529372293706
0.3755892703752866 0.4785556255158091 -0.0008326160300778074
0.3700068369679469 0.37033642267968975 0.11891108089414022
0.48441610436490923 0.4740651288422113 0.07400799498506998
0.7019326491886224 0.38568478038219456 -0.01513529372293706
0.5755892703752866 0.4785556255158091 -0.0008326160300778074
0.570006836967947 0.37033642267968975 0.11891108089414022
0.6844161043649093 0.4740651288422113 0.07400799498506998
0.9019326491886224 0.38568478038219456 -0.01513529372293706
0.7755892703752867 0.4785556255158091 -0.0008326160300778074
0.7700068369679469 0.37033642267968975 0.11891108089414022
0.8844161043649091 0.4740651288422113 0.07400799498506998
0.10193264918862242 0.5856847803821945 -0.01513529372293706
-0.024410729624713398 0.6785556255158092 -0.0008326160300778074
-0.029993163032053117 0.5703364226796898 0.11891108089414022
0.08441610436490918 0.6740651288422113 0.07400799498506998
0.30193264918862245 0.5856847803821945 -0.01513529372293706
0.1755892703752866 0.6785556255158092 -0.0008326160300778074
0.17000683696794688 0.5703364226796898 0.11891108089414022
0.28441610436490916 0.6740651288422113 0.07400799498506998
0.5019326491886223 0.5856847803821945 -0.01513529372293706
0.3755892703752866 0.6785556255158092 -0.0008326160300778074
0.3700068369679469 0.5703364226796898 0.11891108089414022
0.48441610436490923 0.6740651288422113 0.07400799498506998
0.7019326491886224 0.5856847803821945 -0.01513529372293706
0.5755892703752866 0.6785556255158092 -0.0008326160300778074
0.570006836967947 0.5703364226796898 0.11891108089414022
0.6844161043649093 0.6740651288422113 0.07400799498506998
0.9019326491886224 0.5856847803821945 -0.01513529372293706
0.7755892703752867 0.6785556255158092 -0.0008326160300778074
0.7700068369679469 0.5703364226796898 0.11891108089414022
0.8844161043649091 0.6740651288422113 0.07400799498506998
0.10193264918862242 0.7856847803821946 -0.01513529372293706
-0.024410729624713398 0.8785556255158092 -0.0008326160300778074
-0.029993163032053117 0.7703364226796898 0.11891108089414022
0.08441610436490918 0.8740651288422113 0.07400799498506998
0.30193264918862245 0.7856847803821946 -0.01513529372293706
0.1755892703752866 0.8785556255158092 -0.0008326160300778074
0.17000683696794688 0.7703364226796898 0.11891108089414022
0.28441610436490916 0.8740651288422113 0.07400799498506998
0.5019326491886223 0.7856847803821946 -0.01513529372293706
0.3755892703752866 0.8785556255158092 -0.0008326160300778074
0.3700068369679469 0.7703364226796898 0.11891108089414022
0.48441610436490923 0.8740651288422113 0.07400799498506998
0.7019326491886224 0.7856847803821946 -0.01513529372293706
0.5755892703752866 0.8785556255158092 -0.0008326160300778074
0.570006836967947 0.7703364226796898 0.11891108089414022
0.6844161043649093 0.8740651288422113 0.07400799498506998
0.9019326491886224 0.7856847803821946 -0.01513529372293706
0.7755892703752867 0.8785556255158092 -0.0008326160300778074
0.7700068369679469 0.7703364226796898 0.11891108089414022
0.8844161043649091 0.8740651288422113 0.07400799498506998
0.10193264918862242 -0.014315219617805484 0.18486470627706295
-0.024410729624713398 0.07855562551580911 0.1991673839699222
-0.029993163032053117 -0.02966357732031029 0.3189110808941402
0.08441610436490918 0.07406512884221123 0.27400799498507
0.30193264918862245 -0.014315219617805484 0.18486470627706295
0.1755892703752866 0.07855562551580911 0.1991673839699222
0.17000683696794688 -0.02966357732031029 0.3189110808941402
0.28441610436490916 0.07406512884221123 0.27400799498507
0.5019326491886223 -0.014315219617805484 0.18486470627706295
0.3755892703752866 0.07855562551580911 0.1991673839699222
0.3700068369679469 -0.02966357732031029 0.3189110808941402
0.48441610436490923 0.07406512884221123 0.27400799498507
0.7019326491886224 -0.014315219617805484 0.18486470627706295
0.5755892703752866 0.07855562551580911 0.1991673839699222
0.570006836967947 -0.02966357732031029 0.3189110808941402
0.6844161043649093 0.07406512884221123 0.27400799498507
0.9019326491886224 -0.014315219617805484 0.18486470627706295
0.7755892703752867 0.07855562551580911 0.1991673839699222
0.7700068369679469 -0.02966357732031029 0.3189110808941402
0.8844161043649091 0.07406512884221123 0.27400799498507
0.10193264918862242 0.18568478038219452 0.18486470627706295
-0.024410729624713398 0.2785556255158091 0.1991673839699222
-0.029993163032053117 0.17033642267968974 0.3189110808941402
0.08441610436490918 0.27406512884221124 0.27400799498507
0.30193264918862245 0.18568478038219452 0.18486470627706295
0.1755892703752866 0.2785556255158091 0.1991673839699222
0.17000683696794688 0.17033642267968974 0.3189110808941402
0.28441610436490916 0.27406512884221124 0.27400799498507
0.5019326491886223 0.18568478038219452 0.18486470627706295
0.3755892703752866 0.2785556255158091 0.1991673839699222
0.3700068369679469 0.17033642267968974 0.3189110808941402
0.48441610436490923 0.27406512884221124 0.27400799498507
0.7019326491886224 0.18568478038219452 0.18486470627706295
0.5755892703752866 0.2785556255158091 0.1991673839699222
0.570006836967947 0.17033642267968974 0.3189110808941402
0.6844161043649093 0.27406512884221124 0.27400799498507
0.9019326491886224 0.18568478038219452 0.18486470627706295
0.7755892703752867 0.2785556255158091 0.1991673839699222
0.7700068369679469 0.17033642267968974 0.3189110808941402
0.8844161043649091 0.27406512884221124 0.27400799498507
0.10193264918862242 0.38568478038219456 0.18486470627706295
-0.024410729624713398 0.4785556255158091 0.1991673839699222
-0.029993163032053117 0.37033642267968975 0.3189110808941402
0.08441610436490918 0.4740651288422113 0.27400799498507
0.30193264918862245 0.38568478038219456 0.18486470627706295
0.1755892703752866 0.4785556255158091 0.1991673839699222
0.17000683696794688 0.37033642267968975 0.3189110808941402
0.28441610436490916 0.4740651288422113 0.27400799498507
0.5019326491886223 0.38568478038219456 0.18486470627706295
0.3755892703752866 0.4785556255158091 0.1991673839699222
0.3700068369679469 0.37033642267968975 0.3189110808941402
0.48441610436490923 0.4740651288422113 0.27400799498507
0.7019326491886224 0.38568478038219456 0.18486470627706295
0.5755892703752866 0.4785556255158091 0.1991673839699222
0.570006836967947 0.37033642267968975 0.3189110808941402
0.6844161043649093 0.4740651288422113 0.27400799498507
0.9019326491886224 0.38568478038219456 0.18486470627706295
0.7755892703752867 0.4785556255158091 0.1991673839699222
0.7700068369679469 0.37033642267968975 0.3189110808941402
0.8844161043649091 0.4740651288422113 0.27400799498507
0.10193264918862242 0.5856847803821945 0.18486470627706295
-0.024410729624713398 0.6785556255158092 0.1991673839699222
-0.029993163032053117 0.5703364226796898 0.3189110808941402
0.08441610436490918 0.6740651288422113 0.27400799498507
0.30193264918862245 0.5856847803821945 0.18486470627706295
0.1755892703752866 0.6785556255158092 0.1991673839699222
0.17000683696794688 0.5703364226796898 0.3189110808941402
0.28441610436490916 0.6740651288422113 0.27400799498507
0.5019326491886223 0.5856847803821945 0.18486470627706295
0.3755892703752866 0.6785556255158092 0.1991673839699222
0.3700068369679469 0.5703364226796898 0.3189110808941402
0.48441610436490923 0.6740651288422113 0.27400799498507
0.7019326491886224 0.5856847803821945 0.18486470627706295
0.5755892703752866 0.6785556255158092 0.1991673839699222
0.570006836967947 0.5703364226796898 0.3189110808941402
0.6844161043649093 0.6740651288422113 0.27400799498507
0.9019326491886224 0.5856847803821945 0.18486470627706295
0.7755892703752867 0.6785556255158092 0.1991673839699222
0.7700068369679469 0.5703364226796898 0.3189110808941402
0.8844161043649091 0.6740651288422113 0.27400799498507
0.10193264918862242 0.7856847803821946 0.18486470627706295
-0.024410729624713398 0.8785556255158092 0.1991673839699222
-0.029993163032053117 0.7703364226796898 0.3189110808941402
0.08441610436490918 0.8740651288422113 0.27400799498507
0.30193264918862245 0.7856847803821946 0.18486470627706295
0.1755892703752866 0.8785556255158092 0.1991673839699222
0.17000683696794688 0.7703364226796898 0.3189110808941402
0.28441610436490916 0.8740651288422113 0.27400799498507
0.5019326491886223 0.7856847803821946 0.18486470627706295
0.3755892703752866 0.8785556255158092 0.1991673839699222
0.3700068369679469 0.7703364226796898 0.3189110808941402
0.48441610436490923 0.8740651288422113 0.27400799498507
0.7019326491886224 0.7856847803821946 0.18486470627706295
0.5755892703752866 0.8785556255158092 0.1991673839699222
0.570006836967947 0.7703364226796898 0.3189110808941402
0.6844161043649093 0.8740651288422113 0.27400799498507
0.9019326491886224 0.7856847803821946 0.18486470627706295
0.7755892703752867 0.8785556255158092 0.1991673839699222
0.7700068369679469 0.7703364226796898 0.3189110808941402
0.8844161043649091 0.8740651288422113 0.27400799498507
0.10193264918862242 -0.014315219617805484 0.38486470627706293
-0.024410729624713398 0.07855562551580911 0.3991673839699222
-0.029993163032053117 -0.02966357732031029 0.5189110808941403
0.08441610436490918 0.07406512884221123 0.47400799498507
0.30193264918862245 -0.014315219617805484 0.38486470627706293
0.1755892703752866 0.07855562551580911 0.3991673839699222
0.17000683696794688 -0.02966357732031029 0.5189110808941403
0.28441610436490916 0.07406512884221123 0.47400799498507
0.5019326491886223 -0.014315219617805484 0.38486470627706293
0.3755892703752866 0.07855562551580911 0.3991673839699222
0.3700068369679469 -0.02966357732031029 0.5189110808941403
0.48441610436490923 0.07406512884221123 0.47400799498507
0.7019326491886224 -0.014315219617805484 0.38486470627706293
0.5755892703752866 0.07855562551580911 0.3991673839699222
0.570006836967947 -0.02966357732031029 0.5189110808941403
0.6844161043649093 0.07406512884221123 0.47400799498507
0.9019326491886224 -0.014315219617805484 0.38486470627706293
0.7755892703752867 0.07855562551580911 0.3991673839699222
0.7700068369679469 -0.02966357732031029 0.5189110808941403
0.8844161043649091 0.07406512884221123 0.47400799498507
0.10193264918862242 0.18568478038219452 0.38486470627706293
-0.024410729624713398 0.2785556255158091 0.3991673839699222
-0.029993163032053117 0.17033642267968974 0.5189110808941403
0.08441610436490918 0.27406512884221124 0.47400799498507
0.30193264918862245 0.18568478038219452 0.38486470627706293
0.1755892703752866 0.2785556255158091 0.3991673839699222
0.17000683696794688 0.17033642267968974 0.5189110808941403
0.28441610436490916 0.27406512884221124 0.47400799498507
0.5019326491886223 0.18568478038219452 0.38486470627706293
0.3755892703752866 0.2785556255158091 0.3991673839699222
0.3700068369679469 0.17033642267968974 0.5189110808941403
0.48441610436490923 0.27406512884221124 0.47400799498507
0.7019326491886224 0.18568478038219452 0.38486470627706293
0.5755892703752866 0.2785556255158091 0.3991673839699222
0.570006836967947 0.17033642267968974 0.5189110808941403
0.6844161043649093 0.27406512884221124 0.47400799498507
0.9019326491886224 0.18568478038219452 0.38486470627706293
0.7755892703752867 0.2785556255158091 0.3991673839699222
0.7700068369679469 0.17033642267968974 0.5189110808941403
0.8844161043649091 0.27406512884221124 0.47400799498507
0.10193264918862242 0.38568478038219456 0.38486470627706293
-0.024410729624713398 0.4785556255158091 0.3991673839699222
-0.029993163032053117 0.37033642267968975 0.5189110808941403
0.08441610436490918 0.4740651288422113 0.47400799498507
0.30193264918862245 0.38568478038219456 0.38486470627706293
0.1755892703752866 0.4785556255158091 0.3991673839699222
0.17000683696794688 0.37033642267968975 0.5189110808941403
0.28441610436490916 0.4740651288422113 0.47400799498507
0.5019326491886223 0.38568478038219456 0.38486470627706293
0.3755892703752866 0.4785556255158091 0.3991673839699222
0.3700068369679469 0.37033642267968975 0.5189110808941403
0.48441610436490923 0.4740651288422113 0.47400799498507
0.7019326491886224 0.38568478038219456 0.38486470627706293
0.5755892703752866 0.4785556255158091 0.3991673839699222
0.570006836967947 0.37033642267968975 0.5189110808941403
0.6844161043649093 0.4740651288422113 0.47400799498507
0.9019326491886224 0.38568478038219456 0.38486470627706293
0.7755892703752867 0.4785556255158091 0.3991673839699222
0.7700068369679469 0.37033642267968975 0.5189110808941403
0.8844161043649091 0.4740651288422113 0.47400799498507
0.10193264918862242 0.5856847803821945 0.38486470627706293
-0.024410729624713398 0.6785556255158092 0.3991673839699222
-0.029993163032053117 0.5703364226796898 0.5189110808941403
0.08441610436490918 0.6740651288422113 0.47400799498507
0.30193264918862245 0.5856847803821945 0.38486470627706293
0.1755892703752866 0.6785556255158092 0.3991673839699222
0.17000683696794688 0.5703364226796898 0.5189110808941403
0.28441610436490916 0.6740651288422113 0.47400799498507
0.5019326491886223 0.5856847803821945 0.38486470627706293
0.3755892703752866 0.6785556255158092 0.3991673839699222
0.3700068369679469 0.5703364226796898 0.5189110808941403
0.48441610436490923 0.6740651288422113 0.47400799498507
0.7019326491886224 0.5856847803821945 0.38486470627706293
0.5755892703752866 0.6785556255158092 0.3991673839699222
0.570006836967947 0.5703364226796898 0.5189110808941403
0.6844161043649093 0.6740651288422113 0.47400799498507
0.9019326491886224 0.5856847803821945 0.38486470627706293
0.7755892703752867 0.6785556255158092 0.3991673839699222
0.7700068369679469 0.5703364226796898 0.5189110808941403
0.8844161043649091 0.6740651288422113 0.47400799498507
0.10193264918862242 0.7856847803821946 0.38486470627706293
-0.024410729624713398 0.8785556255158092 0.3991673839699222
-0.029993163032053117 0.7703364226796898 0.5189110808941403
0.08441610436490918 0.8740651288422113 0.47400799498507
0.30193264918862245 0.7856847803821946 0.38486470627706293
0.1755892703752866 0.8785556255158092 0.3991673839699222
0.17000683696794688 0.7703364226796898 0.5189110808941403
0.28441610436490916 0.8740651288422113 0.47400799498507
0.5019326491886223 0.7856847803821946 0.38486470627706293
0.3755892703752866 0.8785556255158092 0.3991673839699222
0.3700068369679469 0.7703364226796898 0.5189110808941403
0.48441610436490923 0.8740651288422113 0.47400799498507
0.7019326491886224 0.7856847803821946 0.38486470627706293
0.5755892703752866 0.8785556255158092 0.3991673839699222
0.570006836967947 0.7703364226796898 0.5189110808941403
0.6844161043649093 0.8740651288422113 0.47400799498507
0.9019326491886224 0.7856847803821946 0.38486470627706293
0.7755892703752867 0.8785556255158092 0.3991673839699222
0.7700068369679469 0.7703364226796898 0.5189110808941403
0.8844161043649091 0.8740651288422113 0.47400799498507
0.10193264918862242 -0.014315219617805484 0.584864706277063
-0.024410729624713398 0.07855562551580911 0.5991673839699222
-0.029993163032053117 -0.02966357732031029 0.7189110808941402
0.08441610436490918 0.07406512884221123 0.67400799498507
0.30193264918862245 -0.014315219617805484 0.584864706277063
0.1755892703752866 0.07855562551580911 0.5991673839699222
0.17000683696794688 -0.02966357732031029 0.7189110808941402
0.28441610436490916 0.07406512884221123 0.67400799498507
0.5019326491886223 -0.014315219617805484 0.584864706277063
0.3755892703752866 0.07855562551580911 0.5991673839699222
0.3700068369679469 -0.02966357732031029 0.7189110808941402
0.48441610436490923 0.07406512884221123 0.67400799498507
0.7019326491886224 -0.014315219617805484 0.584864706277063
0.5755892703752866 0.07855562551580911 0.5991673839699222
0.570006836967947 -0.02966357732031029 0.7189110808941402
0.6844161043649093 0.07406512884221123 0.67400799498507
0.9019326491886224 -0.014315219617805484 0.584864706277063
0.7755892703752867 0.07855562551580911 0.5991673839699222
0.7700068369679469 -0.02966357732031029 0.7189110808941402
0.8844161043649091 0.07406512884221123 0.67400799498507
0.10193264918862242 0.18568478038219452 0.584864706277063
-0.024410729624713398 0.2785556255158091 0.5991673839699222
-0.029993163032053117 0.17033642267968974 0.7189110808941402
0.08441610436490918 0.27406512884221124 0.67400799498507
0.30193264918862245 0.18568478038219452 0.584864706277063
0.1755892703752866 0.2785556255158091 0.5991673839699222
0.17000683696794688 0.17033642267968974 0.7189110808941402
0.28441610436490916 0.27406512884221124 0.67400799498507
0.5019326491886223 0.18568478038219452 0.584864706277063
0.3755892703752866 0.2785556255158091 0.5991673839699222
0.3700068369679469 0.17033642267968974 0.7189110808941402
0.48441610436490923 0.27406512884221124 0.67400799498507
0.7019326491886224 0.18568478038219452 0.584864706277063
0.5755892703752866 0.2785556255158091 0.5991673839699222
0.570006836967947 0.17033642267968974 0.7189110808941402
0.6844161043649093 0.27406512884221124 0.67400799498507
0.9019326491886224 0.18568478038219452 0.584864706277063
0.7755892703752867 0.2785556255158091 0.5991673839699222
0.7700068369679469 0.17033642267968974 0.7189110808941402
0.8844161043649091 0.27406512884221124 0.67400799498507
0.10193264918862242 0.38568478038219456 0.584864706277063
-0.024410729624713398 0.4785556255158091 0.5991673839699222
-0.029993163032053117 0.37033642267968975 0.7189110808941402
0.08441610436490918 0.4740651288422113 0.67400799498507
0.30193264918862245 0.38568478038219456 0.584864706277063
0.1755892703752866 0.4785556255158091 0.5991673839699222
0.17000683696794688 0.37033642267968975 0.7189110808941402
0.28441610436490916 0.4740651288422113 0.67400799498507
0.5019326491886223 0.38568478038219456 0.584864706277063
0.3755892703752866 0.4785556255158091 0.5991673839699222
0.3700068369679469 0.37033642267968975 0.7189110808941402
0.48441610436490923 0.4740651288422113 0.67400799498507
0.7019326491886224 0.38568478038219456 0.584864706277063
0.5755892703752866 0.4785556255158091 0.5991673839699222
0.570006836967947 0.37033642267968975 0.7189110808941402
0.6844161043649093 0.4740651288422113 0.67400799498507
0.9019326491886224 0.38568478038219456 0.584864706277063
0.7755892703752867 0.4785556255158091 0.5991673839699222
0.7700068369679469 0.37033642267968975 0.7189110808941402
0.8844161043649091 0.4740651288422113 0.67400799498507
0.10193264918862242 0.5856847803821945 0.584864706277063
-0.024410729624713398 0.6785556255158092 0.5991673839699222
-0.029993163032053117 0.5703364226796898 0.7189110808941402
0.08441610436490918 0.6740651288422113 0.67400799498507
0.30193264918862245 0.5856847803821945 0.584864706277063
0.1755892703752866 0.6785556255158092 0.5991673839699222
0.17000683696794688 0.5703364226796898 0.7189110808941402
0.28441610436490916 0.6740651288422113 0.67400799498507
0.5019326491886223 0.5856847803821945 0.584864706277063
0.3755892703752866 0.6785556255158092 0.5991673839699222
0.3700068369679469 0.5703364226796898 0.7189110808941402
0.48441610436490923 0.6740651288422113 0.67400799498507
0.7019326491886224 0.5856847803821945 0.584864706277063
0.5755892703752866 0.6785556255158092 0.5991673839699222
0.570006836967947 0.5703364226796898 0.7189110808941402
0.6844161043649093 0.6740651288422113 0.67400799498507
0.9019326491886224 0.5856847803821945 0.584864706277063
0.7755892703752867 0.6785556255158092 0.5991673839699222
0.7700068369679469 0.5703364226796898 0.7189110808941402
0.8844161043649091 0.6740651288422113 0.67400799498507
0.10193264918862242 0.7856847803821946 0.584864706277063
-0.024410729624713398 0.8785556255158092 0.5991673839699222
-0.029993163032053117 0.7703364226796898 0.7189110808941402
0.08441610436490918 0.8740651288422113 0.67400799498507
0.30193264918862245 0.7856847803821946 0.584864706277063
0.1755892703752866 0.8785556255158092 0.5991673839699222
0.17000683696794688 0.7703364226796898 0.7189110808941402
0.28441610436490916 0.8740651288422113 0.67400799498507
0.5019326491886223 0.7856847803821946 0.584864706277063
0.3755892703752866 0.8785556255158092 0.5991673839699222
0.3700068369679469 0.7703364226796898 0.7189110808941402
0.48441610436490923 0.8740651288422113 0.67400799498507
0.7019326491886224 0.7856847803821946 0.584864706277063
0.5755892703752866 0.8785556255158092 0.5991673839699222
0.570006836967947 0.7703364226796898 0.7189110808941402
0.6844161043649093 0.8740651288422113 0.67400799498507
0.9019326491886224 0.7856847803821946 0.584864706277063
0.7755892703752867 0.8785556255158092 0.5991673839699222
0.7700068369679469 0.7703364226796898 0.7189110808941402
0.8844161043649091 0.8740651288422113 0.67400799498507
0.10193264918862242 -0.014315219617805484 0.784864706277063
-0.024410729624713398 0.07855562551580911 0.7991673839699223
-0.029993163032053117 -0.02966357732031029 0.9189110808941403
0.08441610436490918 0.07406512884221123 0.87400799498507
0.30193264918862245 -0.014315219617805484 0.784864706277063
0.1755892703752866 0.07855562551580911 0.7991673839699223
0.17000683696794688 -0.02966357732031029 0.9189110808941403
0.28441610436490916 0.07406512884221123 0.87400799498507
0.5019326491886223 -0.014315219617805484 0.784864706277063
0.3755892703752866 0.07855562551580911 0.7991673839699223
0.3700068369679469 -0.02966357732031029 0.9189110808941403
0.48441610436490923 0.07406512884221123 0.87400799498507
0.7019326491886224 -0.014315219617805484 0.784864706277063
0.5755892703752866 0.07855562551580911 0.7991673839699223
0.570006836967947 -0.02966357732031029 0.9189110808941403
0.6844161043649093 0.07406512884221123 0.87400799498507
0.9019326491886224 -0.014315219617805484 0.784864706277063
0.7755892703752867 0.07855562551580911 0.7991673839699223
0.7700068369679469 -0.02966357732031029 0.9189110808941403
0.8844161043649091 0.07406512884221123 0.87400799498507
0.10193264918862242 0.18568478038219452 0.784864706277063
-0.024410729624713398 0.2785556255158091 0.7991673839699223
-0.029993163032053117 0.17033642267968974 0.9189110808941403
0.08441610436490918 0.27406512884221124 0.87400799498507
0.30193264918862245 0.18568478038219452 0.784864706277063
0.1755892703752866 0.2785556255158091 0.7991673839699223
0.17000683696794688 0.17033642267968974 0.9189110808941403
0.28441610436490916 0.27406512884221124 0.87400799498507
0.5019326491886223 0.18568478038219452 0.784864706277063
0.3755892703752866 0.2785556255158091 0.7991673839699223
0.3700068369679469 0.17033642267968974 0.9189110808941403
0.48441610436490923 0.27406512884221124 0.87400799498507
0.7019326491886224 0.18568478038219452 0.784864706277063
0.5755892703752866 0.2785556255158091 0.7991673839699223
0.570006836967947 0.17033642267968974 0.9189110808941403
0.6844161043649093 0.27406512884221124 0.87400799498507
0.9019326491886224 0.18568478038219452 0.784864706277063
0.7755892703752867 0.2785556255158091 0.7991673839699223
0.7700068369679469 0.17033642267968974 0.9189110808941403
0.8844161043649091 0.27406512884221124 0.87400799498507
0.10193264918862242 0.38568478038219456 0.784864706277063
-0.024410729624713398 0.4785556255158091 0.7991673839699223
-0.029993163032053117 0.37033642267968975 0.9189110808941403
0.08441610436490918 0.4740651288422113 0.87400799498507
0.30193264918862245 0.38568478038219456 0.784864706277063
0.1755892703752866 0.4785556255158091 0.7991673839699223
0.17000683696794688 0.37033642267968975 0.9189110808941403
0.28441610436490916 0.4740651288422113 0.87400799498507
0.5019326491886223 0.38568478038219456 0.784864706277063
0.3755892703752866 0.4785556255158091 0.7991673839699223
0.3700068369679469 0.37033642267968975 0.9189110808941403
0.48441610436490923 0.4740651288422113 0.87400799498507
0.7019326491886224 0.38568478038219456 0.784864706277063
0.5755892703752866 0.4785556255158091 0.7991673839699223
0.570006836967947 0.37033642267968975 0.9189110808941403
0.6844161043649093 0.4740651288422113 0.87400799498507
0.9019326491886224 0.38568478038219456 0.784864706277063
0.7755892703752867 0.4785556255158091 0.7991673839699223
0.7700068369679469 0.37033642267968975 0.9189110808941403
0.8844161043649091 0.4740651288422113 0.87400799498507
0.10193264918862242 0.5856847803821945 0.784864706277063
-0.024410729624713398 0.6785556255158092 0.7991673839699223
-0.029993163032053117 0.5703364226796898 0.9189110808941403
0.08441610436490918 0.6740651288422113 0.87400799498507
0.30193264918862245 0.5856847803821945 0.784864706277063
0.1755892703752866 0.6785556255158092 0.7991673839699223
0.17000683696794688 0.5703364226796898 0.9189110808941403
0.28441610436490916 0.6740651288422113 0.87400799498507
0.5019326491886223 0.5856847803821945 0.784864706277063
0.3755892703752866 0.6785556255158092 0.7991673839699223
0.3700068369679469 0.5703364226796898 0.9189110808941403
0.48441610436490923 0.6740651288422113 0.87400799498507
0.7019326491886224 0.5856847803821945 0.784864706277063
0.5755892703752866 0.6785556255158092 0.7991673839699223
0.570006836967947 0.5703364226796898 0.9189110808941403
0.6844161043649093 0.6740651288422113 0.87400799498507
0.9019326491886224 0.5856847803821945 0.784864706277063
0.7755892703752867 0.6785556255158092 0.7991673839699223
0.7700068369679469 0.5703364226796898 0.9189110808941403
0.8844161043649091 0.6740651288422113 0.87400799498507
0.10193264918862242 0.7856847803821946 0.784864706277063
-0.024410729624713398 0.8785556255158092 0.7991673839699223
-0.029993163032053117 0.7703364226796898 0.9189110808941403
0.08441610436490918 0.8740651288422113 0.87400799498507
0.30193264918862245 0.7856847803821946 0.784864706277063
0.1755892703752866 0.8785556255158092 0.7991673839699223
0.17000683696794688 0.7703364226796898 0.9189110808941403
0.28441610436490916 0.8740651288422113 0.87400799498507
0.5019326491886223 0.7856847803821946 0.784864706277063
0.3755892703752866 0.8785556255158092 0.7991673839699223
0.3700068369679469 0.7703364226796898 0.9189110808941403
0.48441610436490923 0.8740651288422113 0.87400799498507
0.7019326491886224 0.7856847803821946 0.784864706277063
0.5755892703752866 0.8785556255158092 0.7991673839699223
0.570006836967947 0.7703364226796898 0.9189110808941403
0.6844161043649093 0.8740651288422113 0.87400799498507
0.9019326491886224 0.7856847803821946 0.784864706277063
0.7755892703752867 0.8785556255158092 0.7991673839699223
0.7700068369679469 0.7703364226796898 0.9189110808941403
0.8844161043649091 0.8740651288422113 0.87400799498507
