FCC BaO
3.971
5.0 0.0 0.0
0.0 5.0 0.0
0.0 0.0 5.0
Ba O 
500 500 
Direct
0.010496850252133537 -0.0019894492413574582 -0.020229843374631386
0.012119566663856536 0.12633868786986358 0.12345489410092021
0.129390479828426 0.007894138935640583 0.07131738168845832
0.1292090304129475 0.08169584311347604 -0.016657337722022318
0.21049685025213352 -0.0019894492413574582 -0.020229843374631386
0.21211956666385656 0.12633868786986358 0.12345489410092021
0.329390479828426 0.007894138935640583 0.07131738168845832
0.3292090304129476 0.08169584311347604 -0.016657337722022318
0.41049685025213356 -0.0019894492413574582 -0.020229843374631386
0.4121195666638565 0.12633868786986358 0.12345489410092021
0.529390479828426 0.007894138935640583 0.07131738168845832
0.5292090304129475 0.08169584311347604 -0.016657337722022318
0.6104968502521335 -0.0019894492413574582 -0.020229843374631386
0.6121195666638566 0.12633868786986358 0.12345489410092021
0.729390479828426 0.007894138935640583 0.07131738168845832
0.7292090304129476 0.08169584311347604 -0.016657337722022318
0.8104968502521337 -0.0019894492413574582 -0.020229843374631386
0.8121195666638565 0.12633868786986358 0.12345489410092021
0.929390479828426 0.007894138935640583 0.07131738168845832
0.9292090304129476 0.08169584311347604 -0.016657337722022318
0.010496850252133537 0.19801055075864255 -0.020229843374631386
0.012119566663856536 0.3263386878698636 0.12345489410092021
0.129390479828426 0.20789413893564057 0.07131738168845832
0.1292090304129475 0.28169584311347606 -0.016657337722022318
0.21049685025213352 0.19801055075864255 -0.020229843374631386
0.21211956666385656 0.3263386878698636 0.12345489410092021
0.329390479828426 0.20789413893564057 0.07131738168845832
0.3292090304129476 0.28169584311347606 -0.016657337722022318
0.41049685025213356 0.19801055075864255 -0.020229843374631386
0.4121195666638565 0.3263386878698636 0.12345489410092021
0.529390479828426 0.20789413893564057 0.07131738168845832
0.5292090304129475 0.28169584311347606 -0.016657337722022318
0.6104968502521335 0.19801055075864255 -0.020229843374631386
0.6121195666638566 0.3263386878698636 0.12345489410092021
0.729390479828426 0.20789413893564057 0.07131738168845832
0.7292090304129476 0.28169584311347606 -0.016657337722022318
0.8104968502521337 0.19801055075864255 -0.020229843374631386
0.8121195666638565 0.3263386878698636 0.12345489410092021
0.929390479828426 0.20789413893564057 0.07131738168845832
0.9292090304129476 0.28169584311347606 -0.016657337722022318
0.010496850252133537 0.39801055075864256 -0.020229843374631386
0.012119566663856536 0.5263386878698636 0.12345489410092021
0.129390479828426 0.40789413893564064 0.07131738168845832
0.1292090304129475 0.4816958431134761 -0.016657337722022318
0.21049685025213352 0.39801055075864256 -0.020229843374631386
0.21211956666385656 0.5263386878698636 0.12345489410092021
0.329390479828426 0.40789413893564064 0.07131738168845832
0.3292090304129476 0.4816958431134761 -0.016657337722022318
0.41049685025213356 0.39801055075864256 -0.020229843374631386
0.4121195666638565 0.5263386878698636 0.12345489410092021
0.529390479828426 0.40789413893564064 0.07131738168845832
0.5292090304129475 0.4816958431134761 -0.016657337722022318
0.6104968502521335 0.39801055075864256 -0.020229843374631386
0.6121195666638566 0.5263386878698636 0.12345489410092021
0.729390479828426 0.40789413893564064 0.07131738168845832
0.7292090304129476 0.4816958431134761 -0.016657337722022318
0.8104968502521337 0.39801055075864256 -0.020229843374631386
0.8121195666638565 0.5263386878698636 0.12345489410092021
0.929390479828426 0.40789413893564064 0.07131738168845832
0.9292090304129476 0.4816958431134761 -0.016657337722022318
0.010496850252133537 0.5980105507586425 -0.020229843374631386
0.012119566663856536 0.7263386878698637 0.12345489410092021
0.129390479828426 0.6078941389356407 0.07131738168845832
0.1292090304129475 0.6816958431134761 -0.016657337722022318
0.21049685025213352 0.5980105507586425 -0.020229843374631386
0.21211956666385656 0.7263386878698637 0.12345489410092021
0.329390479828426 0.6078941389356407 0.07131738168845832
0.3292090304129476 0.6816958431134761 -0.016657337722022318
0.41049685025213356 0.5980105507586425 -0.020229843374631386
0.4121195666638565 0.7263386878698637 0.12345489410092021
0.529390479828426 0.6078941389356407 0.07131738168845832
0.5292090304129475 0.6816958431134761 -0.016657337722022318
0.6104968502521335 0.5980105507586425 -0.020229843374631386
0.6121195666638566 0.7263386878698637 0.12345489410092021
0.729390479828426 0.6078941389356407 0.07131738168845832
0.7292090304129476 0.6816958431134761 -0.016657337722022318
0.8104968502521337 0.5980105507586425 -0.020229843374631386
0.8121195666638565 0.7263386878698637 0.12345489410092021
0.929390479828426 0.6078941389356407 0.07131738168845832
0.9292090304129476 0.6816958431134761 -0.016657337722022318
0.010496850252133537 0.7980105507586426 -0.020229843374631386
0.012119566663856536 0.9263386878698636 0.12345489410092021
0.129390479828426 0.8078941389356405 0.07131738168845832
0.1292090304129475 0.881695843113476 -0.016657337722022318
0.21049685025213352 0.7980105507586426 -0.020229843374631386
0.21211956666385656 0.9263386878698636 0.12345489410092021
0.329390479828426 0.8078941389356405 0.07131738168845832
0.3292090304129476 0.881695843113476 -0.016657337722022318
0.41049685025213356 0.7980105507586426 -0.020229843374631386
0.4121195666638565 0.9263386878698636 0.12345489410092021
0.529390479828426 0.8078941389356405 0.07131738168845832
0.5292090304129475 0.881695843113476 -0.016657337722022318
0.6104968502521335 0.7980105507586426 -0.020229843374631386
0.6121195666638566 0.9263386878698636 0.12345489410092021
0.729390479828426 0.8078941389356405 0.07131738168845832
0.7292090304129476 0.881695843113476 -0.016657337722022318
0.8104968502521337 0.7980105507586426 -0.020229843374631386
0.8121195666638565 0.9263386878698636 0.12345489410092021
0.929390479828426 0.8078941389356405 0.07131738168845832
0.9292090304129476 0.881695843113476 -0.016657337722022318
0.010496850252133537 -0.0019894492413574582 0.17977015662536863
0.012119566663856536 0.12633868786986358 0.32345489410092026
0.129390479828426 0.007894138935640583 0.27131738168845837
0.1292090304129475 0.08169584311347604 0.18334266227797769
0.21049685025213352 -0.0019894492413574582 0.17977015662536863
0.21211956666385656 0.12633868786986358 0.32345489410092026
0.329390479828426 0.007894138935640583 0.27131738168845837
0.3292090304129476 0.08169584311347604 0.18334266227797769
0.41049685025213356 -0.0019894492413574582 0.17977015662536863
0.4121195666638565 0.12633868786986358 0.32345489410092026
0.529390479828426 0.007894138935640583 0.27131738168845837
0.5292090304129475 0.08169584311347604 0.18334266227797769
0.6104968502521335 -0.0019894492413574582 0.17977015662536863
0.6121195666638566 0.12633868786986358 0.32345489410092026
0.729390479828426 0.007894138935640583 0.27131738168845837
0.7292090304129476 0.08169584311347604 0.18334266227797769
0.8104968502521337 -0.0019894492413574582 0.17977015662536863
0.8121195666638565 0.12633868786986358 0.32345489410092026
0.929390479828426 0.007894138935640583 0.27131738168845837
0.9292090304129476 0.08169584311347604 0.18334266227797769
0.010496850252133537 0.19801055075864255 0.17977015662536863
0.012119566663856536 0.3263386878698636 0.32345489410092026
0.129390479828426 0.20789413893564057 0.27131738168845837
0.1292090304129475 0.28169584311347606 0.18334266227797769
0.21049685025213352 0.19801055075864255 0.17977015662536863
0.21211956666385656 0.3263386878698636 0.32345489410092026
0.329390479828426 0.20789413893564057 0.27131738168845837
0.3292090304129476 0.28169584311347606 0.18334266227797769
0.41049685025213356 0.19801055075864255 0.17977015662536863
0.4121195666638565 0.3263386878698636 0.32345489410092026
0.529390479828426 0.20789413893564057 0.27131738168845837
0.5292090304129475 0.28169584311347606 0.18334266227797769
0.6104968502521335 0.19801055075864255 0.17977015662536863
0.6121195666638566 0.3263386878698636 0.32345489410092026
0.729390479828426 0.20789413893564057 0.27131738168845837
0.7292090304129476 0.28169584311347606 0.18334266227797769
0.8104968502521337 0.19801055075864255 0.17977015662536863
0.8121195666638565 0.3263386878698636 0.32345489410092026
0.929390479828426 0.20789413893564057 0.27131738168845837
0.9292090304129476 0.28169584311347606 0.18334266227797769
0.010496850252133537 0.39801055075864256 0.17977015662536863
0.012119566663856536 0.5263386878698636 0.32345489410092026
0.129390479828426 0.40789413893564064 0.27131738168845837
0.1292090304129475 0.4816958431134761 0.18334266227797769
0.21049685025213352 0.39801055075864256 0.17977015662536863
0.21211956666385656 0.5263386878698636 0.32345489410092026
0.329390479828426 0.40789413893564064 0.27131738168845837
0.3292090304129476 0.4816958431134761 0.18334266227797769
0.41049685025213356 0.39801055075864256 0.17977015662536863
0.4121195666638565 0.5263386878698636 0.32345489410092026
0.529390479828426 0.40789413893564064 0.27131738168845837
0.5292090304129475 0.4816958431134761 0.18334266227797769
0.6104968502521335 0.39801055075864256 0.17977015662536863
0.6121195666638566 0.5263386878698636 0.32345489410092026
0.729390479828426 0.40789413893564064 0.27131738168845837
0.7292090304129476 0.4816958431134761 0.18334266227797769
0.8104968502521337 0.39801055075864256 0.17977015662536863
0.8121195666638565 0.5263386878698636 0.32345489410092026
0.929390479828426 0.40789413893564064 0.27131738168845837
0.9292090304129476 0.4816958431134761 0.18334266227797769
0.010496850252133537 0.5980105507586425 0.17977015662536863
0.012119566663856536 0.7263386878698637 0.32345489410092026
0.129390479828426 0.6078941389356407 0.27131738168845837
0.1292090304129475 0.6816958431134761 0.18334266227797769
0.21049685025213352 0.5980105507586425 0.17977015662536863
0.21211956666385656 0.7263386878698637 0.32345489410092026
0.329390479828426 0.6078941389356407 0.27131738168845837
0.3292090304129476 0.6816958431134761 0.18334266227797769
0.41049685025213356 0.5980105507586425 0.17977015662536863
0.4121195666638565 0.7263386878698637 0.32345489410092026
0.529390479828426 0.6078941389356407 0.27131738168845837
0.5292090304129475 0.6816958431134761 0.18334266227797769
0.6104968502521335 0.5980105507586425 0.17977015662536863
0.6121195666638566 0.7263386878698637 0.32345489410092026
0.729390479828426 0.6078941389356407 0.27131738168845837
0.7292090304129476 0.6816958431134761 0.18334266227797769
0.8104968502521337 0.5980105507586425 0.17977015662536863
0.8121195666638565 0.7263386878698637 0.32345489410092026
0.929390479828426 0.6078941389356407 0.27131738168845837
0.9292090304129476 0.6816958431134761 0.18334266227797769
0.010496850252133537 0.7980105507586426 0.17977015662536863
0.012119566663856536 0.9263386878698636 0.32345489410092026
0.129390479828426 0.8078941389356405 0.27131738168845837
0.1292090304129475 0.881695843113476 0.18334266227797769
0.21049685025213352 0.7980105507586426 0.17977015662536863
0.21211956666385656 0.9263386878698636 0.32345489410092026
0.329390479828426 0.8078941389356405 0.27131738168845837
0.3292090304129476 0.881695843113476 0.18334266227797769
0.41049685025213356 0.7980105507586426 0.17977015662536863
0.4121195666638565 0.9263386878698636 0.32345489410092026
0.529390479828426 0.8078941389356405 0.27131738168845837
0.5292090304129475 0.881695843113476 0.18334266227797769
0.6104968502521335 0.7980105507586426 0.17977015662536863
0.6121195666638566 0.9263386878698636 0.32345489410092026
0.729390479828426 0.8078941389356405 0.27131738168845837
0.7292090304129476 0.881695843113476 0.18334266227797769
0.8104968502521337 0.7980105507586426 0.17977015662536863
0.8121195666638565 0.9263386878698636 0.32345489410092026
0.929390479828426 0.8078941389356405 0.27131738168845837
0.9292090304129476 0.881695843113476 0.18334266227797769
0.010496850252133537 -0.0019894492413574582 0.3797701566253686
0.012119566663856536 0.12633868786986358 0.5234548941009203
0.129390479828426 0.007894138935640583 0.4713173816884584
0.1292090304129475 0.08169584311347604 0.3833426622779777
0.21049685025213352 -0.0019894492413574582 0.3797701566253686
0.21211956666385656 0.12633868786986358 0.5234548941009203
0.329390479828426 0.007894138935640583 0.4713173816884584
0.3292090304129476 0.08169584311347604 0.3833426622779777
0.41049685025213356 -0.0019894492413574582 0.3797701566253686
0.4121195666638565 0.12633868786986358 0.5234548941009203
0.529390479828426 0.007894138935640583 0.4713173816884584
0.5292090304129475 0.08169584311347604 0.3833426622779777
0.6104968502521335 -0.0019894492413574582 0.3797701566253686
0.6121195666638566 0.12633868786986358 0.5234548941009203
0.729390479828426 0.007894138935640583 0.4713173816884584
0.7292090304129476 0.08169584311347604 0.3833426622779777
0.8104968502521337 -0.0019894492413574582 0.3797701566253686
0.8121195666638565 0.12633868786986358 0.5234548941009203
0.929390479828426 0.007894138935640583 0.4713173816884584
0.9292090304129476 0.08169584311347604 0.3833426622779777
0.010496850252133537 0.19801055075864255 0.3797701566253686
0.012119566663856536 0.3263386878698636 0.5234548941009203
0.129390479828426 0.20789413893564057 0.4713173816884584
0.1292090304129475 0.28169584311347606 0.3833426622779777
0.21049685025213352 0.19801055075864255 0.3797701566253686
0.21211956666385656 0.3263386878698636 0.5234548941009203
0.329390479828426 0.20789413893564057 0.4713173816884584
0.3292090304129476 0.28169584311347606 0.3833426622779777
0.41049685025213356 0.19801055075864255 0.3797701566253686
0.4121195666638565 0.3263386878698636 0.5234548941009203
0.529390479828426 0.20789413893564057 0.4713173816884584
0.5292090304129475 0.28169584311347606 0.3833426622779777
0.6104968502521335 0.19801055075864255 0.3797701566253686
0.6121195666638566 0.3263386878698636 0.5234548941009203
0.729390479828426 0.20789413893564057 0.4713173816884584
0.7292090304129476 0.28169584311347606 0.3833426622779777
0.8104968502521337 0.19801055075864255 0.3797701566253686
0.8121195666638565 0.3263386878698636 0.5234548941009203
0.929390479828426 0.20789413893564057 0.4713173816884584
0.9292090304129476 0.28169584311347606 0.3833426622779777
0.010496850252133537 0.39801055075864256 0.3797701566253686
0.012119566663856536 0.5263386878698636 0.5234548941009203
0.129390479828426 0.40789413893564064 0.4713173816884584
0.1292090304129475 0.4816958431134761 0.3833426622779777
0.21049685025213352 0.39801055075864256 0.3797701566253686
0.21211956666385656 0.5263386878698636 0.5234548941009203
0.329390479828426 0.40789413893564064 0.4713173816884584
0.3292090304129476 0.4816958431134761 0.3833426622779777
0.41049685025213356 0.39801055075864256 0.3797701566253686
0.4121195666638565 0.5263386878698636 0.5234548941009203
0.529390479828426 0.40789413893564064 0.4713173816884584
0.5292090304129475 0.4816958431134761 0.3833426622779777
0.6104968502521335 0.39801055075864256 0.3797701566253686
0.6121195666638566 0.5263386878698636 0.5234548941009203
0.729390479828426 0.40789413893564064 0.4713173816884584
0.7292090304129476 0.4816958431134761 0.3833426622779777
0.8104968502521337 0.39801055075864256 0.3797701566253686
0.8121195666638565 0.5263386878698636 0.5234548941009203
0.929390479828426 0.40789413893564064 0.4713173816884584
0.9292090304129476 0.4816958431134761 0.3833426622779777
0.010496850252133537 0.5980105507586425 0.3797701566253686
0.012119566663856536 0.7263386878698637 0.5234548941009203
0.129390479828426 0.6078941389356407 0.4713173816884584
0.1292090304129475 0.6816958431134761 0.3833426622779777
0.21049685025213352 0.5980105507586425 0.3797701566253686
0.21211956666385656 0.7263386878698637 0.5234548941009203
0.329390479828426 0.6078941389356407 0.4713173816884584
0.3292090304129476 0.6816958431134761 0.3833426622779777
0.41049685025213356 0.5980105507586425 0.3797701566253686
0.4121195666638565 0.7263386878698637 0.5234548941009203
0.529390479828426 0.6078941389356407 0.4713173816884584
0.5292090304129475 0.6816958431134761 0.3833426622779777
0.6104968502521335 0.5980105507586425 0.3797701566253686
0.6121195666638566 0.7263386878698637 0.5234548941009203
0.729390479828426 0.6078941389356407 0.4713173816884584
0.7292090304129476 0.6816958431134761 0.3833426622779777
0.8104968502521337 0.5980105507586425 0.3797701566253686
0.8121195666638565 0.7263386878698637 0.5234548941009203
0.929390479828426 0.6078941389356407 0.4713173816884584
0.9292090304129476 0.6816958431134761 0.3833426622779777
0.010496850252133537 0.7980105507586426 0.3797701566253686
0.012119566663856536 0.9263386878698636 0.5234548941009203
0.129390479828426 0.8078941389356405 0.4713173816884584
0.1292090304129475 0.881695843113476 0.3833426622779777
0.21049685025213352 0.7980105507586426 0.3797701566253686
0.21211956666385656 0.9263386878698636 0.5234548941009203
0.329390479828426 0.8078941389356405 0.4713173816884584
0.3292090304129476 0.881695843113476 0.3833426622779777
0.41049685025213356 0.7980105507586426 0.3797701566253686
0.4121195666638565 0.9263386878698636 0.5234548941009203
0.529390479828426 0.8078941389356405 0.4713173816884584
0.5292090304129475 0.881695843113476 0.3833426622779777
0.6104968502521335 0.7980105507586426 0.3797701566253686
0.6121195666638566 0.9263386878698636 0.5234548941009203
0.729390479828426 0.8078941389356405 0.4713173816884584
0.7292090304129476 0.881695843113476 0.3833426622779777
0.8104968502521337 0.7980105507586426 0.3797701566253686
0.8121195666638565 0.9263386878698636 0.5234548941009203
0.929390479828426 0.8078941389356405 0.4713173816884584
0.9292090304129476 0.881695843113476 0.3833426622779777
0.010496850252133537 -0.0019894492413574582 0.5797701566253686
0.012119566663856536 0.12633868786986358 0.7234548941009202
0.129390479828426 0.007894138935640583 0.6713173816884583
0.1292090304129475 0.08169584311347604 0.5833426622779777
0.21049685025213352 -0.0019894492413574582 0.5797701566253686
0.21211956666385656 0.12633868786986358 0.7234548941009202
0.329390479828426 0.007894138935640583 0.6713173816884583
0.3292090304129476 0.08169584311347604 0.5833426622779777
0.41049685025213356 -0.0019894492413574582 0.5797701566253686
0.4121195666638565 0.12633868786986358 0.7234548941009202
0.529390479828426 0.007894138935640583 0.6713173816884583
0.5292090304129475 0.08169584311347604 0.5833426622779777
0.6104968502521335 -0.0019894492413574582 0.5797701566253686
0.6121195666638566 0.12633868786986358 0.7234548941009202
0.729390479828426 0.007894138935640583 0.6713173816884583
0.7292090304129476 0.08169584311347604 0.5833426622779777
0.8104968502521337 -0.0019894492413574582 0.5797701566253686
0.8121195666638565 0.12633868786986358 0.7234548941009202
0.929390479828426 0.007894138935640583 0.6713173816884583
0.9292090304129476 0.08169584311347604 0.5833426622779777
0.010496850252133537 0.19801055075864255 0.5797701566253686
0.012119566663856536 0.3263386878698636 0.7234548941009202
0.129390479828426 0.20789413893564057 0.6713173816884583
0.1292090304129475 0.28169584311347606 0.5833426622779777
0.21049685025213352 0.19801055075864255 0.5797701566253686
0.21211956666385656 0.3263386878698636 0.7234548941009202
0.329390479828426 0.20789413893564057 0.6713173816884583
0.3292090304129476 0.28169584311347606 0.5833426622779777
0.41049685025213356 0.19801055075864255 0.5797701566253686
0.4121195666638565 0.3263386878698636 0.7234548941009202
0.529390479828426 0.20789413893564057 0.6713173816884583
0.5292090304129475 0.28169584311347606 0.5833426622779777
0.6104968502521335 0.19801055075864255 0.5797701566253686
0.6121195666638566 0.3263386878698636 0.7234548941009202
0.729390479828426 0.20789413893564057 0.6713173816884583
0.7292090304129476 0.28169584311347606 0.5833426622779777
0.8104968502521337 0.19801055075864255 0.5797701566253686
0.8121195666638565 0.3263386878698636 0.7234548941009202
0.929390479828426 0.20789413893564057 0.6713173816884583
0.9292090304129476 0.28169584311347606 0.5833426622779777
0.010496850252133537 0.39801055075864256 0.5797701566253686
0.012119566663856536 0.5263386878698636 0.7234548941009202
0.129390479828426 0.40789413893564064 0.6713173816884583
0.1292090304129475 0.4816958431134761 0.5833426622779777
0.21049685025213352 0.39801055075864256 0.5797701566253686
0.21211956666385656 0.5263386878698636 0.7234548941009202
0.329390479828426 0.40789413893564064 0.6713173816884583
0.3292090304129476 0.4816958431134761 0.5833426622779777
0.41049685025213356 0.39801055075864256 0.5797701566253686
0.4121195666638565 0.5263386878698636 0.7234548941009202
0.529390479828426 0.40789413893564064 0.6713173816884583
0.5292090304129475 0.4816958431134761 0.5833426622779777
0.6104968502521335 0.39801055075864256 0.5797701566253686
0.6121195666638566 0.5263386878698636 0.7234548941009202
0.729390479828426 0.40789413893564064 0.6713173816884583
0.7292090304129476 0.4816958431134761 0.5833426622779777
0.8104968502521337 0.39801055075864256 0.5797701566253686
0.8121195666638565 0.5263386878698636 0.7234548941009202
0.929390479828426 0.40789413893564064 0.6713173816884583
0.9292090304129476 0.4816958431134761 0.5833426622779777
0.010496850252133537 0.5980105507586425 0.5797701566253686
0.012119566663856536 0.7263386878698637 0.7234548941009202
0.129390479828426 0.6078941389356407 0.6713173816884583
0.1292090304129475 0.6816958431134761 0.5833426622779777
0.21049685025213352 0.5980105507586425 0.5797701566253686
0.21211956666385656 0.7263386878698637 0.7234548941009202
0.329390479828426 0.6078941389356407 0.6713173816884583
0.3292090304129476 0.6816958431134761 0.5833426622779777
0.41049685025213356 0.5980105507586425 0.5797701566253686
0.4121195666638565 0.7263386878698637 0.7234548941009202
0.529390479828426 0.6078941389356407 0.6713173816884583
0.5292090304129475 0.6816958431134761 0.5833426622779777
0.6104968502521335 0.5980105507586425 0.5797701566253686
0.6121195666638566 0.7263386878698637 0.7234548941009202
0.729390479828426 0.6078941389356407 0.6713173816884583
0.7292090304129476 0.6816958431134761 0.5833426622779777
0.8104968502521337 0.5980105507586425 0.5797701566253686
0.8121195666638565 0.7263386878698637 0.7234548941009202
0.929390479828426 0.6078941389356407 0.6713173816884583
0.9292090304129476 0.6816958431134761 0.5833426622779777
0.010496850252133537 0.7980105507586426 0.5797701566253686
0.012119566663856536 0.9263386878698636 0.7234548941009202
0.129390479828426 0.8078941389356405 0.6713173816884583
0.1292090304129475 0.881695843113476 0.5833426622779777
0.21049685025213352 0.7980105507586426 0.5797701566253686
0.21211956666385656 0.9263386878698636 0.7234548941009202
0.329390479828426 0.8078941389356405 0.6713173816884583
0.3292090304129476 0.881695843113476 0.5833426622779777
0.41049685025213356 0.7980105507586426 0.5797701566253686
0.4121195666638565 0.9263386878698636 0.7234548941009202
0.529390479828426 0.8078941389356405 0.6713173816884583
0.5292090304129475 0.881695843113476 0.5833426622779777
0.6104968502521335 0.7980105507586426 0.5797701566253686
0.6121195666638566 0.9263386878698636 0.7234548941009202
0.729390479828426 0.8078941389356405 0.6713173816884583
0.7292090304129476 0.881695843113476 0.5833426622779777
0.8104968502521337 0.7980105507586426 0.5797701566253686
0.8121195666638565 0.9263386878698636 0.7234548941009202
0.929390479828426 0.8078941389356405 0.6713173816884583
0.9292090304129476 0.881695843113476 0.5833426622779777
0.010496850252133537 -0.0019894492413574582 0.7797701566253686
0.012119566663856536 0.12633868786986358 0.9234548941009202
0.129390479828426 0.007894138935640583 0.8713173816884583
0.1292090304129475 0.08169584311347604 0.7833426622779777
0.21049685025213352 -0.0019894492413574582 0.7797701566253686
0.21211956666385656 0.12633868786986358 0.9234548941009202
0.329390479828426 0.007894138935640583 0.8713173816884583
0.3292090304129476 0.08169584311347604 0.7833426622779777
0.41049685025213356 -0.0019894492413574582 0.7797701566253686
0.4121195666638565 0.12633868786986358 0.9234548941009202
0.529390479828426 0.007894138935640583 0.8713173816884583
0.5292090304129475 0.08169584311347604 0.7833426622779777
0.6104968502521335 -0.0019894492413574582 0.7797701566253686
0.6121195666638566 0.12633868786986358 0.9234548941009202
0.729390479828426 0.007894138935640583 0.8713173816884583
0.7292090304129476 0.08169584311347604 0.7833426622779777
0.8104968502521337 -0.0019894492413574582 0.7797701566253686
0.8121195666638565 0.12633868786986358 0.9234548941009202
0.929390479828426 0.007894138935640583 0.8713173816884583
0.9292090304129476 0.08169584311347604 0.7833426622779777
0.010496850252133537 0.19801055075864255 0.7797701566253686
0.012119566663856536 0.3263386878698636 0.9234548941009202
0.129390479828426 0.20789413893564057 0.8713173816884583
0.1292090304129475 0.28169584311347606 0.7833426622779777
0.21049685025213352 0.19801055075864255 0.7797701566253686
0.21211956666385656 0.3263386878698636 0.9234548941009202
0.329390479828426 0.20789413893564057 0.8713173816884583
0.3292090304129476 0.28169584311347606 0.7833426622779777
0.41049685025213356 0.19801055075864255 0.7797701566253686
0.4121195666638565 0.3263386878698636 0.9234548941009202
0.529390479828426 0.20789413893564057 0.8713173816884583
0.5292090304129475 0.28169584311347606 0.7833426622779777
0.6104968502521335 0.19801055075864255 0.7797701566253686
0.6121195666638566 0.3263386878698636 0.9234548941009202
0.729390479828426 0.20789413893564057 0.8713173816884583
0.7292090304129476 0.28169584311347606 0.7833426622779777
0.8104968502521337 0.19801055075864255 0.7797701566253686
0.8121195666638565 0.3263386878698636 0.9234548941009202
0.929390479828426 0.20789413893564057 0.8713173816884583
0.9292090304129476 0.28169584311347606 0.7833426622779777
0.010496850252133537 0.39801055075864256 0.7797701566253686
0.012119566663856536 0.5263386878698636 0.9234548941009202
0.129390479828426 0.40789413893564064 0.8713173816884583
0.1292090304129475 0.4816958431134761 0.7833426622779777
0.21049685025213352 0.39801055075864256 0.7797701566253686
0.21211956666385656 0.5263386878698636 0.9234548941009202
0.329390479828426 0.40789413893564064 0.8713173816884583
0.3292090304129476 0.4816958431134761 0.7833426622779777
0.41049685025213356 0.39801055075864256 0.7797701566253686
0.4121195666638565 0.5263386878698636 0.9234548941009202
0.529390479828426 0.40789413893564064 0.8713173816884583
0.5292090304129475 0.4816958431134761 0.7833426622779777
0.6104968502521335 0.39801055075864256 0.7797701566253686
0.6121195666638566 0.5263386878698636 0.9234548941009202
0.729390479828426 0.40789413893564064 0.8713173816884583
0.7292090304129476 0.4816958431134761 0.7833426622779777
0.8104968502521337 0.39801055075864256 0.7797701566253686
0.8121195666638565 0.5263386878698636 0.9234548941009202
0.929390479828426 0.40789413893564064 0.8713173816884583
0.9292090304129476 0.4816958431134761 0.7833426622779777
0.010496850252133537 0.5980105507586425 0.7797701566253686
0.012119566663856536 0.7263386878698637 0.9234548941009202
0.129390479828426 0.6078941389356407 0.8713173816884583
0.1292090304129475 0.6816958431134761 0.7833426622779777
0.21049685025213352 0.5980105507586425 0.7797701566253686
0.21211956666385656 0.7263386878698637 0.9234548941009202
0.329390479828426 0.6078941389356407 0.8713173816884583
0.3292090304129476 0.6816958431134761 0.7833426622779777
0.41049685025213356 0.5980105507586425 0.7797701566253686
0.4121195666638565 0.7263386878698637 0.9234548941009202
0.529390479828426 0.6078941389356407 0.8713173816884583
0.5292090304129475 0.6816958431134761 0.7833426622779777
0.6104968502521335 0.5980105507586425 0.7797701566253686
0.6121195666638566 0.7263386878698637 0.9234548941009202
0.729390479828426 0.6078941389356407 0.8713173816884583
0.7292090304129476 0.6816958431134761 0.7833426622779777
0.8104968502521337 0.5980105507586425 0.7797701566253686
0.8121195666638565 0.7263386878698637 0.9234548941009202
0.929390479828426 0.6078941389356407 0.8713173816884583
0.9292090304129476 0.6816958431134761 0.7833426622779777
0.010496850252133537 0.7980105507586426 0.7797701566253686
0.012119566663856536 0.9263386878698636 0.9234548941009202
0.129390479828426 0.8078941389356405 0.8713173816884583
0.1292090304129475 0.881695843113476 0.7833426622779777
0.21049685025213352 0.7980105507586426 0.7797701566253686
0.21211956666385656 0.9263386878698636 0.9234548941009202
0.329390479828426 0.8078941389356405 0.8713173816884583
0.3292090304129476 0.881695843113476 0.7833426622779777
0.41049685025213356 0.7980105507586426 0.7797701566253686
0.4121195666638565 0.9263386878698636 0.9234548941009202
0.529390479828426 0.8078941389356405 0.8713173816884583
0.5292090304129475 0.881695843113476 0.7833426622779777
0.6104968502521335 0.7980105507586426 0.7797701566253686
0.6121195666638566 0.9263386878698636 0.9234548941009202
0.729390479828426 0.8078941389356405 0.8713173816884583
0.7292090304129476 0.881695843113476 0.7833426622779777
0.8104968502521337 0.7980105507586426 0.7797701566253686
0.8121195666638565 0.9263386878698636 0.9234548941009202
0.929390479828426 0.8078941389356405 0.8713173816884583
0.9292090304129476 0.881695843113476 0.7833426622779777
0.10827038134490669 -0.014264248323679724 0.010999529884061417
0.003442501963954596 0.08756758440639772 0.02913593027031987
0.024178103726089722 -0.02666581457473054 0.0758247137942592
0.12235993255950453 0.09927332500762392 0.10354610079464106
0.3082703813449067 -0.014264248323679724 0.010999529884061417
0.20344250196395464 0.08756758440639772 0.02913593027031987
0.2241781037260897 -0.02666581457473054 0.0758247137942592
0.32235993255950457 0.09927332500762392 0.10354610079464106
0.5082703813449067 -0.014264248323679724 0.010999529884061417
0.4034425019639546 0.08756758440639772 0.02913593027031987
0.4241781037260897 -0.02666581457473054 0.0758247137942592
0.5223599325595045 0.09927332500762392 0.10354610079464106
0.7082703813449067 -0.014264248323679724 0.010999529884061417
0.6034425019639547 0.08756758440639772 0.02913593027031987
0.6241781037260897 -0.02666581457473054 0.0758247137942592
0.7223599325595046 0.09927332500762392 0.10354610079464106
0.9082703813449067 -0.014264248323679724 0.010999529884061417
0.8034425019639546 0.08756758440639772 0.02913593027031987
0.8241781037260898 -0.02666581457473054 0.0758247137942592
0.9223599325595047 0.09927332500762392 0.10354610079464106
0.10827038134490669 0.18573575167632028 0.010999529884061417
0.003442501963954596 0.28756758440639774 0.02913593027031987
0.024178103726089722 0.17333418542526946 0.0758247137942592
0.12235993255950453 0.29927332500762394 0.10354610079464106
0.3082703813449067 0.18573575167632028 0.010999529884061417
0.20344250196395464 0.28756758440639774 0.02913593027031987
0.2241781037260897 0.17333418542526946 0.0758247137942592
0.32235993255950457 0.29927332500762394 0.10354610079464106
0.5082703813449067 0.18573575167632028 0.010999529884061417
0.4034425019639546 0.28756758440639774 0.02913593027031987
0.4241781037260897 0.17333418542526946 0.0758247137942592
0.5223599325595045 0.29927332500762394 0.10354610079464106
0.7082703813449067 0.18573575167632028 0.010999529884061417
0.6034425019639547 0.28756758440639774 0.02913593027031987
0.6241781037260897 0.17333418542526946 0.0758247137942592
0.7223599325595046 0.29927332500762394 0.10354610079464106
0.9082703813449067 0.18573575167632028 0.010999529884061417
0.8034425019639546 0.28756758440639774 0.02913593027031987
0.8241781037260898 0.17333418542526946 0.0758247137942592
0.9223599325595047 0.29927332500762394 0.10354610079464106
0.10827038134490669 0.3857357516763203 0.010999529884061417
0.003442501963954596 0.48756758440639775 0.02913593027031987
0.024178103726089722 0.37333418542526947 0.0758247137942592
0.12235993255950453 0.49927332500762395 0.10354610079464106
0.3082703813449067 0.3857357516763203 0.010999529884061417
0.20344250196395464 0.48756758440639775 0.02913593027031987
0.2241781037260897 0.37333418542526947 0.0758247137942592
0.32235993255950457 0.49927332500762395 0.10354610079464106
0.5082703813449067 0.3857357516763203 0.010999529884061417
0.4034425019639546 0.48756758440639775 0.02913593027031987
0.4241781037260897 0.37333418542526947 0.0758247137942592
0.5223599325595045 0.49927332500762395 0.10354610079464106
0.7082703813449067 0.3857357516763203 0.010999529884061417
0.6034425019639547 0.48756758440639775 0.02913593027031987
0.6241781037260897 0.37333418542526947 0.0758247137942592
0.7223599325595046 0.49927332500762395 0.10354610079464106
0.9082703813449067 0.3857357516763203 0.010999529884061417
0.8034425019639546 0.48756758440639775 0.02913593027031987
0.8241781037260898 0.37333418542526947 0.0758247137942592
0.9223599325595047 0.49927332500762395 0.10354610079464106
0.10827038134490669 0.5857357516763203 0.010999529884061417
0.003442501963954596 0.6875675844063978 0.02913593027031987
0.024178103726089722 0.5733341854252695 0.0758247137942592
0.12235993255950453 0.699273325007624 0.10354610079464106
0.3082703813449067 0.5857357516763203 0.010999529884061417
0.20344250196395464 0.6875675844063978 0.02913593027031987
0.2241781037260897 0.5733341854252695 0.0758247137942592
0.32235993255950457 0.699273325007624 0.10354610079464106
0.5082703813449067 0.5857357516763203 0.010999529884061417
0.4034425019639546 0.6875675844063978 0.02913593027031987
0.4241781037260897 0.5733341854252695 0.0758247137942592
0.5223599325595045 0.699273325007624 0.10354610079464106
0.7082703813449067 0.5857357516763203 0.010999529884061417
0.6034425019639547 0.6875675844063978 0.02913593027031987
0.6241781037260897 0.5733341854252695 0.0758247137942592
0.7223599325595046 0.699273325007624 0.10354610079464106
0.9082703813449067 0.5857357516763203 0.010999529884061417
0.8034425019639546 0.6875675844063978 0.02913593027031987
0.8241781037260898 0.5733341854252695 0.0758247137942592
0.9223599325595047 0.699273325007624 0.10354610079464106
0.10827038134490669 0.7857357516763203 0.010999529884061417
0.003442501963954596 0.8875675844063977 0.02913593027031987
0.024178103726089722 0.7733341854252695 0.0758247137942592
0.12235993255950453 0.8992733250076239 0.10354610079464106
0.3082703813449067 0.7857357516763203 0.010999529884061417
0.20344250196395464 0.8875675844063977 0.02913593027031987
0.2241781037260897 0.7733341854252695 0.0758247137942592
0.32235993255950457 0.8992733250076239 0.10354610079464106
0.5082703813449067 0.7857357516763203 0.010999529884061417
0.4034425019639546 0.8875675844063977 0.02913593027031987
0.4241781037260897 0.7733341854252695 0.0758247137942592
0.5223599325595045 0.8992733250076239 0.10354610079464106
0.7082703813449067 0.7857357516763203 0.010999529884061417
0.6034425019639547 0.8875675844063977 0.02913593027031987
0.6241781037260897 0.7733341854252695 0.0758247137942592
0.7223599325595046 0.8992733250076239 0.10354610079464106
0.9082703813449067 0.7857357516763203 0.010999529884061417
0.8034425019639546 0.8875675844063977 0.02913593027031987
0.8241781037260898 0.7733341854252695 0.0758247137942592
0.9223599325595047 0.8992733250076239 0.10354610079464106
0.10827038134490669 -0.014264248323679724 0.21099952988406143
0.003442501963954596 0.08756758440639772 0.2291359302703199
0.024178103726089722 -0.02666581457473054 0.2758247137942592
0.12235993255950453 0.09927332500762392 0.30354610079464106
0.3082703813449067 -0.014264248323679724 0.21099952988406143
0.20344250196395464 0.08756758440639772 0.2291359302703199
0.2241781037260897 -0.02666581457473054 0.2758247137942592
0.32235993255950457 0.09927332500762392 0.30354610079464106
0.5082703813449067 -0.014264248323679724 0.21099952988406143
0.4034425019639546 0.08756758440639772 0.2291359302703199
0.4241781037260897 -0.02666581457473054 0.2758247137942592
0.5223599325595045 0.09927332500762392 0.30354610079464106
0.7082703813449067 -0.014264248323679724 0.21099952988406143
0.6034425019639547 0.08756758440639772 0.2291359302703199
0.6241781037260897 -0.02666581457473054 0.2758247137942592
0.7223599325595046 0.09927332500762392 0.30354610079464106
0.9082703813449067 -0.014264248323679724 0.21099952988406143
0.8034425019639546 0.08756758440639772 0.2291359302703199
0.8241781037260898 -0.02666581457473054 0.2758247137942592
0.9223599325595047 0.09927332500762392 0.30354610079464106
0.10827038134490669 0.18573575167632028 0.21099952988406143
0.003442501963954596 0.28756758440639774 0.2291359302703199
0.024178103726089722 0.17333418542526946 0.2758247137942592
0.12235993255950453 0.29927332500762394 0.30354610079464106
0.3082703813449067 0.18573575167632028 0.21099952988406143
0.20344250196395464 0.28756758440639774 0.2291359302703199
0.2241781037260897 0.17333418542526946 0.2758247137942592
0.32235993255950457 0.29927332500762394 0.30354610079464106
0.5082703813449067 0.18573575167632028 0.21099952988406143
0.4034425019639546 0.28756758440639774 0.2291359302703199
0.4241781037260897 0.17333418542526946 0.2758247137942592
0.5223599325595045 0.29927332500762394 0.30354610079464106
0.7082703813449067 0.18573575167632028 0.21099952988406143
0.6034425019639547 0.28756758440639774 0.2291359302703199
0.6241781037260897 0.17333418542526946 0.2758247137942592
0.7223599325595046 0.29927332500762394 0.30354610079464106
0.9082703813449067 0.18573575167632028 0.21099952988406143
0.8034425019639546 0.28756758440639774 0.2291359302703199
0.8241781037260898 0.17333418542526946 0.2758247137942592
0.9223599325595047 0.29927332500762394 0.30354610079464106
0.10827038134490669 0.3857357516763203 0.21099952988406143
0.003442501963954596 0.48756758440639775 0.2291359302703199
0.024178103726089722 0.37333418542526947 0.2758247137942592
0.12235993255950453 0.49927332500762395 0.30354610079464106
0.3082703813449067 0.3857357516763203 0.21099952988406143
0.20344250196395464 0.48756758440639775 0.2291359302703199
0.2241781037260897 0.37333418542526947 0.2758247137942592
0.32235993255950457 0.49927332500762395 0.30354610079464106
0.5082703813449067 0.3857357516763203 0.21099952988406143
0.4034425019639546 0.48756758440639775 0.2291359302703199
0.4241781037260897 0.37333418542526947 0.2758247137942592
0.5223599325595045 0.49927332500762395 0.30354610079464106
0.7082703813449067 0.3857357516763203 0.21099952988406143
0.6034425019639547 0.48756758440639775 0.2291359302703199
0.6241781037260897 0.37333418542526947 0.2758247137942592
0.7223599325595046 0.49927332500762395 0.30354610079464106
0.9082703813449067 0.3857357516763203 0.21099952988406143
0.8034425019639546 0.48756758440639775 0.2291359302703199
0.8241781037260898 0.37333418542526947 0.2758247137942592
0.9223599325595047 0.49927332500762395 0.30354610079464106
0.10827038134490669 0.5857357516763203 0.21099952988406143
0.003442501963954596 0.6875675844063978 0.2291359302703199
0.024178103726089722 0.5733341854252695 0.2758247137942592
0.12235993255950453 0.699273325007624 0.30354610079464106
0.3082703813449067 0.5857357516763203 0.21099952988406143
0.20344250196395464 0.6875675844063978 0.2291359302703199
0.2241781037260897 0.5733341854252695 0.2758247137942592
0.32235993255950457 0.699273325007624 0.30354610079464106
0.5082703813449067 0.5857357516763203 0.21099952988406143
0.4034425019639546 0.6875675844063978 0.2291359302703199
0.4241781037260897 0.5733341854252695 0.2758247137942592
0.5223599325595045 0.699273325007624 0.30354610079464106
0.7082703813449067 0.5857357516763203 0.21099952988406143
0.6034425019639547 0.6875675844063978 0.2291359302703199
0.6241781037260897 0.5733341854252695 0.2758247137942592
0.7223599325595046 0.699273325007624 0.30354610079464106
0.9082703813449067 0.5857357516763203 0.21099952988406143
0.8034425019639546 0.6875675844063978 0.2291359302703199
0.8241781037260898 0.5733341854252695 0.2758247137942592
0.9223599325595047 0.699273325007624 0.30354610079464106
0.10827038134490669 0.7857357516763203 0.21099952988406143
0.003442501963954596 0.8875675844063977 0.2291359302703199
0.024178103726089722 0.7733341854252695 0.2758247137942592
0.12235993255950453 0.8992733250076239 0.30354610079464106
0.3082703813449067 0.7857357516763203 0.21099952988406143
0.20344250196395464 0.8875675844063977 0.2291359302703199
0.2241781037260897 0.7733341854252695 0.2758247137942592
0.32235993255950457 0.8992733250076239 0.30354610079464106
0.5082703813449067 0.7857357516763203 0.21099952988406143
0.4034425019639546 0.8875675844063977 0.2291359302703199
0.4241781037260897 0.7733341854252695 0.2758247137942592
0.5223599325595045 0.8992733250076239 0.30354610079464106
0.7082703813449067 0.7857357516763203 0.21099952988406143
0.6034425019639547 0.8875675844063977 0.2291359302703199
0.6241781037260897 0.7733341854252695 0.2758247137942592
0.7223599325595046 0.8992733250076239 0.30354610079464106
0.9082703813449067 0.7857357516763203 0.21099952988406143
0.8034425019639546 0.8875675844063977 0.2291359302703199
0.8241781037260898 0.7733341854252695 0.2758247137942592
0.9223599325595047 0.8992733250076239 0.30354610079464106
0.10827038134490669 -0.014264248323679724 0.4109995298840614
0.003442501963954596 0.08756758440639772 0.4291359302703199
0.024178103726089722 -0.02666581457473054 0.47582471379425917
0.12235993255950453 0.09927332500762392 0.503546100794641
0.3082703813449067 -0.014264248323679724 0.4109995298840614
0.20344250196395464 0.08756758440639772 0.4291359302703199
0.2241781037260897 -0.02666581457473054 0.47582471379425917
0.32235993255950457 0.09927332500762392 0.503546100794641
0.5082703813449067 -0.014264248323679724 0.4109995298840614
0.4034425019639546 0.08756758440639772 0.4291359302703199
0.4241781037260897 -0.02666581457473054 0.47582471379425917
0.5223599325595045 0.09927332500762392 0.503546100794641
0.7082703813449067 -0.014264248323679724 0.4109995298840614
0.6034425019639547 0.08756758440639772 0.4291359302703199
0.6241781037260897 -0.02666581457473054 0.47582471379425917
0.7223599325595046 0.09927332500762392 0.503546100794641
0.9082703813449067 -0.014264248323679724 0.4109995298840614
0.8034425019639546 0.08756758440639772 0.4291359302703199
0.8241781037260898 -0.02666581457473054 0.47582471379425917
0.9223599325595047 0.09927332500762392 0.503546100794641
0.10827038134490669 0.18573575167632028 0.4109995298840614
0.003442501963954596 0.28756758440639774 0.4291359302703199
0.024178103726089722 0.17333418542526946 0.47582471379425917
0.12235993255950453 0.29927332500762394 0.503546100794641
0.3082703813449067 0.18573575167632028 0.4109995298840614
0.20344250196395464 0.28756758440639774 0.4291359302703199
0.2241781037260897 0.17333418542526946 0.47582471379425917
0.32235993255950457 0.29927332500762394 0.503546100794641
0.5082703813449067 0.18573575167632028 0.4109995298840614
0.4034425019639546 0.28756758440639774 0.4291359302703199
0.4241781037260897 0.17333418542526946 0.47582471379425917
0.5223599325595045 0.29927332500762394 0.503546100794641
0.7082703813449067 0.18573575167632028 0.4109995298840614
0.6034425019639547 0.28756758440639774 0.4291359302703199
0.6241781037260897 0.17333418542526946 0.47582471379425917
0.7223599325595046 0.29927332500762394 0.503546100794641
0.9082703813449067 0.18573575167632028 0.4109995298840614
0.8034425019639546 0.28756758440639774 0.4291359302703199
0.8241781037260898 0.17333418542526946 0.47582471379425917
0.9223599325595047 0.29927332500762394 0.503546100794641
0.10827038134490669 0.3857357516763203 0.4109995298840614
0.003442501963954596 0.48756758440639775 0.4291359302703199
0.024178103726089722 0.37333418542526947 0.47582471379425917
0.12235993255950453 0.49927332500762395 0.503546100794641
0.3082703813449067 0.3857357516763203 0.4109995298840614
0.20344250196395464 0.48756758440639775 0.4291359302703199
0.2241781037260897 0.37333418542526947 0.47582471379425917
0.32235993255950457 0.49927332500762395 0.503546100794641
0.5082703813449067 0.3857357516763203 0.4109995298840614
0.4034425019639546 0.48756758440639775 0.4291359302703199
0.4241781037260897 0.37333418542526947 0.47582471379425917
0.5223599325595045 0.49927332500762395 0.503546100794641
0.7082703813449067 0.3857357516763203 0.4109995298840614
0.6034425019639547 0.48756758440639775 0.4291359302703199
0.6241781037260897 0.37333418542526947 0.47582471379425917
0.7223599325595046 0.49927332500762395 0.503546100794641
0.9082703813449067 0.3857357516763203 0.4109995298840614
0.8034425019639546 0.48756758440639775 0.4291359302703199
0.8241781037260898 0.37333418542526947 0.47582471379425917
0.9223599325595047 0.49927332500762395 0.503546100794641
0.10827038134490669 0.5857357516763203 0.4109995298840614
0.003442501963954596 0.6875675844063978 0.4291359302703199
0.024178103726089722 0.5733341854252695 0.47582471379425917
0.12235993255950453 0.699273325007624 0.503546100794641
0.3082703813449067 0.5857357516763203 0.4109995298840614
0.20344250196395464 0.6875675844063978 0.4291359302703199
0.2241781037260897 0.5733341854252695 0.47582471379425917
0.32235993255950457 0.699273325007624 0.503546100794641
0.5082703813449067 0.5857357516763203 0.4109995298840614
0.4034425019639546 0.6875675844063978 0.4291359302703199
0.4241781037260897 0.5733341854252695 0.47582471379425917
0.5223599325595045 0.699273325007624 0.503546100794641
0.7082703813449067 0.5857357516763203 0.4109995298840614
0.6034425019639547 0.6875675844063978 0.4291359302703199
0.6241781037260897 0.5733341854252695 0.47582471379425917
0.7223599325595046 0.699273325007624 0.503546100794641
0.9082703813449067 0.5857357516763203 0.4109995298840614
0.8034425019639546 0.6875675844063978 0.4291359302703199
0.8241781037260898 0.5733341854252695 0.47582471379425917
0.9223599325595047 0.699273325007624 0.503546100794641
0.10827038134490669 0.7857357516763203 0.4109995298840614
0.003442501963954596 0.8875675844063977 0.4291359302703199
0.024178103726089722 0.7733341854252695 0.47582471379425917
0.12235993255950453 0.8992733250076239 0.503546100794641
0.3082703813449067 0.7857357516763203 0.4109995298840614
0.20344250196395464 0.8875675844063977 0.4291359302703199
0.2241781037260897 0.7733341854252695 0.47582471379425917
0.32235993255950457 0.8992733250076239 0.503546100794641
0.5082703813449067 0.7857357516763203 0.4109995298840614
0.4034425019639546 0.8875675844063977 0.4291359302703199
0.4241781037260897 0.7733341854252695 0.47582471379425917
0.5223599325595045 0.8992733250076239 0.503546100794641
0.7082703813449067 0.7857357516763203 0.4109995298840614
0.6034425019639547 0.8875675844063977 0.4291359302703199
0.6241781037260897 0.7733341854252695 0.47582471379425917
0.7223599325595046 0.8992733250076239 0.503546100794641
0.9082703813449067 0.7857357516763203 0.4109995298840614
0.8034425019639546 0.8875675844063977 0.4291359302703199
0.8241781037260898 0.7733341854252695 0.47582471379425917
0.9223599325595047 0.8992733250076239 0.503546100794641
0.10827038134490669 -0.014264248323679724 0.6109995298840615
0.003442501963954596 0.08756758440639772 0.6291359302703199
0.024178103726089722 -0.02666581457473054 0.6758247137942592
0.12235993255950453 0.09927332500762392 0.7035461007946411
0.3082703813449067 -0.014264248323679724 0.6109995298840615
0.20344250196395464 0.08756758440639772 0.6291359302703199
0.2241781037260897 -0.02666581457473054 0.6758247137942592
0.32235993255950457 0.09927332500762392 0.7035461007946411
0.5082703813449067 -0.014264248323679724 0.6109995298840615
0.4034425019639546 0.08756758440639772 0.6291359302703199
0.4241781037260897 -0.02666581457473054 0.6758247137942592
0.5223599325595045 0.09927332500762392 0.7035461007946411
0.7082703813449067 -0.014264248323679724 0.6109995298840615
0.6034425019639547 0.08756758440639772 0.6291359302703199
0.6241781037260897 -0.02666581457473054 0.6758247137942592
0.7223599325595046 0.09927332500762392 0.7035461007946411
0.9082703813449067 -0.014264248323679724 0.6109995298840615
0.8034425019639546 0.08756758440639772 0.6291359302703199
0.8241781037260898 -0.02666581457473054 0.6758247137942592
0.9223599325595047 0.09927332500762392 0.7035461007946411
0.10827038134490669 0.18573575167632028 0.6109995298840615
0.003442501963954596 0.28756758440639774 0.6291359302703199
0.024178103726089722 0.17333418542526946 0.6758247137942592
0.12235993255950453 0.29927332500762394 0.7035461007946411
0.3082703813449067 0.18573575167632028 0.6109995298840615
0.20344250196395464 0.28756758440639774 0.6291359302703199
0.2241781037260897 0.17333418542526946 0.6758247137942592
0.32235993255950457 0.29927332500762394 0.7035461007946411
0.5082703813449067 0.18573575167632028 0.6109995298840615
0.4034425019639546 0.28756758440639774 0.6291359302703199
0.4241781037260897 0.17333418542526946 0.6758247137942592
0.5223599325595045 0.29927332500762394 0.7035461007946411
0.7082703813449067 0.18573575167632028 0.6109995298840615
0.6034425019639547 0.28756758440639774 0.6291359302703199
0.6241781037260897 0.17333418542526946 0.6758247137942592
0.7223599325595046 0.29927332500762394 0.7035461007946411
0.9082703813449067 0.18573575167632028 0.6109995298840615
0.8034425019639546 0.28756758440639774 0.6291359302703199
0.8241781037260898 0.17333418542526946 0.6758247137942592
0.9223599325595047 0.29927332500762394 0.7035461007946411
0.10827038134490669 0.3857357516763203 0.6109995298840615
0.003442501963954596 0.48756758440639775 0.6291359302703199
0.024178103726089722 0.37333418542526947 0.6758247137942592
0.12235993255950453 0.49927332500762395 0.7035461007946411
0.3082703813449067 0.3857357516763203 0.6109995298840615
0.20344250196395464 0.48756758440639775 0.6291359302703199
0.2241781037260897 0.37333418542526947 0.6758247137942592
0.32235993255950457 0.49927332500762395 0.7035461007946411
0.5082703813449067 0.3857357516763203 0.6109995298840615
0.4034425019639546 0.48756758440639775 0.6291359302703199
0.4241781037260897 0.37333418542526947 0.6758247137942592
0.5223599325595045 0.49927332500762395 0.7035461007946411
0.7082703813449067 0.3857357516763203 0.6109995298840615
0.6034425019639547 0.48756758440639775 0.6291359302703199
0.6241781037260897 0.37333418542526947 0.6758247137942592
0.7223599325595046 0.49927332500762395 0.7035461007946411
0.9082703813449067 0.3857357516763203 0.6109995298840615
0.8034425019639546 0.48756758440639775 0.6291359302703199
0.8241781037260898 0.37333418542526947 0.6758247137942592
0.9223599325595047 0.49927332500762395 0.7035461007946411
0.10827038134490669 0.5857357516763203 0.6109995298840615
0.003442501963954596 0.6875675844063978 0.6291359302703199
0.024178103726089722 0.5733341854252695 0.6758247137942592
0.12235993255950453 0.699273325007624 0.7035461007946411
0.3082703813449067 0.5857357516763203 0.6109995298840615
0.20344250196395464 0.6875675844063978 0.6291359302703199
0.2241781037260897 0.5733341854252695 0.6758247137942592
0.32235993255950457 0.699273325007624 0.7035461007946411
0.5082703813449067 0.5857357516763203 0.6109995298840615
0.4034425019639546 0.6875675844063978 0.6291359302703199
0.4241781037260897 0.5733341854252695 0.6758247137942592
0.5223599325595045 0.699273325007624 0.7035461007946411
0.7082703813449067 0.5857357516763203 0.6109995298840615
0.6034425019639547 0.6875675844063978 0.6291359302703199
0.6241781037260897 0.5733341854252695 0.6758247137942592
0.7223599325595046 0.699273325007624 0.7035461007946411
0.9082703813449067 0.5857357516763203 0.6109995298840615
0.8034425019639546 0.6875675844063978 0.6291359302703199
0.8241781037260898 0.5733341854252695 0.6758247137942592
0.9223599325595047 0.699273325007624 0.7035461007946411
0.10827038134490669 0.7857357516763203 0.6109995298840615
0.003442501963954596 0.8875675844063977 0.6291359302703199
0.024178103726089722 0.7733341854252695 0.6758247137942592
0.12235993255950453 0.8992733250076239 0.7035461007946411
0.3082703813449067 0.7857357516763203 0.6109995298840615
0.20344250196395464 0.8875675844063977 0.6291359302703199
0.2241781037260897 0.7733341854252695 0.6758247137942592
0.32235993255950457 0.8992733250076239 0.7035461007946411
0.5082703813449067 0.7857357516763203 0.6109995298840615
0.4034425019639546 0.8875675844063977 0.6291359302703199
0.4241781037260897 0.7733341854252695 0.6758247137942592
0.5223599325595045 0.8992733250076239 0.7035461007946411
0.7082703813449067 0.7857357516763203 0.6109995298840615
0.6034425019639547 0.8875675844063977 0.6291359302703199
0.6241781037260897 0.7733341854252695 0.6758247137942592
0.7223599325595046 0.8992733250076239 0.7035461007946411
0.9082703813449067 0.7857357516763203 0.6109995298840615
0.8034425019639546 0.8875675844063977 0.6291359302703199
0.8241781037260898 0.7733341854252695 0.6758247137942592
0.9223599325595047 0.8992733250076239 0.7035461007946411
0.10827038134490669 -0.014264248323679724 0.8109995298840614
0.003442501963954596 0.08756758440639772 0.82913593027032
0.024178103726089722 -0.02666581457473054 0.8758247137942592
0.12235993255950453 0.09927332500762392 0.9035461007946411
0.3082703813449067 -0.014264248323679724 0.8109995298840614
0.20344250196395464 0.08756758440639772 0.82913593027032
0.2241781037260897 -0.02666581457473054 0.8758247137942592
0.32235993255950457 0.09927332500762392 0.9035461007946411
0.5082703813449067 -0.014264248323679724 0.8109995298840614
0.4034425019639546 0.08756758440639772 0.82913593027032
0.4241781037260897 -0.02666581457473054 0.8758247137942592
0.5223599325595045 0.09927332500762392 0.9035461007946411
0.7082703813449067 -0.014264248323679724 0.8109995298840614
0.6034425019639547 0.08756758440639772 0.82913593027032
0.6241781037260897 -0.02666581457473054 0.8758247137942592
0.7223599325595046 0.09927332500762392 0.9035461007946411
0.9082703813449067 -0.014264248323679724 0.8109995298840614
0.8034425019639546 0.08756758440639772 0.82913593027032
0.8241781037260898 -0.02666581457473054 0.8758247137942592
0.9223599325595047 0.09927332500762392 0.9035461007946411
0.10827038134490669 0.18573575167632028 0.8109995298840614
0.003442501963954596 0.28756758440639774 0.82913593027032
0.024178103726089722 0.17333418542526946 0.8758247137942592
0.12235993255950453 0.29927332500762394 0.9035461007946411
0.3082703813449067 0.18573575167632028 0.8109995298840614
0.20344250196395464 0.28756758440639774 0.82913593027032
0.2241781037260897 0.17333418542526946 0.8758247137942592
0.32235993255950457 0.29927332500762394 0.9035461007946411
0.5082703813449067 0.18573575167632028 0.8109995298840614
0.4034425019639546 0.28756758440639774 0.82913593027032
0.4241781037260897 0.17333418542526946 0.8758247137942592
0.5223599325595045 0.29927332500762394 0.9035461007946411
0.7082703813449067 0.18573575167632028 0.8109995298840614
0.6034425019639547 0.28756758440639774 0.82913593027032
0.6241781037260897 0.17333418542526946 0.8758247137942592
0.7223599325595046 0.29927332500762394 0.9035461007946411
0.9082703813449067 0.18573575167632028 0.8109995298840614
0.8034425019639546 0.28756758440639774 0.82913593027032
0.8241781037260898 0.17333418542526946 0.8758247137942592
0.9223599325595047 0.29927332500762394 0.9035461007946411
0.10827038134490669 0.3857357516763203 0.8109995298840614
0.003442501963954596 0.48756758440639775 0.82913593027032
0.024178103726089722 0.37333418542526947 0.8758247137942592
0.12235993255950453 0.49927332500762395 0.9035461007946411
0.3082703813449067 0.3857357516763203 0.8109995298840614
0.20344250196395464 0.48756758440639775 0.82913593027032
0.2241781037260897 0.37333418542526947 0.8758247137942592
0.32235993255950457 0.49927332500762395 0.9035461007946411
0.5082703813449067 0.3857357516763203 0.8109995298840614
0.4034425019639546 0.48756758440639775 0.82913593027032
0.4241781037260897 0.37333418542526947 0.8758247137942592
0.5223599325595045 0.49927332500762395 0.9035461007946411
0.7082703813449067 0.3857357516763203 0.8109995298840614
0.6034425019639547 0.48756758440639775 0.82913593027032
0.6241781037260897 0.37333418542526947 0.8758247137942592
0.7223599325595046 0.49927332500762395 0.9035461007946411
0.9082703813449067 0.3857357516763203 0.8109995298840614
0.8034425019639546 0.48756758440639775 0.82913593027032
0.8241781037260898 0.37333418542526947 0.8758247137942592
0.9223599325595047 0.49927332500762395 0.9035461007946411
0.10827038134490669 0.5857357516763203 0.8109995298840614
0.003442501963954596 0.6875675844063978 0.82913593027032
0.024178103726089722 0.5733341854252695 0.8758247137942592
0.12235993255950453 0.699273325007624 0.9035461007946411
0.3082703813449067 0.5857357516763203 0.8109995298840614
0.20344250196395464 0.6875675844063978 0.82913593027032
0.2241781037260897 0.5733341854252695 0.8758247137942592
0.32235993255950457 0.699273325007624 0.9035461007946411
0.5082703813449067 0.5857357516763203 0.8109995298840614
0.4034425019639546 0.6875675844063978 0.82913593027032
0.4241781037260897 0.5733341854252695 0.8758247137942592
0.5223599325595045 0.699273325007624 0.9035461007946411
0.7082703813449067 0.5857357516763203 0.8109995298840614
0.6034425019639547 0.6875675844063978 0.82913593027032
0.6241781037260897 0.5733341854252695 0.8758247137942592
0.7223599325595046 0.699273325007624 0.9035461007946411
0.9082703813449067 0.5857357516763203 0.8109995298840614
0.8034425019639546 0.6875675844063978 0.82913593027032
0.8241781037260898 0.5733341854252695 0.8758247137942592
0.9223599325595047 0.699273325007624 0.9035461007946411
0.10827038134490669 0.7857357516763203 0.8109995298840614
0.003442501963954596 0.8875675844063977 0.82913593027032
0.024178103726089722 0.7733341854252695 0.8758247137942592
0.12235993255950453 0.8992733250076239 0.9035461007946411
0.3082703813449067 0.7857357516763203 0.8109995298840614
0.20344250196395464 0.8875675844063977 0.82913593027032
0.2241781037260897 0.7733341854252695 0.8758247137942592
0.32235993255950457 0.8992733250076239 0.9035461007946411
0.5082703813449067 0.7857357516763203 0.8109995298840614
0.4034425019639546 0.8875675844063977 0.82913593027032
0.4241781037260897 0.7733341854252695 0.8758247137942592
0.5223599325595045 0.8992733250076239 0.9035461007946411
0.7082703813449067 0.7857357516763203 0.8109995298840614
0.6034425019639547 0.8875675844063977 0.82913593027032
0.6241781037260897 0.7733341854252695 0.8758247137942592
0.7223599325595046 0.8992733250076239 0.9035461007946411
0.9082703813449067 0.7857357516763203 0.8109995298840614
0.8034425019639546 0.8875675844063977 0.82913593027032
0.8241781037260898 0.7733341854252695 0.8758247137942592
0.9223599325595047 0.8992733250076239 0.9035461007946411
