FCC BaO
3.971
5.0 0.0 0.0
0.0 5.0 0.0
0.0 0.0 5.0
Ba O 
500 500 
Direct
-0.003930887879436826 0.014445041534931877 -0.002472875558755229
0.014036182434053846 0.10576825019125012 0.1274123257585231
0.11628908432768191 -0.008606408723779133 0.07270226603179618
0.09731154092629402 0.11452910610212474 0.005944886241237388
0.1960691121205632 0.014445041534931877 -0.002472875558755229
0.21403618243405387 0.10576825019125012 0.1274123257585231
0.31628908432768194 -0.008606408723779133 0.07270226603179618
0.297311540926294 0.11452910610212474 0.005944886241237388
0.3960691121205632 0.014445041534931877 -0.002472875558755229
0.4140361824340539 0.10576825019125012 0.1274123257585231
0.516289084327682 -0.008606408723779133 0.07270226603179618
0.49731154092629404 0.11452910610212474 0.005944886241237388
0.5960691121205632 0.014445041534931877 -0.002472875558755229
0.6140361824340539 0.10576825019125012 0.1274123257585231
0.7162890843276819 -0.008606408723779133 0.07270226603179618
0.697311540926294 0.11452910610212474 0.005944886241237388
0.7960691121205632 0.014445041534931877 -0.002472875558755229
0.8140361824340538 0.10576825019125012 0.1274123257585231
0.9162890843276821 -0.008606408723779133 0.07270226603179618
0.8973115409262941 0.11452910610212474 0.005944886241237388
-0.003930887879436826 0.2144450415349319 -0.002472875558755229
0.014036182434053846 0.30576825019125015 0.1274123257585231
0.11628908432768191 0.19139359127622088 0.07270226603179618
0.09731154092629402 0.31452910610212476 0.005944886241237388
0.1960691121205632 0.2144450415349319 -0.002472875558755229
0.21403618243405387 0.30576825019125015 0.1274123257585231
0.31628908432768194 0.19139359127622088 0.07270226603179618
0.297311540926294 0.31452910610212476 0.005944886241237388
0.3960691121205632 0.2144450415349319 -0.002472875558755229
0.4140361824340539 0.30576825019125015 0.1274123257585231
0.516289084327682 0.19139359127622088 0.07270226603179618
0.49731154092629404 0.31452910610212476 0.005944886241237388
0.5960691121205632 0.2144450415349319 -0.002472875558755229
0.6140361824340539 0.30576825019125015 0.1274123257585231
0.7162890843276819 0.19139359127622088 0.07270226603179618
0.697311540926294 0.31452910610212476 0.005944886241237388
0.7960691121205632 0.2144450415349319 -0.002472875558755229
0.8140361824340538 0.30576825019125015 0.1274123257585231
0.9162890843276821 0.19139359127622088 0.07270226603179618
0.8973115409262941 0.31452910610212476 0.005944886241237388
-0.003930887879436826 0.4144450415349319 -0.002472875558755229
0.014036182434053846 0.50576825019125 0.1274123257585231
0.11628908432768191 0.3913935912762209 0.07270226603179618
0.09731154092629402 0.5145291061021248 0.005944886241237388
0.1960691121205632 0.4144450415349319 -0.002472875558755229
0.21403618243405387 0.50576825019125 0.1274123257585231
0.31628908432768194 0.3913935912762209 0.07270226603179618
0.297311540926294 0.5145291061021248 0.005944886241237388
0.3960691121205632 0.4144450415349319 -0.002472875558755229
0.4140361824340539 0.50576825019125 0.1274123257585231
0.516289084327682 0.3913935912762209 0.07270226603179618
0.49731154092629404 0.5145291061021248 0.005944886241237388
0.5960691121205632 0.4144450415349319 -0.002472875558755229
0.6140361824340539 0.50576825019125 0.1274123257585231
0.7162890843276819 0.3913935912762209 0.07270226603179618
0.697311540926294 0.5145291061021248 0.005944886241237388
0.7960691121205632 0.4144450415349319 -0.002472875558755229
0.8140361824340538 0.50576825019125 0.1274123257585231
0.9162890843276821 0.3913935912762209 0.07270226603179618
0.8973115409262941 0.5145291061021248 0.005944886241237388
-0.003930887879436826 0.6144450415349318 -0.002472875558755229
0.014036182434053846 0.7057682501912501 0.1274123257585231
0.11628908432768191 0.5913935912762208 0.07270226603179618
0.09731154092629402 0.7145291061021247 0.005944886241237388
0.1960691121205632 0.6144450415349318 -0.002472875558755229
0.21403618243405387 0.7057682501912501 0.1274123257585231
0.31628908432768194 0.5913935912762208 0.07270226603179618
0.297311540926294 0.7145291061021247 0.005944886241237388
0.3960691121205632 0.6144450415349318 -0.002472875558755229
0.4140361824340539 0.7057682501912501 0.1274123257585231
0.516289084327682 0.5913935912762208 0.07270226603179618
0.49731154092629404 0.7145291061021247 0.005944886241237388
0.5960691121205632 0.6144450415349318 -0.002472875558755229
0.6140361824340539 0.7057682501912501 0.1274123257585231
0.7162890843276819 0.5913935912762208 0.07270226603179618
0.697311540926294 0.7145291061021247 0.005944886241237388
0.7960691121205632 0.6144450415349318 -0.002472875558755229
0.8140361824340538 0.7057682501912501 0.1274123257585231
0.9162890843276821 0.5913935912762208 0.07270226603179618
0.8973115409262941 0.7145291061021247 0.005944886241237388
-0.003930887879436826 0.8144450415349319 -0.002472875558755229
0.014036182434053846 0.9057682501912501 0.1274123257585231
0.11628908432768191 0.7913935912762209 0.07270226603179618
0.09731154092629402 0.9145291061021248 0.005944886241237388
0.1960691121205632 0.8144450415349319 -0.002472875558755229
0.21403618243405387 0.9057682501912501 0.1274123257585231
0.31628908432768194 0.7913935912762209 0.07270226603179618
0.297311540926294 0.9145291061021248 0.005944886241237388
0.3960691121205632 0.8144450415349319 -0.002472875558755229
0.4140361824340539 0.9057682501912501 0.1274123257585231
0.516289084327682 0.7913935912762209 0.07270226603179618
0.49731154092629404 0.9145291061021248 0.005944886241237388
0.5960691121205632 0.8144450415349319 -0.002472875558755229
0.6140361824340539 0.9057682501912501 0.1274123257585231
0.7162890843276819 0.7913935912762209 0.07270226603179618
0.697311540926294 0.9145291061021248 0.005944886241237388
0.7960691121205632 0.8144450415349319 -0.002472875558755229
0.8140361824340538 0.9057682501912501 0.1274123257585231
0.9162890843276821 0.7913935912762209 0.07270226603179618
0.8973115409262941 0.9145291061021248 0.005944886241237388
-0.003930887879436826 0.014445041534931877 0.19752712444124476
0.014036182434053846 0.10576825019125012 0.3274123257585231
0.11628908432768191 -0.008606408723779133 0.2727022660317962
0.09731154092629402 0.11452910610212474 0.20594488624123738
0.1960691121205632 0.014445041534931877 0.19752712444124476
0.21403618243405387 0.10576825019125012 0.3274123257585231
0.31628908432768194 -0.008606408723779133 0.2727022660317962
0.297311540926294 0.11452910610212474 0.20594488624123738
0.3960691121205632 0.014445041534931877 0.19752712444124476
0.4140361824340539 0.10576825019125012 0.3274123257585231
0.516289084327682 -0.008606408723779133 0.2727022660317962
0.49731154092629404 0.11452910610212474 0.20594488624123738
0.5960691121205632 0.014445041534931877 0.19752712444124476
0.6140361824340539 0.10576825019125012 0.3274123257585231
0.7162890843276819 -0.008606408723779133 0.2727022660317962
0.697311540926294 0.11452910610212474 0.20594488624123738
0.7960691121205632 0.014445041534931877 0.19752712444124476
0.8140361824340538 0.10576825019125012 0.3274123257585231
0.9162890843276821 -0.008606408723779133 0.2727022660317962
0.8973115409262941 0.11452910610212474 0.20594488624123738
-0.003930887879436826 0.2144450415349319 0.19752712444124476
0.014036182434053846 0.30576825019125015 0.3274123257585231
0.11628908432768191 0.19139359127622088 0.2727022660317962
0.09731154092629402 0.31452910610212476 0.20594488624123738
0.1960691121205632 0.2144450415349319 0.19752712444124476
0.21403618243405387 0.30576825019125015 0.3274123257585231
0.31628908432768194 0.19139359127622088 0.2727022660317962
0.297311540926294 0.31452910610212476 0.20594488624123738
0.3960691121205632 0.2144450415349319 0.19752712444124476
0.4140361824340539 0.30576825019125015 0.3274123257585231
0.516289084327682 0.19139359127622088 0.2727022660317962
0.49731154092629404 0.31452910610212476 0.20594488624123738
0.5960691121205632 0.2144450415349319 0.19752712444124476
0.6140361824340539 0.30576825019125015 0.3274123257585231
0.7162890843276819 0.19139359127622088 0.2727022660317962
0.697311540926294 0.31452910610212476 0.20594488624123738
0.7960691121205632 0.2144450415349319 0.19752712444124476
0.8140361824340538 0.30576825019125015 0.3274123257585231
0.9162890843276821 0.19139359127622088 0.2727022660317962
0.8973115409262941 0.31452910610212476 0.20594488624123738
-0.003930887879436826 0.4144450415349319 0.19752712444124476
0.014036182434053846 0.50576825019125 0.3274123257585231
0.11628908432768191 0.3913935912762209 0.2727022660317962
0.09731154092629402 0.5145291061021248 0.20594488624123738
0.1960691121205632 0.4144450415349319 0.19752712444124476
0.21403618243405387 0.50576825019125 0.3274123257585231
0.31628908432768194 0.3913935912762209 0.2727022660317962
0.297311540926294 0.5145291061021248 0.20594488624123738
0.3960691121205632 0.4144450415349319 0.19752712444124476
0.4140361824340539 0.50576825019125 0.3274123257585231
0.516289084327682 0.3913935912762209 0.2727022660317962
0.49731154092629404 0.5145291061021248 0.20594488624123738
0.5960691121205632 0.4144450415349319 0.19752712444124476
0.6140361824340539 0.50576825019125 0.3274123257585231
0.7162890843276819 0.3913935912762209 0.2727022660317962
0.697311540926294 0.5145291061021248 0.20594488624123738
0.7960691121205632 0.4144450415349319 0.19752712444124476
0.8140361824340538 0.50576825019125 0.3274123257585231
0.9162890843276821 0.3913935912762209 0.2727022660317962
0.8973115409262941 0.5145291061021248 0.20594488624123738
-0.003930887879436826 0.6144450415349318 0.19752712444124476
0.014036182434053846 0.7057682501912501 0.3274123257585231
0.11628908432768191 0.5913935912762208 0.2727022660317962
0.09731154092629402 0.7145291061021247 0.20594488624123738
0.1960691121205632 0.6144450415349318 0.19752712444124476
0.21403618243405387 0.7057682501912501 0.3274123257585231
0.31628908432768194 0.5913935912762208 0.2727022660317962
0.297311540926294 0.7145291061021247 0.20594488624123738
0.3960691121205632 0.6144450415349318 0.19752712444124476
0.4140361824340539 0.7057682501912501 0.3274123257585231
0.516289084327682 0.5913935912762208 0.2727022660317962
0.49731154092629404 0.7145291061021247 0.20594488624123738
0.5960691121205632 0.6144450415349318 0.19752712444124476
0.6140361824340539 0.7057682501912501 0.3274123257585231
0.7162890843276819 0.5913935912762208 0.2727022660317962
0.697311540926294 0.7145291061021247 0.20594488624123738
0.7960691121205632 0.6144450415349318 0.19752712444124476
0.8140361824340538 0.7057682501912501 0.3274123257585231
0.9162890843276821 0.5913935912762208 0.2727022660317962
0.8973115409262941 0.7145291061021247 0.20594488624123738
-0.003930887879436826 0.8144450415349319 0.19752712444124476
0.014036182434053846 0.9057682501912501 0.3274123257585231
0.11628908432768191 0.7913935912762209 0.2727022660317962
0.09731154092629402 0.9145291061021248 0.20594488624123738
0.1960691121205632 0.8144450415349319 0.19752712444124476
0.21403618243405387 0.9057682501912501 0.3274123257585231
0.31628908432768194 0.7913935912762209 0.2727022660317962
0.297311540926294 0.9145291061021248 0.20594488624123738
0.3960691121205632 0.8144450415349319 0.19752712444124476
0.4140361824340539 0.9057682501912501 0.3274123257585231
0.516289084327682 0.7913935912762209 0.2727022660317962
0.49731154092629404 0.9145291061021248 0.20594488624123738
0.5960691121205632 0.8144450415349319 0.19752712444124476
0.6140361824340539 0.9057682501912501 0.3274123257585231
0.7162890843276819 0.7913935912762209 0.2727022660317962
0.697311540926294 0.9145291061021248 0.20594488624123738
0.7960691121205632 0.8144450415349319 0.19752712444124476
0.8140361824340538 0.9057682501912501 0.3274123257585231
0.9162890843276821 0.7913935912762209 0.2727022660317962
0.8973115409262941 0.9145291061021248 0.20594488624123738
-0.003930887879436826 0.014445041534931877 0.39752712444124483
0.014036182434053846 0.10576825019125012 0.5274123257585231
0.11628908432768191 -0.008606408723779133 0.4727022660317962
0.09731154092629402 0.11452910610212474 0.4059448862412374
0.1960691121205632 0.014445041534931877 0.39752712444124483
0.21403618243405387 0.10576825019125012 0.5274123257585231
0.31628908432768194 -0.008606408723779133 0.4727022660317962
0.297311540926294 0.11452910610212474 0.4059448862412374
0.3960691121205632 0.014445041534931877 0.39752712444124483
0.4140361824340539 0.10576825019125012 0.5274123257585231
0.516289084327682 -0.008606408723779133 0.4727022660317962
0.49731154092629404 0.11452910610212474 0.4059448862412374
0.5960691121205632 0.014445041534931877 0.39752712444124483
0.6140361824340539 0.10576825019125012 0.5274123257585231
0.7162890843276819 -0.008606408723779133 0.4727022660317962
0.697311540926294 0.11452910610212474 0.4059448862412374
0.7960691121205632 0.014445041534931877 0.39752712444124483
0.8140361824340538 0.10576825019125012 0.5274123257585231
0.9162890843276821 -0.008606408723779133 0.4727022660317962
0.8973115409262941 0.11452910610212474 0.4059448862412374
-0.003930887879436826 0.2144450415349319 0.39752712444124483
0.014036182434053846 0.30576825019125015 0.5274123257585231
0.11628908432768191 0.19139359127622088 0.4727022660317962
0.09731154092629402 0.31452910610212476 0.4059448862412374
0.1960691121205632 0.2144450415349319 0.39752712444124483
0.21403618243405387 0.30576825019125015 0.5274123257585231
0.31628908432768194 0.19139359127622088 0.4727022660317962
0.297311540926294 0.31452910610212476 0.4059448862412374
0.3960691121205632 0.2144450415349319 0.39752712444124483
0.4140361824340539 0.30576825019125015 0.5274123257585231
0.516289084327682 0.19139359127622088 0.4727022660317962
0.49731154092629404 0.31452910610212476 0.4059448862412374
0.5960691121205632 0.2144450415349319 0.39752712444124483
0.6140361824340539 0.30576825019125015 0.5274123257585231
0.7162890843276819 0.19139359127622088 0.4727022660317962
0.697311540926294 0.31452910610212476 0.4059448862412374
0.7960691121205632 0.2144450415349319 0.39752712444124483
0.8140361824340538 0.30576825019125015 0.5274123257585231
0.9162890843276821 0.19139359127622088 0.4727022660317962
0.8973115409262941 0.31452910610212476 0.4059448862412374
-0.003930887879436826 0.4144450415349319 0.39752712444124483
0.014036182434053846 0.50576825019125 0.5274123257585231
0.11628908432768191 0.3913935912762209 0.4727022660317962
0.09731154092629402 0.5145291061021248 0.4059448862412374
0.1960691121205632 0.4144450415349319 0.39752712444124483
0.21403618243405387 0.50576825019125 0.5274123257585231
0.31628908432768194 0.3913935912762209 0.4727022660317962
0.297311540926294 0.5145291061021248 0.4059448862412374
0.3960691121205632 0.4144450415349319 0.39752712444124483
0.4140361824340539 0.50576825019125 0.5274123257585231
0.516289084327682 0.3913935912762209 0.4727022660317962
0.49731154092629404 0.5145291061021248 0.4059448862412374
0.5960691121205632 0.4144450415349319 0.39752712444124483
0.6140361824340539 0.50576825019125 0.5274123257585231
0.7162890843276819 0.3913935912762209 0.4727022660317962
0.697311540926294 0.5145291061021248 0.4059448862412374
0.7960691121205632 0.4144450415349319 0.39752712444124483
0.8140361824340538 0.50576825019125 0.5274123257585231
0.9162890843276821 0.3913935912762209 0.4727022660317962
0.8973115409262941 0.5145291061021248 0.4059448862412374
-0.003930887879436826 0.6144450415349318 0.39752712444124483
0.014036182434053846 0.7057682501912501 0.5274123257585231
0.11628908432768191 0.5913935912762208 0.4727022660317962
0.09731154092629402 0.7145291061021247 0.4059448862412374
0.1960691121205632 0.6144450415349318 0.39752712444124483
0.21403618243405387 0.7057682501912501 0.5274123257585231
0.31628908432768194 0.5913935912762208 0.4727022660317962
0.297311540926294 0.7145291061021247 0.4059448862412374
0.3960691121205632 0.6144450415349318 0.39752712444124483
0.4140361824340539 0.7057682501912501 0.5274123257585231
0.516289084327682 0.5913935912762208 0.4727022660317962
0.49731154092629404 0.7145291061021247 0.4059448862412374
0.5960691121205632 0.6144450415349318 0.39752712444124483
0.6140361824340539 0.7057682501912501 0.5274123257585231
0.7162890843276819 0.5913935912762208 0.4727022660317962
0.697311540926294 0.7145291061021247 0.4059448862412374
0.7960691121205632 0.6144450415349318 0.39752712444124483
0.8140361824340538 0.7057682501912501 0.5274123257585231
0.9162890843276821 0.5913935912762208 0.4727022660317962
0.8973115409262941 0.7145291061021247 0.4059448862412374
-0.003930887879436826 0.8144450415349319 0.39752712444124483
0.014036182434053846 0.9057682501912501 0.5274123257585231
0.11628908432768191 0.7913935912762209 0.4727022660317962
0.09731154092629402 0.9145291061021248 0.4059448862412374
0.1960691121205632 0.8144450415349319 0.39752712444124483
0.21403618243405387 0.9057682501912501 0.5274123257585231
0.31628908432768194 0.7913935912762209 0.4727022660317962
0.297311540926294 0.9145291061021248 0.4059448862412374
0.3960691121205632 0.8144450415349319 0.39752712444124483
0.4140361824340539 0.9057682501912501 0.5274123257585231
0.516289084327682 0.7913935912762209 0.4727022660317962
0.49731154092629404 0.9145291061021248 0.4059448862412374
0.5960691121205632 0.8144450415349319 0.39752712444124483
0.6140361824340539 0.9057682501912501 0.5274123257585231
0.7162890843276819 0.7913935912762209 0.4727022660317962
0.697311540926294 0.9145291061021248 0.4059448862412374
0.7960691121205632 0.8144450415349319 0.39752712444124483
0.8140361824340538 0.9057682501912501 0.5274123257585231
0.9162890843276821 0.7913935912762209 0.4727022660317962
0.8973115409262941 0.9145291061021248 0.4059448862412374
-0.003930887879436826 0.014445041534931877 0.5975271244412448
0.014036182434053846 0.10576825019125012 0.7274123257585231
0.11628908432768191 -0.008606408723779133 0.6727022660317963
0.09731154092629402 0.11452910610212474 0.6059448862412374
0.1960691121205632 0.014445041534931877 0.5975271244412448
0.21403618243405387 0.10576825019125012 0.7274123257585231
0.31628908432768194 -0.008606408723779133 0.6727022660317963
0.297311540926294 0.11452910610212474 0.6059448862412374
0.3960691121205632 0.014445041534931877 0.5975271244412448
0.4140361824340539 0.10576825019125012 0.7274123257585231
0.516289084327682 -0.008606408723779133 0.6727022660317963
0.49731154092629404 0.11452910610212474 0.6059448862412374
0.5960691121205632 0.014445041534931877 0.5975271244412448
0.6140361824340539 0.10576825019125012 0.7274123257585231
0.7162890843276819 -0.008606408723779133 0.6727022660317963
0.697311540926294 0.11452910610212474 0.6059448862412374
0.7960691121205632 0.014445041534931877 0.5975271244412448
0.8140361824340538 0.10576825019125012 0.7274123257585231
0.9162890843276821 -0.008606408723779133 0.6727022660317963
0.8973115409262941 0.11452910610212474 0.6059448862412374
-0.003930887879436826 0.2144450415349319 0.5975271244412448
0.014036182434053846 0.30576825019125015 0.7274123257585231
0.11628908432768191 0.19139359127622088 0.6727022660317963
0.09731154092629402 0.31452910610212476 0.6059448862412374
0.1960691121205632 0.2144450415349319 0.5975271244412448
0.21403618243405387 0.30576825019125015 0.7274123257585231
0.31628908432768194 0.19139359127622088 0.6727022660317963
0.297311540926294 0.31452910610212476 0.6059448862412374
0.3960691121205632 0.2144450415349319 0.5975271244412448
0.4140361824340539 0.30576825019125015 0.7274123257585231
0.516289084327682 0.19139359127622088 0.6727022660317963
0.49731154092629404 0.31452910610212476 0.6059448862412374
0.5960691121205632 0.2144450415349319 0.5975271244412448
0.6140361824340539 0.30576825019125015 0.7274123257585231
0.7162890843276819 0.19139359127622088 0.6727022660317963
0.697311540926294 0.31452910610212476 0.6059448862412374
0.7960691121205632 0.2144450415349319 0.5975271244412448
0.8140361824340538 0.30576825019125015 0.7274123257585231
0.9162890843276821 0.19139359127622088 0.6727022660317963
0.8973115409262941 0.31452910610212476 0.6059448862412374
-0.003930887879436826 0.4144450415349319 0.5975271244412448
0.014036182434053846 0.50576825019125 0.7274123257585231
0.11628908432768191 0.3913935912762209 0.6727022660317963
0.09731154092629402 0.5145291061021248 0.6059448862412374
0.1960691121205632 0.4144450415349319 0.5975271244412448
0.21403618243405387 0.50576825019125 0.7274123257585231
0.31628908432768194 0.3913935912762209 0.6727022660317963
0.297311540926294 0.5145291061021248 0.6059448862412374
0.3960691121205632 0.4144450415349319 0.5975271244412448
0.4140361824340539 0.50576825019125 0.7274123257585231
0.516289084327682 0.3913935912762209 0.6727022660317963
0.49731154092629404 0.5145291061021248 0.6059448862412374
0.5960691121205632 0.4144450415349319 0.5975271244412448
0.6140361824340539 0.50576825019125 0.7274123257585231
0.7162890843276819 0.3913935912762209 0.6727022660317963
0.697311540926294 0.5145291061021248 0.6059448862412374
0.7960691121205632 0.4144450415349319 0.5975271244412448
0.8140361824340538 0.50576825019125 0.7274123257585231
0.9162890843276821 0.3913935912762209 0.6727022660317963
0.8973115409262941 0.5145291061021248 0.6059448862412374
-0.003930887879436826 0.6144450415349318 0.5975271244412448
0.014036182434053846 0.7057682501912501 0.7274123257585231
0.11628908432768191 0.5913935912762208 0.6727022660317963
0.09731154092629402 0.7145291061021247 0.6059448862412374
0.1960691121205632 0.6144450415349318 0.5975271244412448
0.21403618243405387 0.7057682501912501 0.7274123257585231
0.31628908432768194 0.5913935912762208 0.6727022660317963
0.297311540926294 0.7145291061021247 0.6059448862412374
0.3960691121205632 0.6144450415349318 0.5975271244412448
0.4140361824340539 0.7057682501912501 0.7274123257585231
0.516289084327682 0.5913935912762208 0.6727022660317963
0.49731154092629404 0.7145291061021247 0.6059448862412374
0.5960691121205632 0.6144450415349318 0.5975271244412448
0.6140361824340539 0.7057682501912501 0.7274123257585231
0.7162890843276819 0.5913935912762208 0.6727022660317963
0.697311540926294 0.7145291061021247 0.6059448862412374
0.7960691121205632 0.6144450415349318 0.5975271244412448
0.8140361824340538 0.7057682501912501 0.7274123257585231
0.9162890843276821 0.5913935912762208 0.6727022660317963
0.8973115409262941 0.7145291061021247 0.6059448862412374
-0.003930887879436826 0.8144450415349319 0.5975271244412448
0.014036182434053846 0.9057682501912501 0.7274123257585231
0.11628908432768191 0.7913935912762209 0.6727022660317963
0.09731154092629402 0.9145291061021248 0.6059448862412374
0.1960691121205632 0.8144450415349319 0.5975271244412448
0.21403618243405387 0.9057682501912501 0.7274123257585231
0.31628908432768194 0.7913935912762209 0.6727022660317963
0.297311540926294 0.9145291061021248 0.6059448862412374
0.3960691121205632 0.8144450415349319 0.5975271244412448
0.4140361824340539 0.9057682501912501 0.7274123257585231
0.516289084327682 0.7913935912762209 0.6727022660317963
0.49731154092629404 0.9145291061021248 0.6059448862412374
0.5960691121205632 0.8144450415349319 0.5975271244412448
0.6140361824340539 0.9057682501912501 0.7274123257585231
0.7162890843276819 0.7913935912762209 0.6727022660317963
0.697311540926294 0.9145291061021248 0.6059448862412374
0.7960691121205632 0.8144450415349319 0.5975271244412448
0.8140361824340538 0.9057682501912501 0.7274123257585231
0.9162890843276821 0.7913935912762209 0.6727022660317963
0.8973115409262941 0.9145291061021248 0.6059448862412374
-0.003930887879436826 0.014445041534931877 0.7975271244412449
0.014036182434053846 0.10576825019125012 0.9274123257585232
0.11628908432768191 -0.008606408723779133 0.8727022660317962
0.09731154092629402 0.11452910610212474 0.8059448862412375
0.1960691121205632 0.014445041534931877 0.7975271244412449
0.21403618243405387 0.10576825019125012 0.9274123257585232
0.31628908432768194 -0.008606408723779133 0.8727022660317962
0.297311540926294 0.11452910610212474 0.8059448862412375
0.3960691121205632 0.014445041534931877 0.7975271244412449
0.4140361824340539 0.10576825019125012 0.9274123257585232
0.516289084327682 -0.008606408723779133 0.8727022660317962
0.49731154092629404 0.11452910610212474 0.8059448862412375
0.5960691121205632 0.014445041534931877 0.7975271244412449
0.6140361824340539 0.10576825019125012 0.9274123257585232
0.7162890843276819 -0.008606408723779133 0.8727022660317962
0.697311540926294 0.11452910610212474 0.8059448862412375
0.7960691121205632 0.014445041534931877 0.7975271244412449
0.8140361824340538 0.10576825019125012 0.9274123257585232
0.9162890843276821 -0.008606408723779133 0.8727022660317962
0.8973115409262941 0.11452910610212474 0.8059448862412375
-0.003930887879436826 0.2144450415349319 0.7975271244412449
0.014036182434053846 0.30576825019125015 0.9274123257585232
0.11628908432768191 0.19139359127622088 0.8727022660317962
0.09731154092629402 0.31452910610212476 0.8059448862412375
0.1960691121205632 0.2144450415349319 0.7975271244412449
0.21403618243405387 0.30576825019125015 0.9274123257585232
0.31628908432768194 0.19139359127622088 0.8727022660317962
0.297311540926294 0.31452910610212476 0.8059448862412375
0.3960691121205632 0.2144450415349319 0.7975271244412449
0.4140361824340539 0.30576825019125015 0.9274123257585232
0.516289084327682 0.19139359127622088 0.8727022660317962
0.49731154092629404 0.31452910610212476 0.8059448862412375
0.5960691121205632 0.2144450415349319 0.7975271244412449
0.6140361824340539 0.30576825019125015 0.9274123257585232
0.7162890843276819 0.19139359127622088 0.8727022660317962
0.697311540926294 0.31452910610212476 0.8059448862412375
0.7960691121205632 0.2144450415349319 0.7975271244412449
0.8140361824340538 0.30576825019125015 0.9274123257585232
0.9162890843276821 0.19139359127622088 0.8727022660317962
0.8973115409262941 0.31452910610212476 0.8059448862412375
-0.003930887879436826 0.4144450415349319 0.7975271244412449
0.014036182434053846 0.50576825019125 0.9274123257585232
0.11628908432768191 0.3913935912762209 0.8727022660317962
0.09731154092629402 0.5145291061021248 0.8059448862412375
0.1960691121205632 0.4144450415349319 0.7975271244412449
0.21403618243405387 0.50576825019125 0.9274123257585232
0.31628908432768194 0.3913935912762209 0.8727022660317962
0.297311540926294 0.5145291061021248 0.8059448862412375
0.3960691121205632 0.4144450415349319 0.7975271244412449
0.4140361824340539 0.50576825019125 0.9274123257585232
0.516289084327682 0.3913935912762209 0.8727022660317962
0.49731154092629404 0.5145291061021248 0.8059448862412375
0.5960691121205632 0.4144450415349319 0.7975271244412449
0.6140361824340539 0.50576825019125 0.9274123257585232
0.7162890843276819 0.3913935912762209 0.8727022660317962
0.697311540926294 0.5145291061021248 0.8059448862412375
0.7960691121205632 0.4144450415349319 0.7975271244412449
0.8140361824340538 0.50576825019125 0.9274123257585232
0.9162890843276821 0.3913935912762209 0.8727022660317962
0.8973115409262941 0.5145291061021248 0.8059448862412375
-0.003930887879436826 0.6144450415349318 0.7975271244412449
0.014036182434053846 0.7057682501912501 0.9274123257585232
0.11628908432768191 0.5913935912762208 0.8727022660317962
0.09731154092629402 0.7145291061021247 0.8059448862412375
0.1960691121205632 0.6144450415349318 0.7975271244412449
0.21403618243405387 0.7057682501912501 0.9274123257585232
0.31628908432768194 0.5913935912762208 0.8727022660317962
0.297311540926294 0.7145291061021247 0.8059448862412375
0.3960691121205632 0.6144450415349318 0.7975271244412449
0.4140361824340539 0.7057682501912501 0.9274123257585232
0.516289084327682 0.5913935912762208 0.8727022660317962
0.49731154092629404 0.7145291061021247 0.8059448862412375
0.5960691121205632 0.6144450415349318 0.7975271244412449
0.6140361824340539 0.7057682501912501 0.9274123257585232
0.7162890843276819 0.5913935912762208 0.8727022660317962
0.697311540926294 0.7145291061021247 0.8059448862412375
0.7960691121205632 0.6144450415349318 0.7975271244412449
0.8140361824340538 0.7057682501912501 0.9274123257585232
0.9162890843276821 0.5913935912762208 0.8727022660317962
0.8973115409262941 0.7145291061021247 0.8059448862412375
-0.003930887879436826 0.8144450415349319 0.7975271244412449
0.014036182434053846 0.9057682501912501 0.9274123257585232
0.11628908432768191 0.7913935912762209 0.8727022660317962
0.09731154092629402 0.9145291061021248 0.8059448862412375
0.1960691121205632 0.8144450415349319 0.7975271244412449
0.21403618243405387 0.9057682501912501 0.9274123257585232
0.31628908432768194 0.7913935912762209 0.8727022660317962
0.297311540926294 0.9145291061021248 0.8059448862412375
0.3960691121205632 0.8144450415349319 0.7975271244412449
0.4140361824340539 0.9057682501912501 0.9274123257585232
0.516289084327682 0.7913935912762209 0.8727022660317962
0.49731154092629404 0.9145291061021248 0.8059448862412375
0.5960691121205632 0.8144450415349319 0.7975271244412449
0.6140361824340539 0.9057682501912501 0.9274123257585232
0.7162890843276819 0.7913935912762209 0.8727022660317962
0.697311540926294 0.9145291061021248 0.8059448862412375
0.7960691121205632 0.8144450415349319 0.7975271244412449
0.8140361824340538 0.9057682501912501 0.9274123257585232
0.9162890843276821 0.7913935912762209 0.8727022660317962
0.8973115409262941 0.9145291061021248 0.8059448862412375
0.07346692353412819 0.017389792282715713 0.010515259411280082
0.0065818216222302195 0.12193355995893645 -0.027285040064665353
-0.029398997812120072 0.020061464852728562 0.10594083998576019
0.08071929161517406 0.10131708847989232 0.08291935347364549
0.2734669235341282 0.017389792282715713 0.010515259411280082
0.2065818216222302 0.12193355995893645 -0.027285040064665353
0.17060100218787994 0.020061464852728562 0.10594083998576019
0.2807192916151741 0.10131708847989232 0.08291935347364549
0.4734669235341282 0.017389792282715713 0.010515259411280082
0.4065818216222303 0.12193355995893645 -0.027285040064665353
0.37060100218787995 0.020061464852728562 0.10594083998576019
0.4807192916151741 0.10131708847989232 0.08291935347364549
0.6734669235341282 0.017389792282715713 0.010515259411280082
0.6065818216222303 0.12193355995893645 -0.027285040064665353
0.5706010021878799 0.020061464852728562 0.10594083998576019
0.6807192916151741 0.10131708847989232 0.08291935347364549
0.8734669235341284 0.017389792282715713 0.010515259411280082
0.8065818216222302 0.12193355995893645 -0.027285040064665353
0.77060100218788 0.020061464852728562 0.10594083998576019
0.880719291615174 0.10131708847989232 0.08291935347364549
0.07346692353412819 0.2173897922827157 0.010515259411280082
0.0065818216222302195 0.32193355995893647 -0.027285040064665353
-0.029398997812120072 0.22006146485272857 0.10594083998576019
0.08071929161517406 0.30131708847989236 0.08291935347364549
0.2734669235341282 0.2173897922827157 0.010515259411280082
0.2065818216222302 0.32193355995893647 -0.027285040064665353
0.17060100218787994 0.22006146485272857 0.10594083998576019
0.2807192916151741 0.30131708847989236 0.08291935347364549
0.4734669235341282 0.2173897922827157 0.010515259411280082
0.4065818216222303 0.32193355995893647 -0.027285040064665353
0.37060100218787995 0.22006146485272857 0.10594083998576019
0.4807192916151741 0.30131708847989236 0.08291935347364549
0.6734669235341282 0.2173897922827157 0.010515259411280082
0.6065818216222303 0.32193355995893647 -0.027285040064665353
0.5706010021878799 0.22006146485272857 0.10594083998576019
0.6807192916151741 0.30131708847989236 0.08291935347364549
0.8734669235341284 0.2173897922827157 0.010515259411280082
0.8065818216222302 0.32193355995893647 -0.027285040064665353
0.77060100218788 0.22006146485272857 0.10594083998576019
0.880719291615174 0.30131708847989236 0.08291935347364549
0.07346692353412819 0.4173897922827157 0.010515259411280082
0.0065818216222302195 0.5219335599589364 -0.027285040064665353
-0.029398997812120072 0.4200614648527286 0.10594083998576019
0.08071929161517406 0.5013170884798923 0.08291935347364549
0.2734669235341282 0.4173897922827157 0.010515259411280082
0.2065818216222302 0.5219335599589364 -0.027285040064665353
0.17060100218787994 0.4200614648527286 0.10594083998576019
0.2807192916151741 0.5013170884798923 0.08291935347364549
0.4734669235341282 0.4173897922827157 0.010515259411280082
0.4065818216222303 0.5219335599589364 -0.027285040064665353
0.37060100218787995 0.4200614648527286 0.10594083998576019
0.4807192916151741 0.5013170884798923 0.08291935347364549
0.6734669235341282 0.4173897922827157 0.010515259411280082
0.6065818216222303 0.5219335599589364 -0.027285040064665353
0.5706010021878799 0.4200614648527286 0.10594083998576019
0.6807192916151741 0.5013170884798923 0.08291935347364549
0.8734669235341284 0.4173897922827157 0.010515259411280082
0.8065818216222302 0.5219335599589364 -0.027285040064665353
0.77060100218788 0.4200614648527286 0.10594083998576019
0.880719291615174 0.5013170884798923 0.08291935347364549
0.07346692353412819 0.6173897922827157 0.010515259411280082
0.0065818216222302195 0.7219335599589365 -0.027285040064665353
-0.029398997812120072 0.6200614648527286 0.10594083998576019
0.08071929161517406 0.7013170884798923 0.08291935347364549
0.2734669235341282 0.6173897922827157 0.010515259411280082
0.2065818216222302 0.7219335599589365 -0.027285040064665353
0.17060100218787994 0.6200614648527286 0.10594083998576019
0.2807192916151741 0.7013170884798923 0.08291935347364549
0.4734669235341282 0.6173897922827157 0.010515259411280082
0.4065818216222303 0.7219335599589365 -0.027285040064665353
0.37060100218787995 0.6200614648527286 0.10594083998576019
0.4807192916151741 0.7013170884798923 0.08291935347364549
0.6734669235341282 0.6173897922827157 0.010515259411280082
0.6065818216222303 0.7219335599589365 -0.027285040064665353
0.5706010021878799 0.6200614648527286 0.10594083998576019
0.6807192916151741 0.7013170884798923 0.08291935347364549
0.8734669235341284 0.6173897922827157 0.010515259411280082
0.8065818216222302 0.7219335599589365 -0.027285040064665353
0.77060100218788 0.6200614648527286 0.10594083998576019
0.880719291615174 0.7013170884798923 0.08291935347364549
0.07346692353412819 0.8173897922827158 0.010515259411280082
0.0065818216222302195 0.9219335599589364 -0.027285040064665353
-0.029398997812120072 0.8200614648527286 0.10594083998576019
0.08071929161517406 0.9013170884798923 0.08291935347364549
0.2734669235341282 0.8173897922827158 0.010515259411280082
0.2065818216222302 0.9219335599589364 -0.027285040064665353
0.17060100218787994 0.8200614648527286 0.10594083998576019
0.2807192916151741 0.9013170884798923 0.08291935347364549
0.4734669235341282 0.8173897922827158 0.010515259411280082
0.4065818216222303 0.9219335599589364 -0.027285040064665353
0.37060100218787995 0.8200614648527286 0.10594083998576019
0.4807192916151741 0.9013170884798923 0.08291935347364549
0.6734669235341282 0.8173897922827158 0.010515259411280082
0.6065818216222303 0.9219335599589364 -0.027285040064665353
0.5706010021878799 0.8200614648527286 0.10594083998576019
0.6807192916151741 0.9013170884798923 0.08291935347364549
0.8734669235341284 0.8173897922827158 0.010515259411280082
0.8065818216222302 0.9219335599589364 -0.027285040064665353
0.77060100218788 0.8200614648527286 0.10594083998576019
0.880719291615174 0.9013170884798923 0.08291935347364549
0.07346692353412819 0.017389792282715713 0.21051525941128008
0.0065818216222302195 0.12193355995893645 0.17271495993533467
-0.029398997812120072 0.020061464852728562 0.30594083998576016
0.08071929161517406 0.10131708847989232 0.2829193534736455
0.2734669235341282 0.017389792282715713 0.21051525941128008
0.2065818216222302 0.12193355995893645 0.17271495993533467
0.17060100218787994 0.020061464852728562 0.30594083998576016
0.2807192916151741 0.10131708847989232 0.2829193534736455
0.4734669235341282 0.017389792282715713 0.21051525941128008
0.4065818216222303 0.12193355995893645 0.17271495993533467
0.37060100218787995 0.020061464852728562 0.30594083998576016
0.4807192916151741 0.10131708847989232 0.2829193534736455
0.6734669235341282 0.017389792282715713 0.21051525941128008
0.6065818216222303 0.12193355995893645 0.17271495993533467
0.5706010021878799 0.020061464852728562 0.30594083998576016
0.6807192916151741 0.10131708847989232 0.2829193534736455
0.8734669235341284 0.017389792282715713 0.21051525941128008
0.8065818216222302 0.12193355995893645 0.17271495993533467
0.77060100218788 0.020061464852728562 0.30594083998576016
0.880719291615174 0.10131708847989232 0.2829193534736455
0.07346692353412819 0.2173897922827157 0.21051525941128008
0.0065818216222302195 0.32193355995893647 0.17271495993533467
-0.029398997812120072 0.22006146485272857 0.30594083998576016
0.08071929161517406 0.30131708847989236 0.2829193534736455
0.2734669235341282 0.2173897922827157 0.21051525941128008
0.2065818216222302 0.32193355995893647 0.17271495993533467
0.17060100218787994 0.22006146485272857 0.30594083998576016
0.2807192916151741 0.30131708847989236 0.2829193534736455
0.4734669235341282 0.2173897922827157 0.21051525941128008
0.4065818216222303 0.32193355995893647 0.17271495993533467
0.37060100218787995 0.22006146485272857 0.30594083998576016
0.4807192916151741 0.30131708847989236 0.2829193534736455
0.6734669235341282 0.2173897922827157 0.21051525941128008
0.6065818216222303 0.32193355995893647 0.17271495993533467
0.5706010021878799 0.22006146485272857 0.30594083998576016
0.6807192916151741 0.30131708847989236 0.2829193534736455
0.8734669235341284 0.2173897922827157 0.21051525941128008
0.8065818216222302 0.32193355995893647 0.17271495993533467
0.77060100218788 0.22006146485272857 0.30594083998576016
0.880719291615174 0.30131708847989236 0.2829193534736455
0.07346692353412819 0.4173897922827157 0.21051525941128008
0.0065818216222302195 0.5219335599589364 0.17271495993533467
-0.029398997812120072 0.4200614648527286 0.30594083998576016
0.08071929161517406 0.5013170884798923 0.2829193534736455
0.2734669235341282 0.4173897922827157 0.21051525941128008
0.2065818216222302 0.5219335599589364 0.17271495993533467
0.17060100218787994 0.4200614648527286 0.30594083998576016
0.2807192916151741 0.5013170884798923 0.2829193534736455
0.4734669235341282 0.4173897922827157 0.21051525941128008
0.4065818216222303 0.5219335599589364 0.17271495993533467
0.37060100218787995 0.4200614648527286 0.30594083998576016
0.4807192916151741 0.5013170884798923 0.2829193534736455
0.6734669235341282 0.4173897922827157 0.21051525941128008
0.6065818216222303 0.5219335599589364 0.17271495993533467
0.5706010021878799 0.4200614648527286 0.30594083998576016
0.6807192916151741 0.5013170884798923 0.2829193534736455
0.8734669235341284 0.4173897922827157 0.21051525941128008
0.8065818216222302 0.5219335599589364 0.17271495993533467
0.77060100218788 0.4200614648527286 0.30594083998576016
0.880719291615174 0.5013170884798923 0.2829193534736455
0.07346692353412819 0.6173897922827157 0.21051525941128008
0.0065818216222302195 0.7219335599589365 0.17271495993533467
-0.029398997812120072 0.6200614648527286 0.30594083998576016
0.08071929161517406 0.7013170884798923 0.2829193534736455
0.2734669235341282 0.6173897922827157 0.21051525941128008
0.2065818216222302 0.7219335599589365 0.17271495993533467
0.17060100218787994 0.6200614648527286 0.30594083998576016
0.2807192916151741 0.7013170884798923 0.2829193534736455
0.4734669235341282 0.6173897922827157 0.21051525941128008
0.4065818216222303 0.7219335599589365 0.17271495993533467
0.37060100218787995 0.6200614648527286 0.30594083998576016
0.4807192916151741 0.7013170884798923 0.2829193534736455
0.6734669235341282 0.6173897922827157 0.21051525941128008
0.6065818216222303 0.7219335599589365 0.17271495993533467
0.5706010021878799 0.6200614648527286 0.30594083998576016
0.6807192916151741 0.7013170884798923 0.2829193534736455
0.8734669235341284 0.6173897922827157 0.21051525941128008
0.8065818216222302 0.7219335599589365 0.17271495993533467
0.77060100218788 0.6200614648527286 0.30594083998576016
0.880719291615174 0.7013170884798923 0.2829193534736455
0.07346692353412819 0.8173897922827158 0.21051525941128008
0.0065818216222302195 0.9219335599589364 0.17271495993533467
-0.029398997812120072 0.8200614648527286 0.30594083998576016
0.08071929161517406 0.9013170884798923 0.2829193534736455
0.2734669235341282 0.8173897922827158 0.21051525941128008
0.2065818216222302 0.9219335599589364 0.17271495993533467
0.17060100218787994 0.8200614648527286 0.30594083998576016
0.2807192916151741 0.9013170884798923 0.2829193534736455
0.4734669235341282 0.8173897922827158 0.21051525941128008
0.4065818216222303 0.9219335599589364 0.17271495993533467
0.37060100218787995 0.8200614648527286 0.30594083998576016
0.4807192916151741 0.9013170884798923 0.2829193534736455
0.6734669235341282 0.8173897922827158 0.21051525941128008
0.6065818216222303 0.9219335599589364 0.17271495993533467
0.5706010021878799 0.8200614648527286 0.30594083998576016
0.6807192916151741 0.9013170884798923 0.2829193534736455
0.8734669235341284 0.8173897922827158 0.21051525941128008
0.8065818216222302 0.9219335599589364 0.17271495993533467
0.77060100218788 0.8200614648527286 0.30594083998576016
0.880719291615174 0.9013170884798923 0.2829193534736455
0.07346692353412819 0.017389792282715713 0.41051525941128014
0.0065818216222302195 0.12193355995893645 0.37271495993533466
-0.029398997812120072 0.020061464852728562 0.5059408399857602
0.08071929161517406 0.10131708847989232 0.48291935347364545
0.2734669235341282 0.017389792282715713 0.41051525941128014
0.2065818216222302 0.12193355995893645 0.37271495993533466
0.17060100218787994 0.020061464852728562 0.5059408399857602
0.2807192916151741 0.10131708847989232 0.48291935347364545
0.4734669235341282 0.017389792282715713 0.41051525941128014
0.4065818216222303 0.12193355995893645 0.37271495993533466
0.37060100218787995 0.020061464852728562 0.5059408399857602
0.4807192916151741 0.10131708847989232 0.48291935347364545
0.6734669235341282 0.017389792282715713 0.41051525941128014
0.6065818216222303 0.12193355995893645 0.37271495993533466
0.5706010021878799 0.020061464852728562 0.5059408399857602
0.6807192916151741 0.10131708847989232 0.48291935347364545
0.8734669235341284 0.017389792282715713 0.41051525941128014
0.8065818216222302 0.12193355995893645 0.37271495993533466
0.77060100218788 0.020061464852728562 0.5059408399857602
0.880719291615174 0.10131708847989232 0.48291935347364545
0.07346692353412819 0.2173897922827157 0.41051525941128014
0.0065818216222302195 0.32193355995893647 0.37271495993533466
-0.029398997812120072 0.22006146485272857 0.5059408399857602
0.08071929161517406 0.30131708847989236 0.48291935347364545
0.2734669235341282 0.2173897922827157 0.41051525941128014
0.2065818216222302 0.32193355995893647 0.37271495993533466
0.17060100218787994 0.22006146485272857 0.5059408399857602
0.2807192916151741 0.30131708847989236 0.48291935347364545
0.4734669235341282 0.2173897922827157 0.41051525941128014
0.4065818216222303 0.32193355995893647 0.37271495993533466
0.37060100218787995 0.22006146485272857 0.5059408399857602
0.4807192916151741 0.30131708847989236 0.48291935347364545
0.6734669235341282 0.2173897922827157 0.41051525941128014
0.6065818216222303 0.32193355995893647 0.37271495993533466
0.5706010021878799 0.22006146485272857 0.5059408399857602
0.6807192916151741 0.30131708847989236 0.48291935347364545
0.8734669235341284 0.2173897922827157 0.41051525941128014
0.8065818216222302 0.32193355995893647 0.37271495993533466
0.77060100218788 0.22006146485272857 0.5059408399857602
0.880719291615174 0.30131708847989236 0.48291935347364545
0.07346692353412819 0.4173897922827157 0.41051525941128014
0.0065818216222302195 0.5219335599589364 0.37271495993533466
-0.029398997812120072 0.4200614648527286 0.5059408399857602
0.08071929161517406 0.5013170884798923 0.48291935347364545
0.2734669235341282 0.4173897922827157 0.41051525941128014
0.2065818216222302 0.5219335599589364 0.37271495993533466
0.17060100218787994 0.4200614648527286 0.5059408399857602
0.2807192916151741 0.5013170884798923 0.48291935347364545
0.4734669235341282 0.4173897922827157 0.41051525941128014
0.4065818216222303 0.5219335599589364 0.37271495993533466
0.37060100218787995 0.4200614648527286 0.5059408399857602
0.4807192916151741 0.5013170884798923 0.48291935347364545
0.6734669235341282 0.4173897922827157 0.41051525941128014
0.6065818216222303 0.5219335599589364 0.37271495993533466
0.5706010021878799 0.4200614648527286 0.5059408399857602
0.6807192916151741 0.5013170884798923 0.48291935347364545
0.8734669235341284 0.4173897922827157 0.41051525941128014
0.8065818216222302 0.5219335599589364 0.37271495993533466
0.77060100218788 0.4200614648527286 0.5059408399857602
0.880719291615174 0.5013170884798923 0.48291935347364545
0.07346692353412819 0.6173897922827157 0.41051525941128014
0.0065818216222302195 0.7219335599589365 0.37271495993533466
-0.029398997812120072 0.6200614648527286 0.5059408399857602
0.08071929161517406 0.7013170884798923 0.48291935347364545
0.2734669235341282 0.6173897922827157 0.41051525941128014
0.2065818216222302 0.7219335599589365 0.37271495993533466
0.17060100218787994 0.6200614648527286 0.5059408399857602
0.2807192916151741 0.7013170884798923 0.48291935347364545
0.4734669235341282 0.6173897922827157 0.41051525941128014
0.4065818216222303 0.7219335599589365 0.37271495993533466
0.37060100218787995 0.6200614648527286 0.5059408399857602
0.4807192916151741 0.7013170884798923 0.48291935347364545
0.6734669235341282 0.6173897922827157 0.41051525941128014
0.6065818216222303 0.7219335599589365 0.37271495993533466
0.5706010021878799 0.6200614648527286 0.5059408399857602
0.6807192916151741 0.7013170884798923 0.48291935347364545
0.8734669235341284 0.6173897922827157 0.41051525941128014
0.8065818216222302 0.7219335599589365 0.37271495993533466
0.77060100218788 0.6200614648527286 0.5059408399857602
0.880719291615174 0.7013170884798923 0.48291935347364545
0.07346692353412819 0.8173897922827158 0.41051525941128014
0.0065818216222302195 0.9219335599589364 0.37271495993533466
-0.029398997812120072 0.8200614648527286 0.5059408399857602
0.08071929161517406 0.9013170884798923 0.48291935347364545
0.2734669235341282 0.8173897922827158 0.41051525941128014
0.2065818216222302 0.9219335599589364 0.37271495993533466
0.17060100218787994 0.8200614648527286 0.5059408399857602
0.2807192916151741 0.9013170884798923 0.48291935347364545
0.4734669235341282 0.8173897922827158 0.41051525941128014
0.4065818216222303 0.9219335599589364 0.37271495993533466
0.37060100218787995 0.8200614648527286 0.5059408399857602
0.4807192916151741 0.9013170884798923 0.48291935347364545
0.6734669235341282 0.8173897922827158 0.41051525941128014
0.6065818216222303 0.9219335599589364 0.37271495993533466
0.5706010021878799 0.8200614648527286 0.5059408399857602
0.6807192916151741 0.9013170884798923 0.48291935347364545
0.8734669235341284 0.8173897922827158 0.41051525941128014
0.8065818216222302 0.9219335599589364 0.37271495993533466
0.77060100218788 0.8200614648527286 0.5059408399857602
0.880719291615174 0.9013170884798923 0.48291935347364545
0.07346692353412819 0.017389792282715713 0.6105152594112802
0.0065818216222302195 0.12193355995893645 0.5727149599353346
-0.029398997812120072 0.020061464852728562 0.7059408399857602
0.08071929161517406 0.10131708847989232 0.6829193534736455
0.2734669235341282 0.017389792282715713 0.6105152594112802
0.2065818216222302 0.12193355995893645 0.5727149599353346
0.17060100218787994 0.020061464852728562 0.7059408399857602
0.2807192916151741 0.10131708847989232 0.6829193534736455
0.4734669235341282 0.017389792282715713 0.6105152594112802
0.4065818216222303 0.12193355995893645 0.5727149599353346
0.37060100218787995 0.020061464852728562 0.7059408399857602
0.4807192916151741 0.10131708847989232 0.6829193534736455
0.6734669235341282 0.017389792282715713 0.6105152594112802
0.6065818216222303 0.12193355995893645 0.5727149599353346
0.5706010021878799 0.020061464852728562 0.7059408399857602
0.6807192916151741 0.10131708847989232 0.6829193534736455
0.8734669235341284 0.017389792282715713 0.6105152594112802
0.8065818216222302 0.12193355995893645 0.5727149599353346
0.77060100218788 0.020061464852728562 0.7059408399857602
0.880719291615174 0.10131708847989232 0.6829193534736455
0.07346692353412819 0.2173897922827157 0.6105152594112802
0.0065818216222302195 0.32193355995893647 0.5727149599353346
-0.029398997812120072 0.22006146485272857 0.7059408399857602
0.08071929161517406 0.30131708847989236 0.6829193534736455
0.2734669235341282 0.2173897922827157 0.6105152594112802
0.2065818216222302 0.32193355995893647 0.5727149599353346
0.17060100218787994 0.22006146485272857 0.7059408399857602
0.2807192916151741 0.30131708847989236 0.6829193534736455
0.4734669235341282 0.2173897922827157 0.6105152594112802
0.4065818216222303 0.32193355995893647 0.5727149599353346
0.37060100218787995 0.22006146485272857 0.7059408399857602
0.4807192916151741 0.30131708847989236 0.6829193534736455
0.6734669235341282 0.2173897922827157 0.6105152594112802
0.6065818216222303 0.32193355995893647 0.5727149599353346
0.5706010021878799 0.22006146485272857 0.7059408399857602
0.6807192916151741 0.30131708847989236 0.6829193534736455
0.8734669235341284 0.2173897922827157 0.6105152594112802
0.8065818216222302 0.32193355995893647 0.5727149599353346
0.77060100218788 0.22006146485272857 0.7059408399857602
0.880719291615174 0.30131708847989236 0.6829193534736455
0.07346692353412819 0.4173897922827157 0.6105152594112802
0.0065818216222302195 0.5219335599589364 0.5727149599353346
-0.029398997812120072 0.4200614648527286 0.7059408399857602
0.08071929161517406 0.5013170884798923 0.6829193534736455
0.2734669235341282 0.4173897922827157 0.6105152594112802
0.2065818216222302 0.5219335599589364 0.5727149599353346
0.17060100218787994 0.4200614648527286 0.7059408399857602
0.2807192916151741 0.5013170884798923 0.6829193534736455
0.4734669235341282 0.4173897922827157 0.6105152594112802
0.4065818216222303 0.5219335599589364 0.5727149599353346
0.37060100218787995 0.4200614648527286 0.7059408399857602
0.4807192916151741 0.5013170884798923 0.6829193534736455
0.6734669235341282 0.4173897922827157 0.6105152594112802
0.6065818216222303 0.5219335599589364 0.5727149599353346
0.5706010021878799 0.4200614648527286 0.7059408399857602
0.6807192916151741 0.5013170884798923 0.6829193534736455
0.8734669235341284 0.4173897922827157 0.6105152594112802
0.8065818216222302 0.5219335599589364 0.5727149599353346
0.77060100218788 0.4200614648527286 0.7059408399857602
0.880719291615174 0.5013170884798923 0.6829193534736455
0.07346692353412819 0.6173897922827157 0.6105152594112802
0.0065818216222302195 0.7219335599589365 0.5727149599353346
-0.029398997812120072 0.6200614648527286 0.7059408399857602
0.08071929161517406 0.7013170884798923 0.6829193534736455
0.2734669235341282 0.6173897922827157 0.6105152594112802
0.2065818216222302 0.7219335599589365 0.5727149599353346
0.17060100218787994 0.6200614648527286 0.7059408399857602
0.2807192916151741 0.7013170884798923 0.6829193534736455
0.4734669235341282 0.6173897922827157 0.6105152594112802
0.4065818216222303 0.7219335599589365 0.5727149599353346
0.37060100218787995 0.6200614648527286 0.7059408399857602
0.4807192916151741 0.7013170884798923 0.6829193534736455
0.6734669235341282 0.6173897922827157 0.6105152594112802
0.6065818216222303 0.7219335599589365 0.5727149599353346
0.5706010021878799 0.6200614648527286 0.7059408399857602
0.6807192916151741 0.7013170884798923 0.6829193534736455
0.8734669235341284 0.6173897922827157 0.6105152594112802
0.8065818216222302 0.7219335599589365 0.5727149599353346
0.77060100218788 0.6200614648527286 0.7059408399857602
0.880719291615174 0.7013170884798923 0.6829193534736455
0.07346692353412819 0.8173897922827158 0.6105152594112802
0.0065818216222302195 0.9219335599589364 0.5727149599353346
-0.029398997812120072 0.8200614648527286 0.7059408399857602
0.08071929161517406 0.9013170884798923 0.6829193534736455
0.2734669235341282 0.8173897922827158 0.6105152594112802
0.2065818216222302 0.9219335599589364 0.5727149599353346
0.17060100218787994 0.8200614648527286 0.7059408399857602
0.2807192916151741 0.9013170884798923 0.6829193534736455
0.4734669235341282 0.8173897922827158 0.6105152594112802
0.4065818216222303 0.9219335599589364 0.5727149599353346
0.37060100218787995 0.8200614648527286 0.7059408399857602
0.4807192916151741 0.9013170884798923 0.6829193534736455
0.6734669235341282 0.8173897922827158 0.6105152594112802
0.6065818216222303 0.9219335599589364 0.5727149599353346
0.5706010021878799 0.8200614648527286 0.7059408399857602
0.6807192916151741 0.9013170884798923 0.6829193534736455
0.8734669235341284 0.8173897922827158 0.6105152594112802
0.8065818216222302 0.9219335599589364 0.5727149599353346
0.77060100218788 0.8200614648527286 0.7059408399857602
0.880719291615174 0.9013170884798923 0.6829193534736455
0.07346692353412819 0.017389792282715713 0.8105152594112801
0.0065818216222302195 0.12193355995893645 0.7727149599353347
-0.029398997812120072 0.020061464852728562 0.9059408399857602
0.08071929161517406 0.10131708847989232 0.8829193534736455
0.2734669235341282 0.017389792282715713 0.8105152594112801
0.2065818216222302 0.12193355995893645 0.7727149599353347
0.17060100218787994 0.020061464852728562 0.9059408399857602
0.2807192916151741 0.10131708847989232 0.8829193534736455
0.4734669235341282 0.017389792282715713 0.8105152594112801
0.4065818216222303 0.12193355995893645 0.7727149599353347
0.37060100218787995 0.020061464852728562 0.9059408399857602
0.4807192916151741 0.10131708847989232 0.8829193534736455
0.6734669235341282 0.017389792282715713 0.8105152594112801
0.6065818216222303 0.12193355995893645 0.7727149599353347
0.5706010021878799 0.020061464852728562 0.9059408399857602
0.6807192916151741 0.10131708847989232 0.8829193534736455
0.8734669235341284 0.017389792282715713 0.8105152594112801
0.8065818216222302 0.12193355995893645 0.7727149599353347
0.77060100218788 0.020061464852728562 0.9059408399857602
0.880719291615174 0.10131708847989232 0.8829193534736455
0.07346692353412819 0.2173897922827157 0.8105152594112801
0.0065818216222302195 0.32193355995893647 0.7727149599353347
-0.029398997812120072 0.22006146485272857 0.9059408399857602
0.08071929161517406 0.30131708847989236 0.8829193534736455
0.2734669235341282 0.2173897922827157 0.8105152594112801
0.2065818216222302 0.32193355995893647 0.7727149599353347
0.17060100218787994 0.22006146485272857 0.9059408399857602
0.2807192916151741 0.30131708847989236 0.8829193534736455
0.4734669235341282 0.2173897922827157 0.8105152594112801
0.4065818216222303 0.32193355995893647 0.7727149599353347
0.37060100218787995 0.22006146485272857 0.9059408399857602
0.4807192916151741 0.30131708847989236 0.8829193534736455
0.6734669235341282 0.2173897922827157 0.8105152594112801
0.6065818216222303 0.32193355995893647 0.7727149599353347
0.5706010021878799 0.22006146485272857 0.9059408399857602
0.6807192916151741 0.30131708847989236 0.8829193534736455
0.8734669235341284 0.2173897922827157 0.8105152594112801
0.8065818216222302 0.32193355995893647 0.7727149599353347
0.77060100218788 0.22006146485272857 0.9059408399857602
0.880719291615174 0.30131708847989236 0.8829193534736455
0.07346692353412819 0.4173897922827157 0.8105152594112801
0.0065818216222302195 0.5219335599589364 0.7727149599353347
-0.029398997812120072 0.4200614648527286 0.9059408399857602
0.08071929161517406 0.5013170884798923 0.8829193534736455
0.2734669235341282 0.4173897922827157 0.8105152594112801
0.2065818216222302 0.5219335599589364 0.7727149599353347
0.17060100218787994 0.4200614648527286 0.9059408399857602
0.2807192916151741 0.5013170884798923 0.8829193534736455
0.4734669235341282 0.4173897922827157 0.8105152594112801
0.4065818216222303 0.5219335599589364 0.7727149599353347
0.37060100218787995 0.4200614648527286 0.9059408399857602
0.4807192916151741 0.5013170884798923 0.8829193534736455
0.6734669235341282 0.4173897922827157 0.8105152594112801
0.6065818216222303 0.5219335599589364 0.7727149599353347
0.5706010021878799 0.4200614648527286 0.9059408399857602
0.6807192916151741 0.5013170884798923 0.8829193534736455
0.8734669235341284 0.4173897922827157 0.8105152594112801
0.8065818216222302 0.5219335599589364 0.7727149599353347
0.77060100218788 0.4200614648527286 0.9059408399857602
0.880719291615174 0.5013170884798923 0.8829193534736455
0.07346692353412819 0.6173897922827157 0.8105152594112801
0.0065818216222302195 0.7219335599589365 0.7727149599353347
-0.029398997812120072 0.6200614648527286 0.9059408399857602
0.08071929161517406 0.7013170884798923 0.8829193534736455
0.2734669235341282 0.6173897922827157 0.8105152594112801
0.2065818216222302 0.7219335599589365 0.7727149599353347
0.17060100218787994 0.6200614648527286 0.9059408399857602
0.2807192916151741 0.7013170884798923 0.8829193534736455
0.4734669235341282 0.6173897922827157 0.8105152594112801
0.4065818216222303 0.7219335599589365 0.7727149599353347
0.37060100218787995 0.6200614648527286 0.9059408399857602
0.4807192916151741 0.7013170884798923 0.8829193534736455
0.6734669235341282 0.6173897922827157 0.8105152594112801
0.6065818216222303 0.7219335599589365 0.7727149599353347
0.5706010021878799 0.6200614648527286 0.9059408399857602
0.6807192916151741 0.7013170884798923 0.8829193534736455
0.8734669235341284 0.6173897922827157 0.8105152594112801
0.8065818216222302 0.7219335599589365 0.7727149599353347
0.77060100218788 0.6200614648527286 0.9059408399857602
0.880719291615174 0.7013170884798923 0.8829193534736455
0.07346692353412819 0.8173897922827158 0.8105152594112801
0.0065818216222302195 0.9219335599589364 0.7727149599353347
-0.029398997812120072 0.8200614648527286 0.9059408399857602
0.08071929161517406 0.9013170884798923 0.8829193534736455
0.2734669235341282 0.8173897922827158 0.8105152594112801
0.2065818216222302 0.9219335599589364 0.7727149599353347
0.17060100218787994 0.8200614648527286 0.9059408399857602
0.2807192916151741 0.9013170884798923 0.8829193534736455
0.4734669235341282 0.8173897922827158 0.8105152594112801
0.4065818216222303 0.9219335599589364 0.7727149599353347
0.37060100218787995 0.8200614648527286 0.9059408399857602
0.4807192916151741 0.9013170884798923 0.8829193534736455
0.6734669235341282 0.8173897922827158 0.8105152594112801
0.6065818216222303 0.9219335599589364 0.7727149599353347
0.5706010021878799 0.8200614648527286 0.9059408399857602
0.6807192916151741 0.9013170884798923 0.8829193534736455
0.8734669235341284 0.8173897922827158 0.8105152594112801
0.8065818216222302 0.9219335599589364 0.7727149599353347
0.77060100218788 0.8200614648527286 0.9059408399857602
0.880719291615174 0.9013170884798923 0.8829193534736455
