FCC BaO
3.971
5.0 0.0 0.0
0.0 5.0 0.0
0.0 0.0 5.0
Ba O 
500 500 
Direct
-0.01201740618990513 0.02716905321435713 0.004689169617918248
0.00804783825059401 0.12908986528990057 0.12431701019904172
0.11197450882047294 0.006970662435946545 0.09928555835680947
0.09389704819247464 0.09700125321802831 0.003199641312549053
0.18798259381009488 0.02716905321435713 0.004689169617918248
0.20804783825059403 0.12908986528990057 0.12431701019904172
0.31197450882047295 0.006970662435946545 0.09928555835680947
0.2938970481924747 0.09700125321802831 0.003199641312549053
0.3879825938100949 0.02716905321435713 0.004689169617918248
0.40804783825059404 0.12908986528990057 0.12431701019904172
0.5119745088204729 0.006970662435946545 0.09928555835680947
0.4938970481924747 0.09700125321802831 0.003199641312549053
0.5879825938100949 0.02716905321435713 0.004689169617918248
0.608047838250594 0.12908986528990057 0.12431701019904172
0.711974508820473 0.006970662435946545 0.09928555835680947
0.6938970481924747 0.09700125321802831 0.003199641312549053
0.7879825938100948 0.02716905321435713 0.004689169617918248
0.8080478382505941 0.12908986528990057 0.12431701019904172
0.9119745088204729 0.006970662435946545 0.09928555835680947
0.8938970481924747 0.09700125321802831 0.003199641312549053
-0.01201740618990513 0.22716905321435715 0.004689169617918248
0.00804783825059401 0.3290898652899006 0.12431701019904172
0.11197450882047294 0.20697066243594656 0.09928555835680947
0.09389704819247464 0.29700125321802834 0.003199641312549053
0.18798259381009488 0.22716905321435715 0.004689169617918248
0.20804783825059403 0.3290898652899006 0.12431701019904172
0.31197450882047295 0.20697066243594656 0.09928555835680947
0.2938970481924747 0.29700125321802834 0.003199641312549053
0.3879825938100949 0.22716905321435715 0.004689169617918248
0.40804783825059404 0.3290898652899006 0.12431701019904172
0.5119745088204729 0.20697066243594656 0.09928555835680947
0.4938970481924747 0.29700125321802834 0.003199641312549053
0.5879825938100949 0.22716905321435715 0.004689169617918248
0.608047838250594 0.3290898652899006 0.12431701019904172
0.711974508820473 0.20697066243594656 0.09928555835680947
0.6938970481924747 0.29700125321802834 0.003199641312549053
0.7879825938100948 0.22716905321435715 0.004689169617918248
0.8080478382505941 0.3290898652899006 0.12431701019904172
0.9119745088204729 0.20697066243594656 0.09928555835680947
0.8938970481924747 0.29700125321802834 0.003199641312549053
-0.01201740618990513 0.42716905321435716 0.004689169617918248
0.00804783825059401 0.5290898652899005 0.12431701019904172
0.11197450882047294 0.4069706624359466 0.09928555835680947
0.09389704819247464 0.4970012532180283 0.003199641312549053
0.18798259381009488 0.42716905321435716 0.004689169617918248
0.20804783825059403 0.5290898652899005 0.12431701019904172
0.31197450882047295 0.4069706624359466 0.09928555835680947
0.2938970481924747 0.4970012532180283 0.003199641312549053
0.3879825938100949 0.42716905321435716 0.004689169617918248
0.40804783825059404 0.5290898652899005 0.12431701019904172
0.5119745088204729 0.4069706624359466 0.09928555835680947
0.4938970481924747 0.4970012532180283 0.003199641312549053
0.5879825938100949 0.42716905321435716 0.004689169617918248
0.608047838250594 0.5290898652899005 0.12431701019904172
0.711974508820473 0.4069706624359466 0.09928555835680947
0.6938970481924747 0.4970012532180283 0.003199641312549053
0.7879825938100948 0.42716905321435716 0.004689169617918248
0.8080478382505941 0.5290898652899005 0.12431701019904172
0.9119745088204729 0.4069706624359466 0.09928555835680947
0.8938970481924747 0.4970012532180283 0.003199641312549053
-0.01201740618990513 0.6271690532143572 0.004689169617918248
0.00804783825059401 0.7290898652899006 0.12431701019904172
0.11197450882047294 0.6069706624359466 0.09928555835680947
0.09389704819247464 0.6970012532180283 0.003199641312549053
0.18798259381009488 0.6271690532143572 0.004689169617918248
0.20804783825059403 0.7290898652899006 0.12431701019904172
0.31197450882047295 0.6069706624359466 0.09928555835680947
0.2938970481924747 0.6970012532180283 0.003199641312549053
0.3879825938100949 0.6271690532143572 0.004689169617918248
0.40804783825059404 0.7290898652899006 0.12431701019904172
0.5119745088204729 0.6069706624359466 0.09928555835680947
0.4938970481924747 0.6970012532180283 0.003199641312549053
0.5879825938100949 0.6271690532143572 0.004689169617918248
0.608047838250594 0.7290898652899006 0.12431701019904172
0.711974508820473 0.6069706624359466 0.09928555835680947
0.6938970481924747 0.6970012532180283 0.003199641312549053
0.7879825938100948 0.6271690532143572 0.004689169617918248
0.8080478382505941 0.7290898652899006 0.12431701019904172
0.9119745088204729 0.6069706624359466 0.09928555835680947
0.8938970481924747 0.6970012532180283 0.003199641312549053
-0.01201740618990513 0.8271690532143572 0.004689169617918248
0.00804783825059401 0.9290898652899007 0.12431701019904172
0.11197450882047294 0.8069706624359466 0.09928555835680947
0.09389704819247464 0.8970012532180283 0.003199641312549053
0.18798259381009488 0.8271690532143572 0.004689169617918248
0.20804783825059403 0.9290898652899007 0.12431701019904172
0.31197450882047295 0.8069706624359466 0.09928555835680947
0.2938970481924747 0.8970012532180283 0.003199641312549053
0.3879825938100949 0.8271690532143572 0.004689169617918248
0.40804783825059404 0.9290898652899007 0.12431701019904172
0.5119745088204729 0.8069706624359466 0.09928555835680947
0.4938970481924747 0.8970012532180283 0.003199641312549053
0.5879825938100949 0.8271690532143572 0.004689169617918248
0.608047838250594 0.9290898652899007 0.12431701019904172
0.711974508820473 0.8069706624359466 0.09928555835680947
0.6938970481924747 0.8970012532180283 0.003199641312549053
0.7879825938100948 0.8271690532143572 0.004689169617918248
0.8080478382505941 0.9290898652899007 0.12431701019904172
0.9119745088204729 0.8069706624359466 0.09928555835680947
0.8938970481924747 0.8970012532180283 0.003199641312549053
-0.01201740618990513 0.02716905321435713 0.20468916961791825
0.00804783825059401 0.12908986528990057 0.32431701019904174
0.11197450882047294 0.006970662435946545 0.2992855583568095
0.09389704819247464 0.09700125321802831 0.20319964131254908
0.18798259381009488 0.02716905321435713 0.20468916961791825
0.20804783825059403 0.12908986528990057 0.32431701019904174
0.31197450882047295 0.006970662435946545 0.2992855583568095
0.2938970481924747 0.09700125321802831 0.20319964131254908
0.3879825938100949 0.02716905321435713 0.20468916961791825
0.40804783825059404 0.12908986528990057 0.32431701019904174
0.5119745088204729 0.006970662435946545 0.2992855583568095
0.4938970481924747 0.09700125321802831 0.20319964131254908
0.5879825938100949 0.02716905321435713 0.20468916961791825
0.608047838250594 0.12908986528990057 0.32431701019904174
0.711974508820473 0.006970662435946545 0.2992855583568095
0.6938970481924747 0.09700125321802831 0.20319964131254908
0.7879825938100948 0.02716905321435713 0.20468916961791825
0.8080478382505941 0.12908986528990057 0.32431701019904174
0.9119745088204729 0.006970662435946545 0.2992855583568095
0.8938970481924747 0.09700125321802831 0.20319964131254908
-0.01201740618990513 0.22716905321435715 0.20468916961791825
0.00804783825059401 0.3290898652899006 0.32431701019904174
0.11197450882047294 0.20697066243594656 0.2992855583568095
0.09389704819247464 0.29700125321802834 0.20319964131254908
0.18798259381009488 0.22716905321435715 0.20468916961791825
0.20804783825059403 0.3290898652899006 0.32431701019904174
0.31197450882047295 0.20697066243594656 0.2992855583568095
0.2938970481924747 0.29700125321802834 0.20319964131254908
0.3879825938100949 0.22716905321435715 0.20468916961791825
0.40804783825059404 0.3290898652899006 0.32431701019904174
0.5119745088204729 0.20697066243594656 0.2992855583568095
0.4938970481924747 0.29700125321802834 0.20319964131254908
0.5879825938100949 0.22716905321435715 0.20468916961791825
0.608047838250594 0.3290898652899006 0.32431701019904174
0.711974508820473 0.20697066243594656 0.2992855583568095
0.6938970481924747 0.29700125321802834 0.20319964131254908
0.7879825938100948 0.22716905321435715 0.20468916961791825
0.8080478382505941 0.3290898652899006 0.32431701019904174
0.9119745088204729 0.20697066243594656 0.2992855583568095
0.8938970481924747 0.29700125321802834 0.20319964131254908
-0.01201740618990513 0.42716905321435716 0.20468916961791825
0.00804783825059401 0.5290898652899005 0.32431701019904174
0.11197450882047294 0.4069706624359466 0.2992855583568095
0.09389704819247464 0.4970012532180283 0.20319964131254908
0.18798259381009488 0.42716905321435716 0.20468916961791825
0.20804783825059403 0.5290898652899005 0.32431701019904174
0.31197450882047295 0.4069706624359466 0.2992855583568095
0.2938970481924747 0.4970012532180283 0.20319964131254908
0.3879825938100949 0.42716905321435716 0.20468916961791825
0.40804783825059404 0.5290898652899005 0.32431701019904174
0.5119745088204729 0.4069706624359466 0.2992855583568095
0.4938970481924747 0.4970012532180283 0.20319964131254908
0.5879825938100949 0.42716905321435716 0.20468916961791825
0.608047838250594 0.5290898652899005 0.32431701019904174
0.711974508820473 0.4069706624359466 0.2992855583568095
0.6938970481924747 0.4970012532180283 0.20319964131254908
0.7879825938100948 0.42716905321435716 0.20468916961791825
0.8080478382505941 0.5290898652899005 0.32431701019904174
0.9119745088204729 0.4069706624359466 0.2992855583568095
0.8938970481924747 0.4970012532180283 0.20319964131254908
-0.01201740618990513 0.6271690532143572 0.20468916961791825
0.00804783825059401 0.7290898652899006 0.32431701019904174
0.11197450882047294 0.6069706624359466 0.2992855583568095
0.09389704819247464 0.6970012532180283 0.20319964131254908
0.18798259381009488 0.6271690532143572 0.20468916961791825
0.20804783825059403 0.7290898652899006 0.32431701019904174
0.31197450882047295 0.6069706624359466 0.2992855583568095
0.2938970481924747 0.6970012532180283 0.20319964131254908
0.3879825938100949 0.6271690532143572 0.20468916961791825
0.40804783825059404 0.7290898652899006 0.32431701019904174
0.5119745088204729 0.6069706624359466 0.2992855583568095
0.4938970481924747 0.6970012532180283 0.20319964131254908
0.5879825938100949 0.6271690532143572 0.20468916961791825
0.608047838250594 0.7290898652899006 0.32431701019904174
0.711974508820473 0.6069706624359466 0.2992855583568095
0.6938970481924747 0.6970012532180283 0.20319964131254908
0.7879825938100948 0.6271690532143572 0.20468916961791825
0.8080478382505941 0.7290898652899006 0.32431701019904174
0.9119745088204729 0.6069706624359466 0.2992855583568095
0.8938970481924747 0.6970012532180283 0.20319964131254908
-0.01201740618990513 0.8271690532143572 0.20468916961791825
0.00804783825059401 0.9290898652899007 0.32431701019904174
0.11197450882047294 0.8069706624359466 0.2992855583568095
0.09389704819247464 0.8970012532180283 0.20319964131254908
0.18798259381009488 0.8271690532143572 0.20468916961791825
0.20804783825059403 0.9290898652899007 0.32431701019904174
0.31197450882047295 0.8069706624359466 0.2992855583568095
0.2938970481924747 0.8970012532180283 0.20319964131254908
0.3879825938100949 0.8271690532143572 0.20468916961791825
0.40804783825059404 0.9290898652899007 0.32431701019904174
0.5119745088204729 0.8069706624359466 0.2992855583568095
0.4938970481924747 0.8970012532180283 0.20319964131254908
0.5879825938100949 0.8271690532143572 0.20468916961791825
0.608047838250594 0.9290898652899007 0.32431701019904174
0.711974508820473 0.8069706624359466 0.2992855583568095
0.6938970481924747 0.8970012532180283 0.20319964131254908
0.7879825938100948 0.8271690532143572 0.20468916961791825
0.8080478382505941 0.9290898652899007 0.32431701019904174
0.9119745088204729 0.8069706624359466 0.2992855583568095
0.8938970481924747 0.8970012532180283 0.20319964131254908
-0.01201740618990513 0.02716905321435713 0.40468916961791823
0.00804783825059401 0.12908986528990057 0.5243170101990418
0.11197450882047294 0.006970662435946545 0.4992855583568095
0.09389704819247464 0.09700125321802831 0.4031996413125491
0.18798259381009488 0.02716905321435713 0.40468916961791823
0.20804783825059403 0.12908986528990057 0.5243170101990418
0.31197450882047295 0.006970662435946545 0.4992855583568095
0.2938970481924747 0.09700125321802831 0.4031996413125491
0.3879825938100949 0.02716905321435713 0.40468916961791823
0.40804783825059404 0.12908986528990057 0.5243170101990418
0.5119745088204729 0.006970662435946545 0.4992855583568095
0.4938970481924747 0.09700125321802831 0.4031996413125491
0.5879825938100949 0.02716905321435713 0.40468916961791823
0.608047838250594 0.12908986528990057 0.5243170101990418
0.711974508820473 0.006970662435946545 0.4992855583568095
0.6938970481924747 0.09700125321802831 0.4031996413125491
0.7879825938100948 0.02716905321435713 0.40468916961791823
0.8080478382505941 0.12908986528990057 0.5243170101990418
0.9119745088204729 0.006970662435946545 0.4992855583568095
0.8938970481924747 0.09700125321802831 0.4031996413125491
-0.01201740618990513 0.22716905321435715 0.40468916961791823
0.00804783825059401 0.3290898652899006 0.5243170101990418
0.11197450882047294 0.20697066243594656 0.4992855583568095
0.09389704819247464 0.29700125321802834 0.4031996413125491
0.18798259381009488 0.22716905321435715 0.40468916961791823
0.20804783825059403 0.3290898652899006 0.5243170101990418
0.31197450882047295 0.20697066243594656 0.4992855583568095
0.2938970481924747 0.29700125321802834 0.4031996413125491
0.3879825938100949 0.22716905321435715 0.40468916961791823
0.40804783825059404 0.3290898652899006 0.5243170101990418
0.5119745088204729 0.20697066243594656 0.4992855583568095
0.4938970481924747 0.29700125321802834 0.4031996413125491
0.5879825938100949 0.22716905321435715 0.40468916961791823
0.608047838250594 0.3290898652899006 0.5243170101990418
0.711974508820473 0.20697066243594656 0.4992855583568095
0.6938970481924747 0.29700125321802834 0.4031996413125491
0.7879825938100948 0.22716905321435715 0.40468916961791823
0.8080478382505941 0.3290898652899006 0.5243170101990418
0.9119745088204729 0.20697066243594656 0.4992855583568095
0.8938970481924747 0.29700125321802834 0.4031996413125491
-0.01201740618990513 0.42716905321435716 0.40468916961791823
0.00804783825059401 0.5290898652899005 0.5243170101990418
0.11197450882047294 0.4069706624359466 0.4992855583568095
0.09389704819247464 0.4970012532180283 0.4031996413125491
0.18798259381009488 0.42716905321435716 0.40468916961791823
0.20804783825059403 0.5290898652899005 0.5243170101990418
0.31197450882047295 0.4069706624359466 0.4992855583568095
0.2938970481924747 0.4970012532180283 0.4031996413125491
0.3879825938100949 0.42716905321435716 0.40468916961791823
0.40804783825059404 0.5290898652899005 0.5243170101990418
0.5119745088204729 0.4069706624359466 0.4992855583568095
0.4938970481924747 0.4970012532180283 0.4031996413125491
0.5879825938100949 0.42716905321435716 0.40468916961791823
0.608047838250594 0.5290898652899005 0.5243170101990418
0.711974508820473 0.4069706624359466 0.4992855583568095
0.6938970481924747 0.4970012532180283 0.4031996413125491
0.7879825938100948 0.42716905321435716 0.40468916961791823
0.8080478382505941 0.5290898652899005 0.5243170101990418
0.9119745088204729 0.4069706624359466 0.4992855583568095
0.8938970481924747 0.4970012532180283 0.4031996413125491
-0.01201740618990513 0.6271690532143572 0.40468916961791823
0.00804783825059401 0.7290898652899006 0.5243170101990418
0.11197450882047294 0.6069706624359466 0.4992855583568095
0.09389704819247464 0.6970012532180283 0.4031996413125491
0.18798259381009488 0.6271690532143572 0.40468916961791823
0.20804783825059403 0.7290898652899006 0.5243170101990418
0.31197450882047295 0.6069706624359466 0.4992855583568095
0.2938970481924747 0.6970012532180283 0.4031996413125491
0.3879825938100949 0.6271690532143572 0.40468916961791823
0.40804783825059404 0.7290898652899006 0.5243170101990418
0.5119745088204729 0.6069706624359466 0.4992855583568095
0.4938970481924747 0.6970012532180283 0.4031996413125491
0.5879825938100949 0.6271690532143572 0.40468916961791823
0.608047838250594 0.7290898652899006 0.5243170101990418
0.711974508820473 0.6069706624359466 0.4992855583568095
0.6938970481924747 0.6970012532180283 0.4031996413125491
0.7879825938100948 0.6271690532143572 0.40468916961791823
0.8080478382505941 0.7290898652899006 0.5243170101990418
0.9119745088204729 0.6069706624359466 0.4992855583568095
0.8938970481924747 0.6970012532180283 0.4031996413125491
-0.01201740618990513 0.8271690532143572 0.40468916961791823
0.00804783825059401 0.9290898652899007 0.5243170101990418
0.11197450882047294 0.8069706624359466 0.4992855583568095
0.09389704819247464 0.8970012532180283 0.4031996413125491
0.18798259381009488 0.8271690532143572 0.40468916961791823
0.20804783825059403 0.9290898652899007 0.5243170101990418
0.31197450882047295 0.8069706624359466 0.4992855583568095
0.2938970481924747 0.8970012532180283 0.4031996413125491
0.3879825938100949 0.8271690532143572 0.40468916961791823
0.40804783825059404 0.9290898652899007 0.5243170101990418
0.5119745088204729 0.8069706624359466 0.4992855583568095
0.4938970481924747 0.8970012532180283 0.4031996413125491
0.5879825938100949 0.8271690532143572 0.40468916961791823
0.608047838250594 0.9290898652899007 0.5243170101990418
0.711974508820473 0.8069706624359466 0.4992855583568095
0.6938970481924747 0.8970012532180283 0.4031996413125491
0.7879825938100948 0.8271690532143572 0.40468916961791823
0.8080478382505941 0.9290898652899007 0.5243170101990418
0.9119745088204729 0.8069706624359466 0.4992855583568095
0.8938970481924747 0.8970012532180283 0.4031996413125491
-0.01201740618990513 0.02716905321435713 0.6046891696179183
0.00804783825059401 0.12908986528990057 0.7243170101990417
0.11197450882047294 0.006970662435946545 0.6992855583568095
0.09389704819247464 0.09700125321802831 0.6031996413125491
0.18798259381009488 0.02716905321435713 0.6046891696179183
0.20804783825059403 0.12908986528990057 0.7243170101990417
0.31197450882047295 0.006970662435946545 0.6992855583568095
0.2938970481924747 0.09700125321802831 0.6031996413125491
0.3879825938100949 0.02716905321435713 0.6046891696179183
0.40804783825059404 0.12908986528990057 0.7243170101990417
0.5119745088204729 0.006970662435946545 0.6992855583568095
0.4938970481924747 0.09700125321802831 0.6031996413125491
0.5879825938100949 0.02716905321435713 0.6046891696179183
0.608047838250594 0.12908986528990057 0.7243170101990417
0.711974508820473 0.006970662435946545 0.6992855583568095
0.6938970481924747 0.09700125321802831 0.6031996413125491
0.7879825938100948 0.02716905321435713 0.6046891696179183
0.8080478382505941 0.12908986528990057 0.7243170101990417
0.9119745088204729 0.006970662435946545 0.6992855583568095
0.8938970481924747 0.09700125321802831 0.6031996413125491
-0.01201740618990513 0.22716905321435715 0.6046891696179183
0.00804783825059401 0.3290898652899006 0.7243170101990417
0.11197450882047294 0.20697066243594656 0.6992855583568095
0.09389704819247464 0.29700125321802834 0.6031996413125491
0.18798259381009488 0.22716905321435715 0.6046891696179183
0.20804783825059403 0.3290898652899006 0.7243170101990417
0.31197450882047295 0.20697066243594656 0.6992855583568095
0.2938970481924747 0.29700125321802834 0.6031996413125491
0.3879825938100949 0.22716905321435715 0.6046891696179183
0.40804783825059404 0.3290898652899006 0.7243170101990417
0.5119745088204729 0.20697066243594656 0.6992855583568095
0.4938970481924747 0.29700125321802834 0.6031996413125491
0.5879825938100949 0.22716905321435715 0.6046891696179183
0.608047838250594 0.3290898652899006 0.7243170101990417
0.711974508820473 0.20697066243594656 0.6992855583568095
0.6938970481924747 0.29700125321802834 0.6031996413125491
0.7879825938100948 0.22716905321435715 0.6046891696179183
0.8080478382505941 0.3290898652899006 0.7243170101990417
0.9119745088204729 0.20697066243594656 0.6992855583568095
0.8938970481924747 0.29700125321802834 0.6031996413125491
-0.01201740618990513 0.42716905321435716 0.6046891696179183
0.00804783825059401 0.5290898652899005 0.7243170101990417
0.11197450882047294 0.4069706624359466 0.6992855583568095
0.09389704819247464 0.4970012532180283 0.6031996413125491
0.18798259381009488 0.42716905321435716 0.6046891696179183
0.20804783825059403 0.5290898652899005 0.7243170101990417
0.31197450882047295 0.4069706624359466 0.6992855583568095
0.2938970481924747 0.4970012532180283 0.6031996413125491
0.3879825938100949 0.42716905321435716 0.6046891696179183
0.40804783825059404 0.5290898652899005 0.7243170101990417
0.5119745088204729 0.4069706624359466 0.6992855583568095
0.4938970481924747 0.4970012532180283 0.6031996413125491
0.5879825938100949 0.42716905321435716 0.6046891696179183
0.608047838250594 0.5290898652899005 0.7243170101990417
0.711974508820473 0.4069706624359466 0.6992855583568095
0.6938970481924747 0.4970012532180283 0.6031996413125491
0.7879825938100948 0.42716905321435716 0.6046891696179183
0.8080478382505941 0.5290898652899005 0.7243170101990417
0.9119745088204729 0.4069706624359466 0.6992855583568095
0.8938970481924747 0.4970012532180283 0.6031996413125491
-0.01201740618990513 0.6271690532143572 0.6046891696179183
0.00804783825059401 0.7290898652899006 0.7243170101990417
0.11197450882047294 0.6069706624359466 0.6992855583568095
0.09389704819247464 0.6970012532180283 0.6031996413125491
0.18798259381009488 0.6271690532143572 0.6046891696179183
0.20804783825059403 0.7290898652899006 0.7243170101990417
0.31197450882047295 0.6069706624359466 0.6992855583568095
0.2938970481924747 0.6970012532180283 0.6031996413125491
0.3879825938100949 0.6271690532143572 0.6046891696179183
0.40804783825059404 0.7290898652899006 0.7243170101990417
0.5119745088204729 0.6069706624359466 0.6992855583568095
0.4938970481924747 0.6970012532180283 0.6031996413125491
0.5879825938100949 0.6271690532143572 0.6046891696179183
0.608047838250594 0.7290898652899006 0.7243170101990417
0.711974508820473 0.6069706624359466 0.6992855583568095
0.6938970481924747 0.6970012532180283 0.6031996413125491
0.7879825938100948 0.6271690532143572 0.6046891696179183
0.8080478382505941 0.7290898652899006 0.7243170101990417
0.9119745088204729 0.6069706624359466 0.6992855583568095
0.8938970481924747 0.6970012532180283 0.6031996413125491
-0.01201740618990513 0.8271690532143572 0.6046891696179183
0.00804783825059401 0.9290898652899007 0.7243170101990417
0.11197450882047294 0.8069706624359466 0.6992855583568095
0.09389704819247464 0.8970012532180283 0.6031996413125491
0.18798259381009488 0.8271690532143572 0.6046891696179183
0.20804783825059403 0.9290898652899007 0.7243170101990417
0.31197450882047295 0.8069706624359466 0.6992855583568095
0.2938970481924747 0.8970012532180283 0.6031996413125491
0.3879825938100949 0.8271690532143572 0.6046891696179183
0.40804783825059404 0.9290898652899007 0.7243170101990417
0.5119745088204729 0.8069706624359466 0.6992855583568095
0.4938970481924747 0.8970012532180283 0.6031996413125491
0.5879825938100949 0.8271690532143572 0.6046891696179183
0.608047838250594 0.9290898652899007 0.7243170101990417
0.711974508820473 0.8069706624359466 0.6992855583568095
0.6938970481924747 0.8970012532180283 0.6031996413125491
0.7879825938100948 0.8271690532143572 0.6046891696179183
0.8080478382505941 0.9290898652899007 0.7243170101990417
0.9119745088204729 0.8069706624359466 0.6992855583568095
0.8938970481924747 0.8970012532180283 0.6031996413125491
-0.01201740618990513 0.02716905321435713 0.8046891696179183
0.00804783825059401 0.12908986528990057 0.9243170101990418
0.11197450882047294 0.006970662435946545 0.8992855583568095
0.09389704819247464 0.09700125321802831 0.8031996413125491
0.18798259381009488 0.02716905321435713 0.8046891696179183
0.20804783825059403 0.12908986528990057 0.9243170101990418
0.31197450882047295 0.006970662435946545 0.8992855583568095
0.2938970481924747 0.09700125321802831 0.8031996413125491
0.3879825938100949 0.02716905321435713 0.8046891696179183
0.40804783825059404 0.12908986528990057 0.9243170101990418
0.5119745088204729 0.006970662435946545 0.8992855583568095
0.4938970481924747 0.09700125321802831 0.8031996413125491
0.5879825938100949 0.02716905321435713 0.8046891696179183
0.608047838250594 0.12908986528990057 0.9243170101990418
0.711974508820473 0.006970662435946545 0.8992855583568095
0.6938970481924747 0.09700125321802831 0.8031996413125491
0.7879825938100948 0.02716905321435713 0.8046891696179183
0.8080478382505941 0.12908986528990057 0.9243170101990418
0.9119745088204729 0.006970662435946545 0.8992855583568095
0.8938970481924747 0.09700125321802831 0.8031996413125491
-0.01201740618990513 0.22716905321435715 0.8046891696179183
0.00804783825059401 0.3290898652899006 0.9243170101990418
0.11197450882047294 0.20697066243594656 0.8992855583568095
0.09389704819247464 0.29700125321802834 0.8031996413125491
0.18798259381009488 0.22716905321435715 0.8046891696179183
0.20804783825059403 0.3290898652899006 0.9243170101990418
0.31197450882047295 0.20697066243594656 0.8992855583568095
0.2938970481924747 0.29700125321802834 0.8031996413125491
0.3879825938100949 0.22716905321435715 0.8046891696179183
0.40804783825059404 0.3290898652899006 0.9243170101990418
0.5119745088204729 0.20697066243594656 0.8992855583568095
0.4938970481924747 0.29700125321802834 0.8031996413125491
0.5879825938100949 0.22716905321435715 0.8046891696179183
0.608047838250594 0.3290898652899006 0.9243170101990418
0.711974508820473 0.20697066243594656 0.8992855583568095
0.6938970481924747 0.29700125321802834 0.8031996413125491
0.7879825938100948 0.22716905321435715 0.8046891696179183
0.8080478382505941 0.3290898652899006 0.9243170101990418
0.9119745088204729 0.20697066243594656 0.8992855583568095
0.8938970481924747 0.29700125321802834 0.8031996413125491
-0.01201740618990513 0.42716905321435716 0.8046891696179183
0.00804783825059401 0.5290898652899005 0.9243170101990418
0.11197450882047294 0.4069706624359466 0.8992855583568095
0.09389704819247464 0.4970012532180283 0.8031996413125491
0.18798259381009488 0.42716905321435716 0.8046891696179183
0.20804783825059403 0.5290898652899005 0.9243170101990418
0.31197450882047295 0.4069706624359466 0.8992855583568095
0.2938970481924747 0.4970012532180283 0.8031996413125491
0.3879825938100949 0.42716905321435716 0.8046891696179183
0.40804783825059404 0.5290898652899005 0.9243170101990418
0.5119745088204729 0.4069706624359466 0.8992855583568095
0.4938970481924747 0.4970012532180283 0.8031996413125491
0.5879825938100949 0.42716905321435716 0.8046891696179183
0.608047838250594 0.5290898652899005 0.9243170101990418
0.711974508820473 0.4069706624359466 0.8992855583568095
0.6938970481924747 0.4970012532180283 0.8031996413125491
0.7879825938100948 0.42716905321435716 0.8046891696179183
0.8080478382505941 0.5290898652899005 0.9243170101990418
0.9119745088204729 0.4069706624359466 0.8992855583568095
0.8938970481924747 0.4970012532180283 0.8031996413125491
-0.01201740618990513 0.6271690532143572 0.8046891696179183
0.00804783825059401 0.7290898652899006 0.9243170101990418
0.11197450882047294 0.6069706624359466 0.8992855583568095
0.09389704819247464 0.6970012532180283 0.8031996413125491
0.18798259381009488 0.6271690532143572 0.8046891696179183
0.20804783825059403 0.7290898652899006 0.9243170101990418
0.31197450882047295 0.6069706624359466 0.8992855583568095
0.2938970481924747 0.6970012532180283 0.8031996413125491
0.3879825938100949 0.6271690532143572 0.8046891696179183
0.40804783825059404 0.7290898652899006 0.9243170101990418
0.5119745088204729 0.6069706624359466 0.8992855583568095
0.4938970481924747 0.6970012532180283 0.8031996413125491
0.5879825938100949 0.6271690532143572 0.8046891696179183
0.608047838250594 0.7290898652899006 0.9243170101990418
0.711974508820473 0.6069706624359466 0.8992855583568095
0.6938970481924747 0.6970012532180283 0.8031996413125491
0.7879825938100948 0.6271690532143572 0.8046891696179183
0.8080478382505941 0.7290898652899006 0.9243170101990418
0.9119745088204729 0.6069706624359466 0.8992855583568095
0.8938970481924747 0.6970012532180283 0.8031996413125491
-0.01201740618990513 0.8271690532143572 0.8046891696179183
0.00804783825059401 0.9290898652899007 0.9243170101990418
0.11197450882047294 0.8069706624359466 0.8992855583568095
0.09389704819247464 0.8970012532180283 0.8031996413125491
0.18798259381009488 0.8271690532143572 0.8046891696179183
0.20804783825059403 0.9290898652899007 0.9243170101990418
0.31197450882047295 0.8069706624359466 0.8992855583568095
0.2938970481924747 0.8970012532180283 0.8031996413125491
0.3879825938100949 0.8271690532143572 0.8046891696179183
0.40804783825059404 0.9290898652899007 0.9243170101990418
0.5119745088204729 0.8069706624359466 0.8992855583568095
0.4938970481924747 0.8970012532180283 0.8031996413125491
0.5879825938100949 0.8271690532143572 0.8046891696179183
0.608047838250594 0.9290898652899007 0.9243170101990418
0.711974508820473 0.8069706624359466 0.8992855583568095
0.6938970481924747 0.8970012532180283 0.8031996413125491
0.7879825938100948 0.8271690532143572 0.8046891696179183
0.8080478382505941 0.9290898652899007 0.9243170101990418
0.9119745088204729 0.8069706624359466 0.8992855583568095
0.8938970481924747 0.8970012532180283 0.8031996413125491
0.1295778761519424 -0.02809211202470785 0.028088176570808088
-0.018211571148707893 0.11308328566846511 -0.01328034422471143
0.021159986908680175 0.02089753093177075 0.08524357187174751
0.08258277212124597 0.08492540063423282 0.07471434756624844
0.3295778761519424 -0.02809211202470785 0.028088176570808088
0.18178842885129212 0.11308328566846511 -0.01328034422471143
0.2211599869086802 0.02089753093177075 0.08524357187174751
0.282582772121246 0.08492540063423282 0.07471434756624844
0.5295778761519424 -0.02809211202470785 0.028088176570808088
0.3817884288512921 0.11308328566846511 -0.01328034422471143
0.42115998690868023 0.02089753093177075 0.08524357187174751
0.482582772121246 0.08492540063423282 0.07471434756624844
0.7295778761519425 -0.02809211202470785 0.028088176570808088
0.5817884288512921 0.11308328566846511 -0.01328034422471143
0.6211599869086802 0.02089753093177075 0.08524357187174751
0.6825827721212461 0.08492540063423282 0.07471434756624844
0.9295778761519424 -0.02809211202470785 0.028088176570808088
0.7817884288512922 0.11308328566846511 -0.01328034422471143
0.8211599869086803 0.02089753093177075 0.08524357187174751
0.8825827721212459 0.08492540063423282 0.07471434756624844
0.1295778761519424 0.17190788797529216 0.028088176570808088
-0.018211571148707893 0.3130832856684651 -0.01328034422471143
0.021159986908680175 0.22089753093177078 0.08524357187174751
0.08258277212124597 0.28492540063423283 0.07471434756624844
0.3295778761519424 0.17190788797529216 0.028088176570808088
0.18178842885129212 0.3130832856684651 -0.01328034422471143
0.2211599869086802 0.22089753093177078 0.08524357187174751
0.282582772121246 0.28492540063423283 0.07471434756624844
0.5295778761519424 0.17190788797529216 0.028088176570808088
0.3817884288512921 0.3130832856684651 -0.01328034422471143
0.42115998690868023 0.22089753093177078 0.08524357187174751
0.482582772121246 0.28492540063423283 0.07471434756624844
0.7295778761519425 0.17190788797529216 0.028088176570808088
0.5817884288512921 0.3130832856684651 -0.01328034422471143
0.6211599869086802 0.22089753093177078 0.08524357187174751
0.6825827721212461 0.28492540063423283 0.07471434756624844
0.9295778761519424 0.17190788797529216 0.028088176570808088
0.7817884288512922 0.3130832856684651 -0.01328034422471143
0.8211599869086803 0.22089753093177078 0.08524357187174751
0.8825827721212459 0.28492540063423283 0.07471434756624844
0.1295778761519424 0.3719078879752922 0.028088176570808088
-0.018211571148707893 0.5130832856684652 -0.01328034422471143
0.021159986908680175 0.42089753093177074 0.08524357187174751
0.08258277212124597 0.4849254006342328 0.07471434756624844
0.3295778761519424 0.3719078879752922 0.028088176570808088
0.18178842885129212 0.5130832856684652 -0.01328034422471143
0.2211599869086802 0.42089753093177074 0.08524357187174751
0.282582772121246 0.4849254006342328 0.07471434756624844
0.5295778761519424 0.3719078879752922 0.028088176570808088
0.3817884288512921 0.5130832856684652 -0.01328034422471143
0.42115998690868023 0.42089753093177074 0.08524357187174751
0.482582772121246 0.4849254006342328 0.07471434756624844
0.7295778761519425 0.3719078879752922 0.028088176570808088
0.5817884288512921 0.5130832856684652 -0.01328034422471143
0.6211599869086802 0.42089753093177074 0.08524357187174751
0.6825827721212461 0.4849254006342328 0.07471434756624844
0.9295778761519424 0.3719078879752922 0.028088176570808088
0.7817884288512922 0.5130832856684652 -0.01328034422471143
0.8211599869086803 0.42089753093177074 0.08524357187174751
0.8825827721212459 0.4849254006342328 0.07471434756624844
0.1295778761519424 0.5719078879752922 0.028088176570808088
-0.018211571148707893 0.7130832856684651 -0.01328034422471143
0.021159986908680175 0.6208975309317708 0.08524357187174751
0.08258277212124597 0.6849254006342328 0.07471434756624844
0.3295778761519424 0.5719078879752922 0.028088176570808088
0.18178842885129212 0.7130832856684651 -0.01328034422471143
0.2211599869086802 0.6208975309317708 0.08524357187174751
0.282582772121246 0.6849254006342328 0.07471434756624844
0.5295778761519424 0.5719078879752922 0.028088176570808088
0.3817884288512921 0.7130832856684651 -0.01328034422471143
0.42115998690868023 0.6208975309317708 0.08524357187174751
0.482582772121246 0.6849254006342328 0.07471434756624844
0.7295778761519425 0.5719078879752922 0.028088176570808088
0.5817884288512921 0.7130832856684651 -0.01328034422471143
0.6211599869086802 0.6208975309317708 0.08524357187174751
0.6825827721212461 0.6849254006342328 0.07471434756624844
0.9295778761519424 0.5719078879752922 0.028088176570808088
0.7817884288512922 0.7130832856684651 -0.01328034422471143
0.8211599869086803 0.6208975309317708 0.08524357187174751
0.8825827721212459 0.6849254006342328 0.07471434756624844
0.1295778761519424 0.7719078879752922 0.028088176570808088
-0.018211571148707893 0.9130832856684652 -0.01328034422471143
0.021159986908680175 0.8208975309317709 0.08524357187174751
0.08258277212124597 0.8849254006342329 0.07471434756624844
0.3295778761519424 0.7719078879752922 0.028088176570808088
0.18178842885129212 0.9130832856684652 -0.01328034422471143
0.2211599869086802 0.8208975309317709 0.08524357187174751
0.282582772121246 0.8849254006342329 0.07471434756624844
0.5295778761519424 0.7719078879752922 0.028088176570808088
0.3817884288512921 0.9130832856684652 -0.01328034422471143
0.42115998690868023 0.8208975309317709 0.08524357187174751
0.482582772121246 0.8849254006342329 0.07471434756624844
0.7295778761519425 0.7719078879752922 0.028088176570808088
0.5817884288512921 0.9130832856684652 -0.01328034422471143
0.6211599869086802 0.8208975309317709 0.08524357187174751
0.6825827721212461 0.8849254006342329 0.07471434756624844
0.9295778761519424 0.7719078879752922 0.028088176570808088
0.7817884288512922 0.9130832856684652 -0.01328034422471143
0.8211599869086803 0.8208975309317709 0.08524357187174751
0.8825827721212459 0.8849254006342329 0.07471434756624844
0.1295778761519424 -0.02809211202470785 0.2280881765708081
-0.018211571148707893 0.11308328566846511 0.1867196557752886
0.021159986908680175 0.02089753093177075 0.28524357187174754
0.08258277212124597 0.08492540063423282 0.27471434756624846
0.3295778761519424 -0.02809211202470785 0.2280881765708081
0.18178842885129212 0.11308328566846511 0.1867196557752886
0.2211599869086802 0.02089753093177075 0.28524357187174754
0.282582772121246 0.08492540063423282 0.27471434756624846
0.5295778761519424 -0.02809211202470785 0.2280881765708081
0.3817884288512921 0.11308328566846511 0.1867196557752886
0.42115998690868023 0.02089753093177075 0.28524357187174754
0.482582772121246 0.08492540063423282 0.27471434756624846
0.7295778761519425 -0.02809211202470785 0.2280881765708081
0.5817884288512921 0.11308328566846511 0.1867196557752886
0.6211599869086802 0.02089753093177075 0.28524357187174754
0.6825827721212461 0.08492540063423282 0.27471434756624846
0.9295778761519424 -0.02809211202470785 0.2280881765708081
0.7817884288512922 0.11308328566846511 0.1867196557752886
0.8211599869086803 0.02089753093177075 0.28524357187174754
0.8825827721212459 0.08492540063423282 0.27471434756624846
0.1295778761519424 0.17190788797529216 0.2280881765708081
-0.018211571148707893 0.3130832856684651 0.1867196557752886
0.021159986908680175 0.22089753093177078 0.28524357187174754
0.08258277212124597 0.28492540063423283 0.27471434756624846
0.3295778761519424 0.17190788797529216 0.2280881765708081
0.18178842885129212 0.3130832856684651 0.1867196557752886
0.2211599869086802 0.22089753093177078 0.28524357187174754
0.282582772121246 0.28492540063423283 0.27471434756624846
0.5295778761519424 0.17190788797529216 0.2280881765708081
0.3817884288512921 0.3130832856684651 0.1867196557752886
0.42115998690868023 0.22089753093177078 0.28524357187174754
0.482582772121246 0.28492540063423283 0.27471434756624846
0.7295778761519425 0.17190788797529216 0.2280881765708081
0.5817884288512921 0.3130832856684651 0.1867196557752886
0.6211599869086802 0.22089753093177078 0.28524357187174754
0.6825827721212461 0.28492540063423283 0.27471434756624846
0.9295778761519424 0.17190788797529216 0.2280881765708081
0.7817884288512922 0.3130832856684651 0.1867196557752886
0.8211599869086803 0.22089753093177078 0.28524357187174754
0.8825827721212459 0.28492540063423283 0.27471434756624846
0.1295778761519424 0.3719078879752922 0.2280881765708081
-0.018211571148707893 0.5130832856684652 0.1867196557752886
0.021159986908680175 0.42089753093177074 0.28524357187174754
0.08258277212124597 0.4849254006342328 0.27471434756624846
0.3295778761519424 0.3719078879752922 0.2280881765708081
0.18178842885129212 0.5130832856684652 0.1867196557752886
0.2211599869086802 0.42089753093177074 0.28524357187174754
0.282582772121246 0.4849254006342328 0.27471434756624846
0.5295778761519424 0.3719078879752922 0.2280881765708081
0.3817884288512921 0.5130832856684652 0.1867196557752886
0.42115998690868023 0.42089753093177074 0.28524357187174754
0.482582772121246 0.4849254006342328 0.27471434756624846
0.7295778761519425 0.3719078879752922 0.2280881765708081
0.5817884288512921 0.5130832856684652 0.1867196557752886
0.6211599869086802 0.42089753093177074 0.28524357187174754
0.6825827721212461 0.4849254006342328 0.27471434756624846
0.9295778761519424 0.3719078879752922 0.2280881765708081
0.7817884288512922 0.5130832856684652 0.1867196557752886
0.8211599869086803 0.42089753093177074 0.28524357187174754
0.8825827721212459 0.4849254006342328 0.27471434756624846
0.1295778761519424 0.5719078879752922 0.2280881765708081
-0.018211571148707893 0.7130832856684651 0.1867196557752886
0.021159986908680175 0.6208975309317708 0.28524357187174754
0.08258277212124597 0.6849254006342328 0.27471434756624846
0.3295778761519424 0.5719078879752922 0.2280881765708081
0.18178842885129212 0.7130832856684651 0.1867196557752886
0.2211599869086802 0.6208975309317708 0.28524357187174754
0.282582772121246 0.6849254006342328 0.27471434756624846
0.5295778761519424 0.5719078879752922 0.2280881765708081
0.3817884288512921 0.7130832856684651 0.1867196557752886
0.42115998690868023 0.6208975309317708 0.28524357187174754
0.482582772121246 0.6849254006342328 0.27471434756624846
0.7295778761519425 0.5719078879752922 0.2280881765708081
0.5817884288512921 0.7130832856684651 0.1867196557752886
0.6211599869086802 0.6208975309317708 0.28524357187174754
0.6825827721212461 0.6849254006342328 0.27471434756624846
0.9295778761519424 0.5719078879752922 0.2280881765708081
0.7817884288512922 0.7130832856684651 0.1867196557752886
0.8211599869086803 0.6208975309317708 0.28524357187174754
0.8825827721212459 0.6849254006342328 0.27471434756624846
0.1295778761519424 0.7719078879752922 0.2280881765708081
-0.018211571148707893 0.9130832856684652 0.1867196557752886
0.021159986908680175 0.8208975309317709 0.28524357187174754
0.08258277212124597 0.8849254006342329 0.27471434756624846
0.3295778761519424 0.7719078879752922 0.2280881765708081
0.18178842885129212 0.9130832856684652 0.1867196557752886
0.2211599869086802 0.8208975309317709 0.28524357187174754
0.282582772121246 0.8849254006342329 0.27471434756624846
0.5295778761519424 0.7719078879752922 0.2280881765708081
0.3817884288512921 0.9130832856684652 0.1867196557752886
0.42115998690868023 0.8208975309317709 0.28524357187174754
0.482582772121246 0.8849254006342329 0.27471434756624846
0.7295778761519425 0.7719078879752922 0.2280881765708081
0.5817884288512921 0.9130832856684652 0.1867196557752886
0.6211599869086802 0.8208975309317709 0.28524357187174754
0.6825827721212461 0.8849254006342329 0.27471434756624846
0.9295778761519424 0.7719078879752922 0.2280881765708081
0.7817884288512922 0.9130832856684652 0.1867196557752886
0.8211599869086803 0.8208975309317709 0.28524357187174754
0.8825827721212459 0.8849254006342329 0.27471434756624846
0.1295778761519424 -0.02809211202470785 0.4280881765708081
-0.018211571148707893 0.11308328566846511 0.38671965577528855
0.021159986908680175 0.02089753093177075 0.4852435718717475
0.08258277212124597 0.08492540063423282 0.47471434756624853
0.3295778761519424 -0.02809211202470785 0.4280881765708081
0.18178842885129212 0.11308328566846511 0.38671965577528855
0.2211599869086802 0.02089753093177075 0.4852435718717475
0.282582772121246 0.08492540063423282 0.47471434756624853
0.5295778761519424 -0.02809211202470785 0.4280881765708081
0.3817884288512921 0.11308328566846511 0.38671965577528855
0.42115998690868023 0.02089753093177075 0.4852435718717475
0.482582772121246 0.08492540063423282 0.47471434756624853
0.7295778761519425 -0.02809211202470785 0.4280881765708081
0.5817884288512921 0.11308328566846511 0.38671965577528855
0.6211599869086802 0.02089753093177075 0.4852435718717475
0.6825827721212461 0.08492540063423282 0.47471434756624853
0.9295778761519424 -0.02809211202470785 0.4280881765708081
0.7817884288512922 0.11308328566846511 0.38671965577528855
0.8211599869086803 0.02089753093177075 0.4852435718717475
0.8825827721212459 0.08492540063423282 0.47471434756624853
0.1295778761519424 0.17190788797529216 0.4280881765708081
-0.018211571148707893 0.3130832856684651 0.38671965577528855
0.021159986908680175 0.22089753093177078 0.4852435718717475
0.08258277212124597 0.28492540063423283 0.47471434756624853
0.3295778761519424 0.17190788797529216 0.4280881765708081
0.18178842885129212 0.3130832856684651 0.38671965577528855
0.2211599869086802 0.22089753093177078 0.4852435718717475
0.282582772121246 0.28492540063423283 0.47471434756624853
0.5295778761519424 0.17190788797529216 0.4280881765708081
0.3817884288512921 0.3130832856684651 0.38671965577528855
0.42115998690868023 0.22089753093177078 0.4852435718717475
0.482582772121246 0.28492540063423283 0.47471434756624853
0.7295778761519425 0.17190788797529216 0.4280881765708081
0.5817884288512921 0.3130832856684651 0.38671965577528855
0.6211599869086802 0.22089753093177078 0.4852435718717475
0.6825827721212461 0.28492540063423283 0.47471434756624853
0.9295778761519424 0.17190788797529216 0.4280881765708081
0.7817884288512922 0.3130832856684651 0.38671965577528855
0.8211599869086803 0.22089753093177078 0.4852435718717475
0.8825827721212459 0.28492540063423283 0.47471434756624853
0.1295778761519424 0.3719078879752922 0.4280881765708081
-0.018211571148707893 0.5130832856684652 0.38671965577528855
0.021159986908680175 0.42089753093177074 0.4852435718717475
0.08258277212124597 0.4849254006342328 0.47471434756624853
0.3295778761519424 0.3719078879752922 0.4280881765708081
0.18178842885129212 0.5130832856684652 0.38671965577528855
0.2211599869086802 0.42089753093177074 0.4852435718717475
0.282582772121246 0.4849254006342328 0.47471434756624853
0.5295778761519424 0.3719078879752922 0.4280881765708081
0.3817884288512921 0.5130832856684652 0.38671965577528855
0.42115998690868023 0.42089753093177074 0.4852435718717475
0.482582772121246 0.4849254006342328 0.47471434756624853
0.7295778761519425 0.3719078879752922 0.4280881765708081
0.5817884288512921 0.5130832856684652 0.38671965577528855
0.6211599869086802 0.42089753093177074 0.4852435718717475
0.6825827721212461 0.4849254006342328 0.47471434756624853
0.9295778761519424 0.3719078879752922 0.4280881765708081
0.7817884288512922 0.5130832856684652 0.38671965577528855
0.8211599869086803 0.42089753093177074 0.4852435718717475
0.8825827721212459 0.4849254006342328 0.47471434756624853
0.1295778761519424 0.5719078879752922 0.4280881765708081
-0.018211571148707893 0.7130832856684651 0.38671965577528855
0.021159986908680175 0.6208975309317708 0.4852435718717475
0.08258277212124597 0.6849254006342328 0.47471434756624853
0.3295778761519424 0.5719078879752922 0.4280881765708081
0.18178842885129212 0.7130832856684651 0.38671965577528855
0.2211599869086802 0.6208975309317708 0.4852435718717475
0.282582772121246 0.6849254006342328 0.47471434756624853
0.5295778761519424 0.5719078879752922 0.4280881765708081
0.3817884288512921 0.7130832856684651 0.38671965577528855
0.42115998690868023 0.6208975309317708 0.4852435718717475
0.482582772121246 0.6849254006342328 0.47471434756624853
0.7295778761519425 0.5719078879752922 0.4280881765708081
0.5817884288512921 0.7130832856684651 0.38671965577528855
0.6211599869086802 0.6208975309317708 0.4852435718717475
0.6825827721212461 0.6849254006342328 0.47471434756624853
0.9295778761519424 0.5719078879752922 0.4280881765708081
0.7817884288512922 0.7130832856684651 0.38671965577528855
0.8211599869086803 0.6208975309317708 0.4852435718717475
0.8825827721212459 0.6849254006342328 0.47471434756624853
0.1295778761519424 0.7719078879752922 0.4280881765708081
-0.018211571148707893 0.9130832856684652 0.38671965577528855
0.021159986908680175 0.8208975309317709 0.4852435718717475
0.08258277212124597 0.8849254006342329 0.47471434756624853
0.3295778761519424 0.7719078879752922 0.4280881765708081
0.18178842885129212 0.9130832856684652 0.38671965577528855
0.2211599869086802 0.8208975309317709 0.4852435718717475
0.282582772121246 0.8849254006342329 0.47471434756624853
0.5295778761519424 0.7719078879752922 0.4280881765708081
0.3817884288512921 0.9130832856684652 0.38671965577528855
0.42115998690868023 0.8208975309317709 0.4852435718717475
0.482582772121246 0.8849254006342329 0.47471434756624853
0.7295778761519425 0.7719078879752922 0.4280881765708081
0.5817884288512921 0.9130832856684652 0.38671965577528855
0.6211599869086802 0.8208975309317709 0.4852435718717475
0.6825827721212461 0.8849254006342329 0.47471434756624853
0.9295778761519424 0.7719078879752922 0.4280881765708081
0.7817884288512922 0.9130832856684652 0.38671965577528855
0.8211599869086803 0.8208975309317709 0.4852435718717475
0.8825827721212459 0.8849254006342329 0.47471434756624853
0.1295778761519424 -0.02809211202470785 0.6280881765708082
-0.018211571148707893 0.11308328566846511 0.5867196557752886
0.021159986908680175 0.02089753093177075 0.6852435718717476
0.08258277212124597 0.08492540063423282 0.6747143475662485
0.3295778761519424 -0.02809211202470785 0.6280881765708082
0.18178842885129212 0.11308328566846511 0.5867196557752886
0.2211599869086802 0.02089753093177075 0.6852435718717476
0.282582772121246 0.08492540063423282 0.6747143475662485
0.5295778761519424 -0.02809211202470785 0.6280881765708082
0.3817884288512921 0.11308328566846511 0.5867196557752886
0.42115998690868023 0.02089753093177075 0.6852435718717476
0.482582772121246 0.08492540063423282 0.6747143475662485
0.7295778761519425 -0.02809211202470785 0.6280881765708082
0.5817884288512921 0.11308328566846511 0.5867196557752886
0.6211599869086802 0.02089753093177075 0.6852435718717476
0.6825827721212461 0.08492540063423282 0.6747143475662485
0.9295778761519424 -0.02809211202470785 0.6280881765708082
0.7817884288512922 0.11308328566846511 0.5867196557752886
0.8211599869086803 0.02089753093177075 0.6852435718717476
0.8825827721212459 0.08492540063423282 0.6747143475662485
0.1295778761519424 0.17190788797529216 0.6280881765708082
-0.018211571148707893 0.3130832856684651 0.5867196557752886
0.021159986908680175 0.22089753093177078 0.6852435718717476
0.08258277212124597 0.28492540063423283 0.6747143475662485
0.3295778761519424 0.17190788797529216 0.6280881765708082
0.18178842885129212 0.3130832856684651 0.5867196557752886
0.2211599869086802 0.22089753093177078 0.6852435718717476
0.282582772121246 0.28492540063423283 0.6747143475662485
0.5295778761519424 0.17190788797529216 0.6280881765708082
0.3817884288512921 0.3130832856684651 0.5867196557752886
0.42115998690868023 0.22089753093177078 0.6852435718717476
0.482582772121246 0.28492540063423283 0.6747143475662485
0.7295778761519425 0.17190788797529216 0.6280881765708082
0.5817884288512921 0.3130832856684651 0.5867196557752886
0.6211599869086802 0.22089753093177078 0.6852435718717476
0.6825827721212461 0.28492540063423283 0.6747143475662485
0.9295778761519424 0.17190788797529216 0.6280881765708082
0.7817884288512922 0.3130832856684651 0.5867196557752886
0.8211599869086803 0.22089753093177078 0.6852435718717476
0.8825827721212459 0.28492540063423283 0.6747143475662485
0.1295778761519424 0.3719078879752922 0.6280881765708082
-0.018211571148707893 0.5130832856684652 0.5867196557752886
0.021159986908680175 0.42089753093177074 0.6852435718717476
0.08258277212124597 0.4849254006342328 0.6747143475662485
0.3295778761519424 0.3719078879752922 0.6280881765708082
0.18178842885129212 0.5130832856684652 0.5867196557752886
0.2211599869086802 0.42089753093177074 0.6852435718717476
0.282582772121246 0.4849254006342328 0.6747143475662485
0.5295778761519424 0.3719078879752922 0.6280881765708082
0.3817884288512921 0.5130832856684652 0.5867196557752886
0.42115998690868023 0.42089753093177074 0.6852435718717476
0.482582772121246 0.4849254006342328 0.6747143475662485
0.7295778761519425 0.3719078879752922 0.6280881765708082
0.5817884288512921 0.5130832856684652 0.5867196557752886
0.6211599869086802 0.42089753093177074 0.6852435718717476
0.6825827721212461 0.4849254006342328 0.6747143475662485
0.9295778761519424 0.3719078879752922 0.6280881765708082
0.7817884288512922 0.5130832856684652 0.5867196557752886
0.8211599869086803 0.42089753093177074 0.6852435718717476
0.8825827721212459 0.4849254006342328 0.6747143475662485
0.1295778761519424 0.5719078879752922 0.6280881765708082
-0.018211571148707893 0.7130832856684651 0.5867196557752886
0.021159986908680175 0.6208975309317708 0.6852435718717476
0.08258277212124597 0.6849254006342328 0.6747143475662485
0.3295778761519424 0.5719078879752922 0.6280881765708082
0.18178842885129212 0.7130832856684651 0.5867196557752886
0.2211599869086802 0.6208975309317708 0.6852435718717476
0.282582772121246 0.6849254006342328 0.6747143475662485
0.5295778761519424 0.5719078879752922 0.6280881765708082
0.3817884288512921 0.7130832856684651 0.5867196557752886
0.42115998690868023 0.6208975309317708 0.6852435718717476
0.482582772121246 0.6849254006342328 0.6747143475662485
0.7295778761519425 0.5719078879752922 0.6280881765708082
0.5817884288512921 0.7130832856684651 0.5867196557752886
0.6211599869086802 0.6208975309317708 0.6852435718717476
0.6825827721212461 0.6849254006342328 0.6747143475662485
0.9295778761519424 0.5719078879752922 0.6280881765708082
0.7817884288512922 0.7130832856684651 0.5867196557752886
0.8211599869086803 0.6208975309317708 0.6852435718717476
0.8825827721212459 0.6849254006342328 0.6747143475662485
0.1295778761519424 0.7719078879752922 0.6280881765708082
-0.018211571148707893 0.9130832856684652 0.5867196557752886
0.021159986908680175 0.8208975309317709 0.6852435718717476
0.08258277212124597 0.8849254006342329 0.6747143475662485
0.3295778761519424 0.7719078879752922 0.6280881765708082
0.18178842885129212 0.9130832856684652 0.5867196557752886
0.2211599869086802 0.8208975309317709 0.6852435718717476
0.282582772121246 0.8849254006342329 0.6747143475662485
0.5295778761519424 0.7719078879752922 0.6280881765708082
0.3817884288512921 0.9130832856684652 0.5867196557752886
0.42115998690868023 0.8208975309317709 0.6852435718717476
0.482582772121246 0.8849254006342329 0.6747143475662485
0.7295778761519425 0.7719078879752922 0.6280881765708082
0.5817884288512921 0.9130832856684652 0.5867196557752886
0.6211599869086802 0.8208975309317709 0.6852435718717476
0.6825827721212461 0.8849254006342329 0.6747143475662485
0.9295778761519424 0.7719078879752922 0.6280881765708082
0.7817884288512922 0.9130832856684652 0.5867196557752886
0.8211599869086803 0.8208975309317709 0.6852435718717476
0.8825827721212459 0.8849254006342329 0.6747143475662485
0.1295778761519424 -0.02809211202470785 0.8280881765708081
-0.018211571148707893 0.11308328566846511 0.7867196557752886
0.021159986908680175 0.02089753093177075 0.8852435718717475
0.08258277212124597 0.08492540063423282 0.8747143475662486
0.3295778761519424 -0.02809211202470785 0.8280881765708081
0.18178842885129212 0.11308328566846511 0.7867196557752886
0.2211599869086802 0.02089753093177075 0.8852435718717475
0.282582772121246 0.08492540063423282 0.8747143475662486
0.5295778761519424 -0.02809211202470785 0.8280881765708081
0.3817884288512921 0.11308328566846511 0.7867196557752886
0.42115998690868023 0.02089753093177075 0.8852435718717475
0.482582772121246 0.08492540063423282 0.8747143475662486
0.7295778761519425 -0.02809211202470785 0.8280881765708081
0.5817884288512921 0.11308328566846511 0.7867196557752886
0.6211599869086802 0.02089753093177075 0.8852435718717475
0.6825827721212461 0.08492540063423282 0.8747143475662486
0.9295778761519424 -0.02809211202470785 0.8280881765708081
0.7817884288512922 0.11308328566846511 0.7867196557752886
0.8211599869086803 0.02089753093177075 0.8852435718717475
0.8825827721212459 0.08492540063423282 0.8747143475662486
0.1295778761519424 0.17190788797529216 0.8280881765708081
-0.018211571148707893 0.3130832856684651 0.7867196557752886
0.021159986908680175 0.22089753093177078 0.8852435718717475
0.08258277212124597 0.28492540063423283 0.8747143475662486
0.3295778761519424 0.17190788797529216 0.8280881765708081
0.18178842885129212 0.3130832856684651 0.7867196557752886
0.2211599869086802 0.22089753093177078 0.8852435718717475
0.282582772121246 0.28492540063423283 0.8747143475662486
0.5295778761519424 0.17190788797529216 0.8280881765708081
0.3817884288512921 0.3130832856684651 0.7867196557752886
0.42115998690868023 0.22089753093177078 0.8852435718717475
0.482582772121246 0.28492540063423283 0.8747143475662486
0.7295778761519425 0.17190788797529216 0.8280881765708081
0.5817884288512921 0.3130832856684651 0.7867196557752886
0.6211599869086802 0.22089753093177078 0.8852435718717475
0.6825827721212461 0.28492540063423283 0.8747143475662486
0.9295778761519424 0.17190788797529216 0.8280881765708081
0.7817884288512922 0.3130832856684651 0.7867196557752886
0.8211599869086803 0.22089753093177078 0.8852435718717475
0.8825827721212459 0.28492540063423283 0.8747143475662486
0.1295778761519424 0.3719078879752922 0.8280881765708081
-0.018211571148707893 0.5130832856684652 0.7867196557752886
0.021159986908680175 0.42089753093177074 0.8852435718717475
0.08258277212124597 0.4849254006342328 0.8747143475662486
0.3295778761519424 0.3719078879752922 0.8280881765708081
0.18178842885129212 0.5130832856684652 0.7867196557752886
0.2211599869086802 0.42089753093177074 0.8852435718717475
0.282582772121246 0.4849254006342328 0.8747143475662486
0.5295778761519424 0.3719078879752922 0.8280881765708081
0.3817884288512921 0.5130832856684652 0.7867196557752886
0.42115998690868023 0.42089753093177074 0.8852435718717475
0.482582772121246 0.4849254006342328 0.8747143475662486
0.7295778761519425 0.3719078879752922 0.8280881765708081
0.5817884288512921 0.5130832856684652 0.7867196557752886
0.6211599869086802 0.42089753093177074 0.8852435718717475
0.6825827721212461 0.4849254006342328 0.8747143475662486
0.9295778761519424 0.3719078879752922 0.8280881765708081
0.7817884288512922 0.5130832856684652 0.7867196557752886
0.8211599869086803 0.42089753093177074 0.8852435718717475
0.8825827721212459 0.4849254006342328 0.8747143475662486
0.1295778761519424 0.5719078879752922 0.8280881765708081
-0.018211571148707893 0.7130832856684651 0.7867196557752886
0.021159986908680175 0.6208975309317708 0.8852435718717475
0.08258277212124597 0.6849254006342328 0.8747143475662486
0.3295778761519424 0.5719078879752922 0.8280881765708081
0.18178842885129212 0.7130832856684651 0.7867196557752886
0.2211599869086802 0.6208975309317708 0.8852435718717475
0.282582772121246 0.6849254006342328 0.8747143475662486
0.5295778761519424 0.5719078879752922 0.8280881765708081
0.3817884288512921 0.7130832856684651 0.7867196557752886
0.42115998690868023 0.6208975309317708 0.8852435718717475
0.482582772121246 0.6849254006342328 0.8747143475662486
0.7295778761519425 0.5719078879752922 0.8280881765708081
0.5817884288512921 0.7130832856684651 0.7867196557752886
0.6211599869086802 0.6208975309317708 0.8852435718717475
0.6825827721212461 0.6849254006342328 0.8747143475662486
0.9295778761519424 0.5719078879752922 0.8280881765708081
0.7817884288512922 0.7130832856684651 0.7867196557752886
0.8211599869086803 0.6208975309317708 0.8852435718717475
0.8825827721212459 0.6849254006342328 0.8747143475662486
0.1295778761519424 0.7719078879752922 0.8280881765708081
-0.018211571148707893 0.9130832856684652 0.7867196557752886
0.021159986908680175 0.8208975309317709 0.8852435718717475
0.08258277212124597 0.8849254006342329 0.8747143475662486
0.3295778761519424 0.7719078879752922 0.8280881765708081
0.18178842885129212 0.9130832856684652 0.7867196557752886
0.2211599869086802 0.8208975309317709 0.8852435718717475
0.282582772121246 0.8849254006342329 0.8747143475662486
0.5295778761519424 0.7719078879752922 0.8280881765708081
0.3817884288512921 0.9130832856684652 0.7867196557752886
0.42115998690868023 0.8208975309317709 0.8852435718717475
0.482582772121246 0.8849254006342329 0.8747143475662486
0.7295778761519425 0.7719078879752922 0.8280881765708081
0.5817884288512921 0.9130832856684652 0.7867196557752886
0.6211599869086802 0.8208975309317709 0.8852435718717475
0.6825827721212461 0.8849254006342329 0.8747143475662486
0.9295778761519424 0.7719078879752922 0.8280881765708081
0.7817884288512922 0.9130832856684652 0.7867196557752886
0.8211599869086803 0.8208975309317709 0.8852435718717475
0.8825827721212459 0.8849254006342329 0.8747143475662486
