FCC BaO
3.971
5.0 0.0 0.0
0.0 5.0 0.0
0.0 0.0 5.0
Ba O 
500 500 
Direct
0.024892477547922433 -0.020880126913716532 0.019357691960522967
-0.005666523184688461 0.10604620705909547 0.08464585340771885
0.12208921058480891 -0.029986715283003396 0.10353255961947101
0.09883019283118288 0.11181003508612948 0.00021819080660761327
0.22489247754792246 -0.020880126913716532 0.019357691960522967
0.19433347681531155 0.10604620705909547 0.08464585340771885
0.32208921058480894 -0.029986715283003396 0.10353255961947101
0.2988301928311829 0.11181003508612948 0.00021819080660761327
0.4248924775479225 -0.020880126913716532 0.019357691960522967
0.39433347681531156 0.10604620705909547 0.08464585340771885
0.5220892105848088 -0.029986715283003396 0.10353255961947101
0.4988301928311829 0.11181003508612948 0.00021819080660761327
0.6248924775479225 -0.020880126913716532 0.019357691960522967
0.5943334768153116 0.10604620705909547 0.08464585340771885
0.7220892105848089 -0.029986715283003396 0.10353255961947101
0.698830192831183 0.11181003508612948 0.00021819080660761327
0.8248924775479225 -0.020880126913716532 0.019357691960522967
0.7943334768153116 0.10604620705909547 0.08464585340771885
0.9220892105848089 -0.029986715283003396 0.10353255961947101
0.8988301928311829 0.11181003508612948 0.00021819080660761327
0.024892477547922433 0.1791198730862835 0.019357691960522967
-0.005666523184688461 0.30604620705909547 0.08464585340771885
0.12208921058480891 0.17001328471699662 0.10353255961947101
0.09883019283118288 0.3118100350861295 0.00021819080660761327
0.22489247754792246 0.1791198730862835 0.019357691960522967
0.19433347681531155 0.30604620705909547 0.08464585340771885
0.32208921058480894 0.17001328471699662 0.10353255961947101
0.2988301928311829 0.3118100350861295 0.00021819080660761327
0.4248924775479225 0.1791198730862835 0.019357691960522967
0.39433347681531156 0.30604620705909547 0.08464585340771885
0.5220892105848088 0.17001328471699662 0.10353255961947101
0.4988301928311829 0.3118100350861295 0.00021819080660761327
0.6248924775479225 0.1791198730862835 0.019357691960522967
0.5943334768153116 0.30604620705909547 0.08464585340771885
0.7220892105848089 0.17001328471699662 0.10353255961947101
0.698830192831183 0.3118100350861295 0.00021819080660761327
0.8248924775479225 0.1791198730862835 0.019357691960522967
0.7943334768153116 0.30604620705909547 0.08464585340771885
0.9220892105848089 0.17001328471699662 0.10353255961947101
0.8988301928311829 0.3118100350861295 0.00021819080660761327
0.024892477547922433 0.3791198730862835 0.019357691960522967
-0.005666523184688461 0.5060462070590955 0.08464585340771885
0.12208921058480891 0.3700132847169966 0.10353255961947101
0.09883019283118288 0.5118100350861295 0.00021819080660761327
0.22489247754792246 0.3791198730862835 0.019357691960522967
0.19433347681531155 0.5060462070590955 0.08464585340771885
0.32208921058480894 0.3700132847169966 0.10353255961947101
0.2988301928311829 0.5118100350861295 0.00021819080660761327
0.4248924775479225 0.3791198730862835 0.019357691960522967
0.39433347681531156 0.5060462070590955 0.08464585340771885
0.5220892105848088 0.3700132847169966 0.10353255961947101
0.4988301928311829 0.5118100350861295 0.00021819080660761327
0.6248924775479225 0.3791198730862835 0.019357691960522967
0.5943334768153116 0.5060462070590955 0.08464585340771885
0.7220892105848089 0.3700132847169966 0.10353255961947101
0.698830192831183 0.5118100350861295 0.00021819080660761327
0.8248924775479225 0.3791198730862835 0.019357691960522967
0.7943334768153116 0.5060462070590955 0.08464585340771885
0.9220892105848089 0.3700132847169966 0.10353255961947101
0.8988301928311829 0.5118100350861295 0.00021819080660761327
0.024892477547922433 0.5791198730862835 0.019357691960522967
-0.005666523184688461 0.7060462070590955 0.08464585340771885
0.12208921058480891 0.5700132847169966 0.10353255961947101
0.09883019283118288 0.7118100350861295 0.00021819080660761327
0.22489247754792246 0.5791198730862835 0.019357691960522967
0.19433347681531155 0.7060462070590955 0.08464585340771885
0.32208921058480894 0.5700132847169966 0.10353255961947101
0.2988301928311829 0.7118100350861295 0.00021819080660761327
0.4248924775479225 0.5791198730862835 0.019357691960522967
0.39433347681531156 0.7060462070590955 0.08464585340771885
0.5220892105848088 0.5700132847169966 0.10353255961947101
0.4988301928311829 0.7118100350861295 0.00021819080660761327
0.6248924775479225 0.5791198730862835 0.019357691960522967
0.5943334768153116 0.7060462070590955 0.08464585340771885
0.7220892105848089 0.5700132847169966 0.10353255961947101
0.698830192831183 0.7118100350861295 0.00021819080660761327
0.8248924775479225 0.5791198730862835 0.019357691960522967
0.7943334768153116 0.7060462070590955 0.08464585340771885
0.9220892105848089 0.5700132847169966 0.10353255961947101
0.8988301928311829 0.7118100350861295 0.00021819080660761327
0.024892477547922433 0.7791198730862835 0.019357691960522967
-0.005666523184688461 0.9060462070590956 0.08464585340771885
0.12208921058480891 0.7700132847169967 0.10353255961947101
0.09883019283118288 0.9118100350861295 0.00021819080660761327
0.22489247754792246 0.7791198730862835 0.019357691960522967
0.19433347681531155 0.9060462070590956 0.08464585340771885
0.32208921058480894 0.7700132847169967 0.10353255961947101
0.2988301928311829 0.9118100350861295 0.00021819080660761327
0.4248924775479225 0.7791198730862835 0.019357691960522967
0.39433347681531156 0.9060462070590956 0.08464585340771885
0.5220892105848088 0.7700132847169967 0.10353255961947101
0.4988301928311829 0.9118100350861295 0.00021819080660761327
0.6248924775479225 0.7791198730862835 0.019357691960522967
0.5943334768153116 0.9060462070590956 0.08464585340771885
0.7220892105848089 0.7700132847169967 0.10353255961947101
0.698830192831183 0.9118100350861295 0.00021819080660761327
0.8248924775479225 0.7791198730862835 0.019357691960522967
0.7943334768153116 0.9060462070590956 0.08464585340771885
0.9220892105848089 0.7700132847169967 0.10353255961947101
0.8988301928311829 0.9118100350861295 0.00021819080660761327
0.024892477547922433 -0.020880126913716532 0.21935769196052296
-0.005666523184688461 0.10604620705909547 0.28464585340771886
0.12208921058480891 -0.029986715283003396 0.303532559619471
0.09883019283118288 0.11181003508612948 0.20021819080660763
0.22489247754792246 -0.020880126913716532 0.21935769196052296
0.19433347681531155 0.10604620705909547 0.28464585340771886
0.32208921058480894 -0.029986715283003396 0.303532559619471
0.2988301928311829 0.11181003508612948 0.20021819080660763
0.4248924775479225 -0.020880126913716532 0.21935769196052296
0.39433347681531156 0.10604620705909547 0.28464585340771886
0.5220892105848088 -0.029986715283003396 0.303532559619471
0.4988301928311829 0.11181003508612948 0.20021819080660763
0.6248924775479225 -0.020880126913716532 0.21935769196052296
0.5943334768153116 0.10604620705909547 0.28464585340771886
0.7220892105848089 -0.029986715283003396 0.303532559619471
0.698830192831183 0.11181003508612948 0.20021819080660763
0.8248924775479225 -0.020880126913716532 0.21935769196052296
0.7943334768153116 0.10604620705909547 0.28464585340771886
0.9220892105848089 -0.029986715283003396 0.303532559619471
0.8988301928311829 0.11181003508612948 0.20021819080660763
0.024892477547922433 0.1791198730862835 0.21935769196052296
-0.005666523184688461 0.30604620705909547 0.28464585340771886
0.12208921058480891 0.17001328471699662 0.303532559619471
0.09883019283118288 0.3118100350861295 0.20021819080660763
0.22489247754792246 0.1791198730862835 0.21935769196052296
0.19433347681531155 0.30604620705909547 0.28464585340771886
0.32208921058480894 0.17001328471699662 0.303532559619471
0.2988301928311829 0.3118100350861295 0.20021819080660763
0.4248924775479225 0.1791198730862835 0.21935769196052296
0.39433347681531156 0.30604620705909547 0.28464585340771886
0.5220892105848088 0.17001328471699662 0.303532559619471
0.4988301928311829 0.3118100350861295 0.20021819080660763
0.6248924775479225 0.1791198730862835 0.21935769196052296
0.5943334768153116 0.30604620705909547 0.28464585340771886
0.7220892105848089 0.17001328471699662 0.303532559619471
0.698830192831183 0.3118100350861295 0.20021819080660763
0.8248924775479225 0.1791198730862835 0.21935769196052296
0.7943334768153116 0.30604620705909547 0.28464585340771886
0.9220892105848089 0.17001328471699662 0.303532559619471
0.8988301928311829 0.3118100350861295 0.20021819080660763
0.024892477547922433 0.3791198730862835 0.21935769196052296
-0.005666523184688461 0.5060462070590955 0.28464585340771886
0.12208921058480891 0.3700132847169966 0.303532559619471
0.09883019283118288 0.5118100350861295 0.20021819080660763
0.22489247754792246 0.3791198730862835 0.21935769196052296
0.19433347681531155 0.5060462070590955 0.28464585340771886
0.32208921058480894 0.3700132847169966 0.303532559619471
0.2988301928311829 0.5118100350861295 0.20021819080660763
0.4248924775479225 0.3791198730862835 0.21935769196052296
0.39433347681531156 0.5060462070590955 0.28464585340771886
0.5220892105848088 0.3700132847169966 0.303532559619471
0.4988301928311829 0.5118100350861295 0.20021819080660763
0.6248924775479225 0.3791198730862835 0.21935769196052296
0.5943334768153116 0.5060462070590955 0.28464585340771886
0.7220892105848089 0.3700132847169966 0.303532559619471
0.698830192831183 0.5118100350861295 0.20021819080660763
0.8248924775479225 0.3791198730862835 0.21935769196052296
0.7943334768153116 0.5060462070590955 0.28464585340771886
0.9220892105848089 0.3700132847169966 0.303532559619471
0.8988301928311829 0.5118100350861295 0.20021819080660763
0.024892477547922433 0.5791198730862835 0.21935769196052296
-0.005666523184688461 0.7060462070590955 0.28464585340771886
0.12208921058480891 0.5700132847169966 0.303532559619471
0.09883019283118288 0.7118100350861295 0.20021819080660763
0.22489247754792246 0.5791198730862835 0.21935769196052296
0.19433347681531155 0.7060462070590955 0.28464585340771886
0.32208921058480894 0.5700132847169966 0.303532559619471
0.2988301928311829 0.7118100350861295 0.20021819080660763
0.4248924775479225 0.5791198730862835 0.21935769196052296
0.39433347681531156 0.7060462070590955 0.28464585340771886
0.5220892105848088 0.5700132847169966 0.303532559619471
0.4988301928311829 0.7118100350861295 0.20021819080660763
0.6248924775479225 0.5791198730862835 0.21935769196052296
0.5943334768153116 0.7060462070590955 0.28464585340771886
0.7220892105848089 0.5700132847169966 0.303532559619471
0.698830192831183 0.7118100350861295 0.20021819080660763
0.8248924775479225 0.5791198730862835 0.21935769196052296
0.7943334768153116 0.7060462070590955 0.28464585340771886
0.9220892105848089 0.5700132847169966 0.303532559619471
0.8988301928311829 0.7118100350861295 0.20021819080660763
0.024892477547922433 0.7791198730862835 0.21935769196052296
-0.005666523184688461 0.9060462070590956 0.28464585340771886
0.12208921058480891 0.7700132847169967 0.303532559619471
0.09883019283118288 0.9118100350861295 0.20021819080660763
0.22489247754792246 0.7791198730862835 0.21935769196052296
0.19433347681531155 0.9060462070590956 0.28464585340771886
0.32208921058480894 0.7700132847169967 0.303532559619471
0.2988301928311829 0.9118100350861295 0.20021819080660763
0.4248924775479225 0.7791198730862835 0.21935769196052296
0.39433347681531156 0.9060462070590956 0.28464585340771886
0.5220892105848088 0.7700132847169967 0.303532559619471
0.4988301928311829 0.9118100350861295 0.20021819080660763
0.6248924775479225 0.7791198730862835 0.21935769196052296
0.5943334768153116 0.9060462070590956 0.28464585340771886
0.7220892105848089 0.7700132847169967 0.303532559619471
0.698830192831183 0.9118100350861295 0.20021819080660763
0.8248924775479225 0.7791198730862835 0.21935769196052296
0.7943334768153116 0.9060462070590956 0.28464585340771886
0.9220892105848089 0.7700132847169967 0.303532559619471
0.8988301928311829 0.9118100350861295 0.20021819080660763
0.024892477547922433 -0.020880126913716532 0.41935769196052297
-0.005666523184688461 0.10604620705909547 0.4846458534077188
0.12208921058480891 -0.029986715283003396 0.503532559619471
0.09883019283118288 0.11181003508612948 0.4002181908066076
0.22489247754792246 -0.020880126913716532 0.41935769196052297
0.19433347681531155 0.10604620705909547 0.4846458534077188
0.32208921058480894 -0.029986715283003396 0.503532559619471
0.2988301928311829 0.11181003508612948 0.4002181908066076
0.4248924775479225 -0.020880126913716532 0.41935769196052297
0.39433347681531156 0.10604620705909547 0.4846458534077188
0.5220892105848088 -0.029986715283003396 0.503532559619471
0.4988301928311829 0.11181003508612948 0.4002181908066076
0.6248924775479225 -0.020880126913716532 0.41935769196052297
0.5943334768153116 0.10604620705909547 0.4846458534077188
0.7220892105848089 -0.029986715283003396 0.503532559619471
0.698830192831183 0.11181003508612948 0.4002181908066076
0.8248924775479225 -0.020880126913716532 0.41935769196052297
0.7943334768153116 0.10604620705909547 0.4846458534077188
0.9220892105848089 -0.029986715283003396 0.503532559619471
0.8988301928311829 0.11181003508612948 0.4002181908066076
0.024892477547922433 0.1791198730862835 0.41935769196052297
-0.005666523184688461 0.30604620705909547 0.4846458534077188
0.12208921058480891 0.17001328471699662 0.503532559619471
0.09883019283118288 0.3118100350861295 0.4002181908066076
0.22489247754792246 0.1791198730862835 0.41935769196052297
0.19433347681531155 0.30604620705909547 0.4846458534077188
0.32208921058480894 0.17001328471699662 0.503532559619471
0.2988301928311829 0.3118100350861295 0.4002181908066076
0.4248924775479225 0.1791198730862835 0.41935769196052297
0.39433347681531156 0.30604620705909547 0.4846458534077188
0.5220892105848088 0.17001328471699662 0.503532559619471
0.4988301928311829 0.3118100350861295 0.4002181908066076
0.6248924775479225 0.1791198730862835 0.41935769196052297
0.5943334768153116 0.30604620705909547 0.4846458534077188
0.7220892105848089 0.17001328471699662 0.503532559619471
0.698830192831183 0.3118100350861295 0.4002181908066076
0.8248924775479225 0.1791198730862835 0.41935769196052297
0.7943334768153116 0.30604620705909547 0.4846458534077188
0.9220892105848089 0.17001328471699662 0.503532559619471
0.8988301928311829 0.3118100350861295 0.4002181908066076
0.024892477547922433 0.3791198730862835 0.41935769196052297
-0.005666523184688461 0.5060462070590955 0.4846458534077188
0.12208921058480891 0.3700132847169966 0.503532559619471
0.09883019283118288 0.5118100350861295 0.4002181908066076
0.22489247754792246 0.3791198730862835 0.41935769196052297
0.19433347681531155 0.5060462070590955 0.4846458534077188
0.32208921058480894 0.3700132847169966 0.503532559619471
0.2988301928311829 0.5118100350861295 0.4002181908066076
0.4248924775479225 0.3791198730862835 0.41935769196052297
0.39433347681531156 0.5060462070590955 0.4846458534077188
0.5220892105848088 0.3700132847169966 0.503532559619471
0.4988301928311829 0.5118100350861295 0.4002181908066076
0.6248924775479225 0.3791198730862835 0.41935769196052297
0.5943334768153116 0.5060462070590955 0.4846458534077188
0.7220892105848089 0.3700132847169966 0.503532559619471
0.698830192831183 0.5118100350861295 0.4002181908066076
0.8248924775479225 0.3791198730862835 0.41935769196052297
0.7943334768153116 0.5060462070590955 0.4846458534077188
0.9220892105848089 0.3700132847169966 0.503532559619471
0.8988301928311829 0.5118100350861295 0.4002181908066076
0.024892477547922433 0.5791198730862835 0.41935769196052297
-0.005666523184688461 0.7060462070590955 0.4846458534077188
0.12208921058480891 0.5700132847169966 0.503532559619471
0.09883019283118288 0.7118100350861295 0.4002181908066076
0.22489247754792246 0.5791198730862835 0.41935769196052297
0.19433347681531155 0.7060462070590955 0.4846458534077188
0.32208921058480894 0.5700132847169966 0.503532559619471
0.2988301928311829 0.7118100350861295 0.4002181908066076
0.4248924775479225 0.5791198730862835 0.41935769196052297
0.39433347681531156 0.7060462070590955 0.4846458534077188
0.5220892105848088 0.5700132847169966 0.503532559619471
0.4988301928311829 0.7118100350861295 0.4002181908066076
0.6248924775479225 0.5791198730862835 0.41935769196052297
0.5943334768153116 0.7060462070590955 0.4846458534077188
0.7220892105848089 0.5700132847169966 0.503532559619471
0.698830192831183 0.7118100350861295 0.4002181908066076
0.8248924775479225 0.5791198730862835 0.41935769196052297
0.7943334768153116 0.7060462070590955 0.4846458534077188
0.9220892105848089 0.5700132847169966 0.503532559619471
0.8988301928311829 0.7118100350861295 0.4002181908066076
0.024892477547922433 0.7791198730862835 0.41935769196052297
-0.005666523184688461 0.9060462070590956 0.4846458534077188
0.12208921058480891 0.7700132847169967 0.503532559619471
0.09883019283118288 0.9118100350861295 0.4002181908066076
0.22489247754792246 0.7791198730862835 0.41935769196052297
0.19433347681531155 0.9060462070590956 0.4846458534077188
0.32208921058480894 0.7700132847169967 0.503532559619471
0.2988301928311829 0.9118100350861295 0.4002181908066076
0.4248924775479225 0.7791198730862835 0.41935769196052297
0.39433347681531156 0.9060462070590956 0.4846458534077188
0.5220892105848088 0.7700132847169967 0.503532559619471
0.4988301928311829 0.9118100350861295 0.4002181908066076
0.6248924775479225 0.7791198730862835 0.41935769196052297
0.5943334768153116 0.9060462070590956 0.4846458534077188
0.7220892105848089 0.7700132847169967 0.503532559619471
0.698830192831183 0.9118100350861295 0.4002181908066076
0.8248924775479225 0.7791198730862835 0.41935769196052297
0.7943334768153116 0.9060462070590956 0.4846458534077188
0.9220892105848089 0.7700132847169967 0.503532559619471
0.8988301928311829 0.9118100350861295 0.4002181908066076
0.024892477547922433 -0.020880126913716532 0.619357691960523
-0.005666523184688461 0.10604620705909547 0.6846458534077189
0.12208921058480891 -0.029986715283003396 0.703532559619471
0.09883019283118288 0.11181003508612948 0.6002181908066077
0.22489247754792246 -0.020880126913716532 0.619357691960523
0.19433347681531155 0.10604620705909547 0.6846458534077189
0.32208921058480894 -0.029986715283003396 0.703532559619471
0.2988301928311829 0.11181003508612948 0.6002181908066077
0.4248924775479225 -0.020880126913716532 0.619357691960523
0.39433347681531156 0.10604620705909547 0.6846458534077189
0.5220892105848088 -0.029986715283003396 0.703532559619471
0.4988301928311829 0.11181003508612948 0.6002181908066077
0.6248924775479225 -0.020880126913716532 0.619357691960523
0.5943334768153116 0.10604620705909547 0.6846458534077189
0.7220892105848089 -0.029986715283003396 0.703532559619471
0.698830192831183 0.11181003508612948 0.6002181908066077
0.8248924775479225 -0.020880126913716532 0.619357691960523
0.7943334768153116 0.10604620705909547 0.6846458534077189
0.9220892105848089 -0.029986715283003396 0.703532559619471
0.8988301928311829 0.11181003508612948 0.6002181908066077
0.024892477547922433 0.1791198730862835 0.619357691960523
-0.005666523184688461 0.30604620705909547 0.6846458534077189
0.12208921058480891 0.17001328471699662 0.703532559619471
0.09883019283118288 0.3118100350861295 0.6002181908066077
0.22489247754792246 0.1791198730862835 0.619357691960523
0.19433347681531155 0.30604620705909547 0.6846458534077189
0.32208921058480894 0.17001328471699662 0.703532559619471
0.2988301928311829 0.3118100350861295 0.6002181908066077
0.4248924775479225 0.1791198730862835 0.619357691960523
0.39433347681531156 0.30604620705909547 0.6846458534077189
0.5220892105848088 0.17001328471699662 0.703532559619471
0.4988301928311829 0.3118100350861295 0.6002181908066077
0.6248924775479225 0.1791198730862835 0.619357691960523
0.5943334768153116 0.30604620705909547 0.6846458534077189
0.7220892105848089 0.17001328471699662 0.703532559619471
0.698830192831183 0.3118100350861295 0.6002181908066077
0.8248924775479225 0.1791198730862835 0.619357691960523
0.7943334768153116 0.30604620705909547 0.6846458534077189
0.9220892105848089 0.17001328471699662 0.703532559619471
0.8988301928311829 0.3118100350861295 0.6002181908066077
0.024892477547922433 0.3791198730862835 0.619357691960523
-0.005666523184688461 0.5060462070590955 0.6846458534077189
0.12208921058480891 0.3700132847169966 0.703532559619471
0.09883019283118288 0.5118100350861295 0.6002181908066077
0.22489247754792246 0.3791198730862835 0.619357691960523
0.19433347681531155 0.5060462070590955 0.6846458534077189
0.32208921058480894 0.3700132847169966 0.703532559619471
0.2988301928311829 0.5118100350861295 0.6002181908066077
0.4248924775479225 0.3791198730862835 0.619357691960523
0.39433347681531156 0.5060462070590955 0.6846458534077189
0.5220892105848088 0.3700132847169966 0.703532559619471
0.4988301928311829 0.5118100350861295 0.6002181908066077
0.6248924775479225 0.3791198730862835 0.619357691960523
0.5943334768153116 0.5060462070590955 0.6846458534077189
0.7220892105848089 0.3700132847169966 0.703532559619471
0.698830192831183 0.5118100350861295 0.6002181908066077
0.8248924775479225 0.3791198730862835 0.619357691960523
0.7943334768153116 0.5060462070590955 0.6846458534077189
0.9220892105848089 0.3700132847169966 0.703532559619471
0.8988301928311829 0.5118100350861295 0.6002181908066077
0.024892477547922433 0.5791198730862835 0.619357691960523
-0.005666523184688461 0.7060462070590955 0.6846458534077189
0.12208921058480891 0.5700132847169966 0.703532559619471
0.09883019283118288 0.7118100350861295 0.6002181908066077
0.22489247754792246 0.5791198730862835 0.619357691960523
0.19433347681531155 0.7060462070590955 0.6846458534077189
0.32208921058480894 0.5700132847169966 0.703532559619471
0.2988301928311829 0.7118100350861295 0.6002181908066077
0.4248924775479225 0.5791198730862835 0.619357691960523
0.39433347681531156 0.7060462070590955 0.6846458534077189
0.5220892105848088 0.5700132847169966 0.703532559619471
0.4988301928311829 0.7118100350861295 0.6002181908066077
0.6248924775479225 0.5791198730862835 0.619357691960523
0.5943334768153116 0.7060462070590955 0.6846458534077189
0.7220892105848089 0.5700132847169966 0.703532559619471
0.698830192831183 0.7118100350861295 0.6002181908066077
0.8248924775479225 0.5791198730862835 0.619357691960523
0.7943334768153116 0.7060462070590955 0.6846458534077189
0.9220892105848089 0.5700132847169966 0.703532559619471
0.8988301928311829 0.7118100350861295 0.6002181908066077
0.024892477547922433 0.7791198730862835 0.619357691960523
-0.005666523184688461 0.9060462070590956 0.6846458534077189
0.12208921058480891 0.7700132847169967 0.703532559619471
0.09883019283118288 0.9118100350861295 0.6002181908066077
0.22489247754792246 0.7791198730862835 0.619357691960523
0.19433347681531155 0.9060462070590956 0.6846458534077189
0.32208921058480894 0.7700132847169967 0.703532559619471
0.2988301928311829 0.9118100350861295 0.6002181908066077
0.4248924775479225 0.7791198730862835 0.619357691960523
0.39433347681531156 0.9060462070590956 0.6846458534077189
0.5220892105848088 0.7700132847169967 0.703532559619471
0.4988301928311829 0.9118100350861295 0.6002181908066077
0.6248924775479225 0.7791198730862835 0.619357691960523
0.5943334768153116 0.9060462070590956 0.6846458534077189
0.7220892105848089 0.7700132847169967 0.703532559619471
0.698830192831183 0.9118100350861295 0.6002181908066077
0.8248924775479225 0.7791198730862835 0.619357691960523
0.7943334768153116 0.9060462070590956 0.6846458534077189
0.9220892105848089 0.7700132847169967 0.703532559619471
0.8988301928311829 0.9118100350861295 0.6002181908066077
0.024892477547922433 -0.020880126913716532 0.819357691960523
-0.005666523184688461 0.10604620705909547 0.8846458534077188
0.12208921058480891 -0.029986715283003396 0.903532559619471
0.09883019283118288 0.11181003508612948 0.8002181908066076
0.22489247754792246 -0.020880126913716532 0.819357691960523
0.19433347681531155 0.10604620705909547 0.8846458534077188
0.32208921058480894 -0.029986715283003396 0.903532559619471
0.2988301928311829 0.11181003508612948 0.8002181908066076
0.4248924775479225 -0.020880126913716532 0.819357691960523
0.39433347681531156 0.10604620705909547 0.8846458534077188
0.5220892105848088 -0.029986715283003396 0.903532559619471
0.4988301928311829 0.11181003508612948 0.8002181908066076
0.6248924775479225 -0.020880126913716532 0.819357691960523
0.5943334768153116 0.10604620705909547 0.8846458534077188
0.7220892105848089 -0.029986715283003396 0.903532559619471
0.698830192831183 0.11181003508612948 0.8002181908066076
0.8248924775479225 -0.020880126913716532 0.819357691960523
0.7943334768153116 0.10604620705909547 0.8846458534077188
0.9220892105848089 -0.029986715283003396 0.903532559619471
0.8988301928311829 0.11181003508612948 0.8002181908066076
0.024892477547922433 0.1791198730862835 0.819357691960523
-0.005666523184688461 0.30604620705909547 0.8846458534077188
0.12208921058480891 0.17001328471699662 0.903532559619471
0.09883019283118288 0.3118100350861295 0.8002181908066076
0.22489247754792246 0.1791198730862835 0.819357691960523
0.19433347681531155 0.30604620705909547 0.8846458534077188
0.32208921058480894 0.17001328471699662 0.903532559619471
0.2988301928311829 0.3118100350861295 0.8002181908066076
0.4248924775479225 0.1791198730862835 0.819357691960523
0.39433347681531156 0.30604620705909547 0.8846458534077188
0.5220892105848088 0.17001328471699662 0.903532559619471
0.4988301928311829 0.3118100350861295 0.8002181908066076
0.6248924775479225 0.1791198730862835 0.819357691960523
0.5943334768153116 0.30604620705909547 0.8846458534077188
0.7220892105848089 0.17001328471699662 0.903532559619471
0.698830192831183 0.3118100350861295 0.8002181908066076
0.8248924775479225 0.1791198730862835 0.819357691960523
0.7943334768153116 0.30604620705909547 0.8846458534077188
0.9220892105848089 0.17001328471699662 0.903532559619471
0.8988301928311829 0.3118100350861295 0.8002181908066076
0.024892477547922433 0.3791198730862835 0.819357691960523
-0.005666523184688461 0.5060462070590955 0.8846458534077188
0.12208921058480891 0.3700132847169966 0.903532559619471
0.09883019283118288 0.5118100350861295 0.8002181908066076
0.22489247754792246 0.3791198730862835 0.819357691960523
0.19433347681531155 0.5060462070590955 0.8846458534077188
0.32208921058480894 0.3700132847169966 0.903532559619471
0.2988301928311829 0.5118100350861295 0.8002181908066076
0.4248924775479225 0.3791198730862835 0.819357691960523
0.39433347681531156 0.5060462070590955 0.8846458534077188
0.5220892105848088 0.3700132847169966 0.903532559619471
0.4988301928311829 0.5118100350861295 0.8002181908066076
0.6248924775479225 0.3791198730862835 0.819357691960523
0.5943334768153116 0.5060462070590955 0.8846458534077188
0.7220892105848089 0.3700132847169966 0.903532559619471
0.698830192831183 0.5118100350861295 0.8002181908066076
0.8248924775479225 0.3791198730862835 0.819357691960523
0.7943334768153116 0.5060462070590955 0.8846458534077188
0.9220892105848089 0.3700132847169966 0.903532559619471
0.8988301928311829 0.5118100350861295 0.8002181908066076
0.024892477547922433 0.5791198730862835 0.819357691960523
-0.005666523184688461 0.7060462070590955 0.8846458534077188
0.12208921058480891 0.5700132847169966 0.903532559619471
0.09883019283118288 0.7118100350861295 0.8002181908066076
0.22489247754792246 0.5791198730862835 0.819357691960523
0.19433347681531155 0.7060462070590955 0.8846458534077188
0.32208921058480894 0.5700132847169966 0.903532559619471
0.2988301928311829 0.7118100350861295 0.8002181908066076
0.4248924775479225 0.5791198730862835 0.819357691960523
0.39433347681531156 0.7060462070590955 0.8846458534077188
0.5220892105848088 0.5700132847169966 0.903532559619471
0.4988301928311829 0.7118100350861295 0.8002181908066076
0.6248924775479225 0.5791198730862835 0.819357691960523
0.5943334768153116 0.7060462070590955 0.8846458534077188
0.7220892105848089 0.5700132847169966 0.903532559619471
0.698830192831183 0.7118100350861295 0.8002181908066076
0.8248924775479225 0.5791198730862835 0.819357691960523
0.7943334768153116 0.7060462070590955 0.8846458534077188
0.9220892105848089 0.5700132847169966 0.903532559619471
0.8988301928311829 0.7118100350861295 0.8002181908066076
0.024892477547922433 0.7791198730862835 0.819357691960523
-0.005666523184688461 0.9060462070590956 0.8846458534077188
0.12208921058480891 0.7700132847169967 0.903532559619471
0.09883019283118288 0.9118100350861295 0.8002181908066076
0.22489247754792246 0.7791198730862835 0.819357691960523
0.19433347681531155 0.9060462070590956 0.8846458534077188
0.32208921058480894 0.7700132847169967 0.903532559619471
0.2988301928311829 0.9118100350861295 0.8002181908066076
0.4248924775479225 0.7791198730862835 0.819357691960523
0.39433347681531156 0.9060462070590956 0.8846458534077188
0.5220892105848088 0.7700132847169967 0.903532559619471
0.4988301928311829 0.9118100350861295 0.8002181908066076
0.6248924775479225 0.7791198730862835 0.819357691960523
0.5943334768153116 0.9060462070590956 0.8846458534077188
0.7220892105848089 0.7700132847169967 0.903532559619471
0.698830192831183 0.9118100350861295 0.8002181908066076
0.8248924775479225 0.7791198730862835 0.819357691960523
0.7943334768153116 0.9060462070590956 0.8846458534077188
0.9220892105848089 0.7700132847169967 0.903532559619471
0.8988301928311829 0.9118100350861295 0.8002181908066076
0.10842679000752849 0.01596271257632682 -0.010389582496614015
0.02536276371332949 0.07014483006918448 0.023846463534774768
0.0005702132932301419 -0.029490527430275637 0.09332266703427278
0.11179955036783654 0.1091860130562678 0.10622079101112539
0.30842679000752854 0.01596271257632682 -0.010389582496614015
0.2253627637133295 0.07014483006918448 0.023846463534774768
0.20057021329323016 -0.029490527430275637 0.09332266703427278
0.3117995503678366 0.1091860130562678 0.10622079101112539
0.5084267900075286 0.01596271257632682 -0.010389582496614015
0.42536276371332954 0.07014483006918448 0.023846463534774768
0.4005702132932301 -0.029490527430275637 0.09332266703427278
0.5117995503678365 0.1091860130562678 0.10622079101112539
0.7084267900075285 0.01596271257632682 -0.010389582496614015
0.6253627637133296 0.07014483006918448 0.023846463534774768
0.6005702132932301 -0.029490527430275637 0.09332266703427278
0.7117995503678366 0.1091860130562678 0.10622079101112539
0.9084267900075285 0.01596271257632682 -0.010389582496614015
0.8253627637133296 0.07014483006918448 0.023846463534774768
0.8005702132932302 -0.029490527430275637 0.09332266703427278
0.9117995503678366 0.1091860130562678 0.10622079101112539
0.10842679000752849 0.21596271257632682 -0.010389582496614015
0.02536276371332949 0.2701448300691845 0.023846463534774768
0.0005702132932301419 0.17050947256972437 0.09332266703427278
0.11179955036783654 0.3091860130562678 0.10622079101112539
0.30842679000752854 0.21596271257632682 -0.010389582496614015
0.2253627637133295 0.2701448300691845 0.023846463534774768
0.20057021329323016 0.17050947256972437 0.09332266703427278
0.3117995503678366 0.3091860130562678 0.10622079101112539
0.5084267900075286 0.21596271257632682 -0.010389582496614015
0.42536276371332954 0.2701448300691845 0.023846463534774768
0.4005702132932301 0.17050947256972437 0.09332266703427278
0.5117995503678365 0.3091860130562678 0.10622079101112539
0.7084267900075285 0.21596271257632682 -0.010389582496614015
0.6253627637133296 0.2701448300691845 0.023846463534774768
0.6005702132932301 0.17050947256972437 0.09332266703427278
0.7117995503678366 0.3091860130562678 0.10622079101112539
0.9084267900075285 0.21596271257632682 -0.010389582496614015
0.8253627637133296 0.2701448300691845 0.023846463534774768
0.8005702132932302 0.17050947256972437 0.09332266703427278
0.9117995503678366 0.3091860130562678 0.10622079101112539
0.10842679000752849 0.4159627125763269 -0.010389582496614015
0.02536276371332949 0.4701448300691845 0.023846463534774768
0.0005702132932301419 0.3705094725697244 0.09332266703427278
0.11179955036783654 0.5091860130562678 0.10622079101112539
0.30842679000752854 0.4159627125763269 -0.010389582496614015
0.2253627637133295 0.4701448300691845 0.023846463534774768
0.20057021329323016 0.3705094725697244 0.09332266703427278
0.3117995503678366 0.5091860130562678 0.10622079101112539
0.5084267900075286 0.4159627125763269 -0.010389582496614015
0.42536276371332954 0.4701448300691845 0.023846463534774768
0.4005702132932301 0.3705094725697244 0.09332266703427278
0.5117995503678365 0.5091860130562678 0.10622079101112539
0.7084267900075285 0.4159627125763269 -0.010389582496614015
0.6253627637133296 0.4701448300691845 0.023846463534774768
0.6005702132932301 0.3705094725697244 0.09332266703427278
0.7117995503678366 0.5091860130562678 0.10622079101112539
0.9084267900075285 0.4159627125763269 -0.010389582496614015
0.8253627637133296 0.4701448300691845 0.023846463534774768
0.8005702132932302 0.3705094725697244 0.09332266703427278
0.9117995503678366 0.5091860130562678 0.10622079101112539
0.10842679000752849 0.615962712576327 -0.010389582496614015
0.02536276371332949 0.6701448300691846 0.023846463534774768
0.0005702132932301419 0.5705094725697244 0.09332266703427278
0.11179955036783654 0.7091860130562678 0.10622079101112539
0.30842679000752854 0.615962712576327 -0.010389582496614015
0.2253627637133295 0.6701448300691846 0.023846463534774768
0.20057021329323016 0.5705094725697244 0.09332266703427278
0.3117995503678366 0.7091860130562678 0.10622079101112539
0.5084267900075286 0.615962712576327 -0.010389582496614015
0.42536276371332954 0.6701448300691846 0.023846463534774768
0.4005702132932301 0.5705094725697244 0.09332266703427278
0.5117995503678365 0.7091860130562678 0.10622079101112539
0.7084267900075285 0.615962712576327 -0.010389582496614015
0.6253627637133296 0.6701448300691846 0.023846463534774768
0.6005702132932301 0.5705094725697244 0.09332266703427278
0.7117995503678366 0.7091860130562678 0.10622079101112539
0.9084267900075285 0.615962712576327 -0.010389582496614015
0.8253627637133296 0.6701448300691846 0.023846463534774768
0.8005702132932302 0.5705094725697244 0.09332266703427278
0.9117995503678366 0.7091860130562678 0.10622079101112539
0.10842679000752849 0.8159627125763269 -0.010389582496614015
0.02536276371332949 0.8701448300691844 0.023846463534774768
0.0005702132932301419 0.7705094725697244 0.09332266703427278
0.11179955036783654 0.9091860130562678 0.10622079101112539
0.30842679000752854 0.8159627125763269 -0.010389582496614015
0.2253627637133295 0.8701448300691844 0.023846463534774768
0.20057021329323016 0.7705094725697244 0.09332266703427278
0.3117995503678366 0.9091860130562678 0.10622079101112539
0.5084267900075286 0.8159627125763269 -0.010389582496614015
0.42536276371332954 0.8701448300691844 0.023846463534774768
0.4005702132932301 0.7705094725697244 0.09332266703427278
0.5117995503678365 0.9091860130562678 0.10622079101112539
0.7084267900075285 0.8159627125763269 -0.010389582496614015
0.6253627637133296 0.8701448300691844 0.023846463534774768
0.6005702132932301 0.7705094725697244 0.09332266703427278
0.7117995503678366 0.9091860130562678 0.10622079101112539
0.9084267900075285 0.8159627125763269 -0.010389582496614015
0.8253627637133296 0.8701448300691844 0.023846463534774768
0.8005702132932302 0.7705094725697244 0.09332266703427278
0.9117995503678366 0.9091860130562678 0.10622079101112539
0.10842679000752849 0.01596271257632682 0.189610417503386
0.02536276371332949 0.07014483006918448 0.22384646353477478
0.0005702132932301419 -0.029490527430275637 0.29332266703427273
0.11179955036783654 0.1091860130562678 0.3062207910111254
0.30842679000752854 0.01596271257632682 0.189610417503386
0.2253627637133295 0.07014483006918448 0.22384646353477478
0.20057021329323016 -0.029490527430275637 0.29332266703427273
0.3117995503678366 0.1091860130562678 0.3062207910111254
0.5084267900075286 0.01596271257632682 0.189610417503386
0.42536276371332954 0.07014483006918448 0.22384646353477478
0.4005702132932301 -0.029490527430275637 0.29332266703427273
0.5117995503678365 0.1091860130562678 0.3062207910111254
0.7084267900075285 0.01596271257632682 0.189610417503386
0.6253627637133296 0.07014483006918448 0.22384646353477478
0.6005702132932301 -0.029490527430275637 0.29332266703427273
0.7117995503678366 0.1091860130562678 0.3062207910111254
0.9084267900075285 0.01596271257632682 0.189610417503386
0.8253627637133296 0.07014483006918448 0.22384646353477478
0.8005702132932302 -0.029490527430275637 0.29332266703427273
0.9117995503678366 0.1091860130562678 0.3062207910111254
0.10842679000752849 0.21596271257632682 0.189610417503386
0.02536276371332949 0.2701448300691845 0.22384646353477478
0.0005702132932301419 0.17050947256972437 0.29332266703427273
0.11179955036783654 0.3091860130562678 0.3062207910111254
0.30842679000752854 0.21596271257632682 0.189610417503386
0.2253627637133295 0.2701448300691845 0.22384646353477478
0.20057021329323016 0.17050947256972437 0.29332266703427273
0.3117995503678366 0.3091860130562678 0.3062207910111254
0.5084267900075286 0.21596271257632682 0.189610417503386
0.42536276371332954 0.2701448300691845 0.22384646353477478
0.4005702132932301 0.17050947256972437 0.29332266703427273
0.5117995503678365 0.3091860130562678 0.3062207910111254
0.7084267900075285 0.21596271257632682 0.189610417503386
0.6253627637133296 0.2701448300691845 0.22384646353477478
0.6005702132932301 0.17050947256972437 0.29332266703427273
0.7117995503678366 0.3091860130562678 0.3062207910111254
0.9084267900075285 0.21596271257632682 0.189610417503386
0.8253627637133296 0.2701448300691845 0.22384646353477478
0.8005702132932302 0.17050947256972437 0.29332266703427273
0.9117995503678366 0.3091860130562678 0.3062207910111254
0.10842679000752849 0.4159627125763269 0.189610417503386
0.02536276371332949 0.4701448300691845 0.22384646353477478
0.0005702132932301419 0.3705094725697244 0.29332266703427273
0.11179955036783654 0.5091860130562678 0.3062207910111254
0.30842679000752854 0.4159627125763269 0.189610417503386
0.2253627637133295 0.4701448300691845 0.22384646353477478
0.20057021329323016 0.3705094725697244 0.29332266703427273
0.3117995503678366 0.5091860130562678 0.3062207910111254
0.5084267900075286 0.4159627125763269 0.189610417503386
0.42536276371332954 0.4701448300691845 0.22384646353477478
0.4005702132932301 0.3705094725697244 0.29332266703427273
0.5117995503678365 0.5091860130562678 0.3062207910111254
0.7084267900075285 0.4159627125763269 0.189610417503386
0.6253627637133296 0.4701448300691845 0.22384646353477478
0.6005702132932301 0.3705094725697244 0.29332266703427273
0.7117995503678366 0.5091860130562678 0.3062207910111254
0.9084267900075285 0.4159627125763269 0.189610417503386
0.8253627637133296 0.4701448300691845 0.22384646353477478
0.8005702132932302 0.3705094725697244 0.29332266703427273
0.9117995503678366 0.5091860130562678 0.3062207910111254
0.10842679000752849 0.615962712576327 0.189610417503386
0.02536276371332949 0.6701448300691846 0.22384646353477478
0.0005702132932301419 0.5705094725697244 0.29332266703427273
0.11179955036783654 0.7091860130562678 0.3062207910111254
0.30842679000752854 0.615962712576327 0.189610417503386
0.2253627637133295 0.6701448300691846 0.22384646353477478
0.20057021329323016 0.5705094725697244 0.29332266703427273
0.3117995503678366 0.7091860130562678 0.3062207910111254
0.5084267900075286 0.615962712576327 0.189610417503386
0.42536276371332954 0.6701448300691846 0.22384646353477478
0.4005702132932301 0.5705094725697244 0.29332266703427273
0.5117995503678365 0.7091860130562678 0.3062207910111254
0.7084267900075285 0.615962712576327 0.189610417503386
0.6253627637133296 0.6701448300691846 0.22384646353477478
0.6005702132932301 0.5705094725697244 0.29332266703427273
0.7117995503678366 0.7091860130562678 0.3062207910111254
0.9084267900075285 0.615962712576327 0.189610417503386
0.8253627637133296 0.6701448300691846 0.22384646353477478
0.8005702132932302 0.5705094725697244 0.29332266703427273
0.9117995503678366 0.7091860130562678 0.3062207910111254
0.10842679000752849 0.8159627125763269 0.189610417503386
0.02536276371332949 0.8701448300691844 0.22384646353477478
0.0005702132932301419 0.7705094725697244 0.29332266703427273
0.11179955036783654 0.9091860130562678 0.3062207910111254
0.30842679000752854 0.8159627125763269 0.189610417503386
0.2253627637133295 0.8701448300691844 0.22384646353477478
0.20057021329323016 0.7705094725697244 0.29332266703427273
0.3117995503678366 0.9091860130562678 0.3062207910111254
0.5084267900075286 0.8159627125763269 0.189610417503386
0.42536276371332954 0.8701448300691844 0.22384646353477478
0.4005702132932301 0.7705094725697244 0.29332266703427273
0.5117995503678365 0.9091860130562678 0.3062207910111254
0.7084267900075285 0.8159627125763269 0.189610417503386
0.6253627637133296 0.8701448300691844 0.22384646353477478
0.6005702132932301 0.7705094725697244 0.29332266703427273
0.7117995503678366 0.9091860130562678 0.3062207910111254
0.9084267900075285 0.8159627125763269 0.189610417503386
0.8253627637133296 0.8701448300691844 0.22384646353477478
0.8005702132932302 0.7705094725697244 0.29332266703427273
0.9117995503678366 0.9091860130562678 0.3062207910111254
0.10842679000752849 0.01596271257632682 0.389610417503386
0.02536276371332949 0.07014483006918448 0.42384646353477473
0.0005702132932301419 -0.029490527430275637 0.49332266703427274
0.11179955036783654 0.1091860130562678 0.5062207910111254
0.30842679000752854 0.01596271257632682 0.389610417503386
0.2253627637133295 0.07014483006918448 0.42384646353477473
0.20057021329323016 -0.029490527430275637 0.49332266703427274
0.3117995503678366 0.1091860130562678 0.5062207910111254
0.5084267900075286 0.01596271257632682 0.389610417503386
0.42536276371332954 0.07014483006918448 0.42384646353477473
0.4005702132932301 -0.029490527430275637 0.49332266703427274
0.5117995503678365 0.1091860130562678 0.5062207910111254
0.7084267900075285 0.01596271257632682 0.389610417503386
0.6253627637133296 0.07014483006918448 0.42384646353477473
0.6005702132932301 -0.029490527430275637 0.49332266703427274
0.7117995503678366 0.1091860130562678 0.5062207910111254
0.9084267900075285 0.01596271257632682 0.389610417503386
0.8253627637133296 0.07014483006918448 0.42384646353477473
0.8005702132932302 -0.029490527430275637 0.49332266703427274
0.9117995503678366 0.1091860130562678 0.5062207910111254
0.10842679000752849 0.21596271257632682 0.389610417503386
0.02536276371332949 0.2701448300691845 0.42384646353477473
0.0005702132932301419 0.17050947256972437 0.49332266703427274
0.11179955036783654 0.3091860130562678 0.5062207910111254
0.30842679000752854 0.21596271257632682 0.389610417503386
0.2253627637133295 0.2701448300691845 0.42384646353477473
0.20057021329323016 0.17050947256972437 0.49332266703427274
0.3117995503678366 0.3091860130562678 0.5062207910111254
0.5084267900075286 0.21596271257632682 0.389610417503386
0.42536276371332954 0.2701448300691845 0.42384646353477473
0.4005702132932301 0.17050947256972437 0.49332266703427274
0.5117995503678365 0.3091860130562678 0.5062207910111254
0.7084267900075285 0.21596271257632682 0.389610417503386
0.6253627637133296 0.2701448300691845 0.42384646353477473
0.6005702132932301 0.17050947256972437 0.49332266703427274
0.7117995503678366 0.3091860130562678 0.5062207910111254
0.9084267900075285 0.21596271257632682 0.389610417503386
0.8253627637133296 0.2701448300691845 0.42384646353477473
0.8005702132932302 0.17050947256972437 0.49332266703427274
0.9117995503678366 0.3091860130562678 0.5062207910111254
0.10842679000752849 0.4159627125763269 0.389610417503386
0.02536276371332949 0.4701448300691845 0.42384646353477473
0.0005702132932301419 0.3705094725697244 0.49332266703427274
0.11179955036783654 0.5091860130562678 0.5062207910111254
0.30842679000752854 0.4159627125763269 0.389610417503386
0.2253627637133295 0.4701448300691845 0.42384646353477473
0.20057021329323016 0.3705094725697244 0.49332266703427274
0.3117995503678366 0.5091860130562678 0.5062207910111254
0.5084267900075286 0.4159627125763269 0.389610417503386
0.42536276371332954 0.4701448300691845 0.42384646353477473
0.4005702132932301 0.3705094725697244 0.49332266703427274
0.5117995503678365 0.5091860130562678 0.5062207910111254
0.7084267900075285 0.4159627125763269 0.389610417503386
0.6253627637133296 0.4701448300691845 0.42384646353477473
0.6005702132932301 0.3705094725697244 0.49332266703427274
0.7117995503678366 0.5091860130562678 0.5062207910111254
0.9084267900075285 0.4159627125763269 0.389610417503386
0.8253627637133296 0.4701448300691845 0.42384646353477473
0.8005702132932302 0.3705094725697244 0.49332266703427274
0.9117995503678366 0.5091860130562678 0.5062207910111254
0.10842679000752849 0.615962712576327 0.389610417503386
0.02536276371332949 0.6701448300691846 0.42384646353477473
0.0005702132932301419 0.5705094725697244 0.49332266703427274
0.11179955036783654 0.7091860130562678 0.5062207910111254
0.30842679000752854 0.615962712576327 0.389610417503386
0.2253627637133295 0.6701448300691846 0.42384646353477473
0.20057021329323016 0.5705094725697244 0.49332266703427274
0.3117995503678366 0.7091860130562678 0.5062207910111254
0.5084267900075286 0.615962712576327 0.389610417503386
0.42536276371332954 0.6701448300691846 0.42384646353477473
0.4005702132932301 0.5705094725697244 0.49332266703427274
0.5117995503678365 0.7091860130562678 0.5062207910111254
0.7084267900075285 0.615962712576327 0.389610417503386
0.6253627637133296 0.6701448300691846 0.42384646353477473
0.6005702132932301 0.5705094725697244 0.49332266703427274
0.7117995503678366 0.7091860130562678 0.5062207910111254
0.9084267900075285 0.615962712576327 0.389610417503386
0.8253627637133296 0.6701448300691846 0.42384646353477473
0.8005702132932302 0.5705094725697244 0.49332266703427274
0.9117995503678366 0.7091860130562678 0.5062207910111254
0.10842679000752849 0.8159627125763269 0.389610417503386
0.02536276371332949 0.8701448300691844 0.42384646353477473
0.0005702132932301419 0.7705094725697244 0.49332266703427274
0.11179955036783654 0.9091860130562678 0.5062207910111254
0.30842679000752854 0.8159627125763269 0.389610417503386
0.2253627637133295 0.8701448300691844 0.42384646353477473
0.20057021329323016 0.7705094725697244 0.49332266703427274
0.3117995503678366 0.9091860130562678 0.5062207910111254
0.5084267900075286 0.8159627125763269 0.389610417503386
0.42536276371332954 0.8701448300691844 0.42384646353477473
0.4005702132932301 0.7705094725697244 0.49332266703427274
0.5117995503678365 0.9091860130562678 0.5062207910111254
0.7084267900075285 0.8159627125763269 0.389610417503386
0.6253627637133296 0.8701448300691844 0.42384646353477473
0.6005702132932301 0.7705094725697244 0.49332266703427274
0.7117995503678366 0.9091860130562678 0.5062207910111254
0.9084267900075285 0.8159627125763269 0.389610417503386
0.8253627637133296 0.8701448300691844 0.42384646353477473
0.8005702132932302 0.7705094725697244 0.49332266703427274
0.9117995503678366 0.9091860130562678 0.5062207910111254
0.10842679000752849 0.01596271257632682 0.5896104175033859
0.02536276371332949 0.07014483006918448 0.6238464635347748
0.0005702132932301419 -0.029490527430275637 0.6933226670342728
0.11179955036783654 0.1091860130562678 0.7062207910111254
0.30842679000752854 0.01596271257632682 0.5896104175033859
0.2253627637133295 0.07014483006918448 0.6238464635347748
0.20057021329323016 -0.029490527430275637 0.6933226670342728
0.3117995503678366 0.1091860130562678 0.7062207910111254
0.5084267900075286 0.01596271257632682 0.5896104175033859
0.42536276371332954 0.07014483006918448 0.6238464635347748
0.4005702132932301 -0.029490527430275637 0.6933226670342728
0.5117995503678365 0.1091860130562678 0.7062207910111254
0.7084267900075285 0.01596271257632682 0.5896104175033859
0.6253627637133296 0.07014483006918448 0.6238464635347748
0.6005702132932301 -0.029490527430275637 0.6933226670342728
0.7117995503678366 0.1091860130562678 0.7062207910111254
0.9084267900075285 0.01596271257632682 0.5896104175033859
0.8253627637133296 0.07014483006918448 0.6238464635347748
0.8005702132932302 -0.029490527430275637 0.6933226670342728
0.9117995503678366 0.1091860130562678 0.7062207910111254
0.10842679000752849 0.21596271257632682 0.5896104175033859
0.02536276371332949 0.2701448300691845 0.6238464635347748
0.0005702132932301419 0.17050947256972437 0.6933226670342728
0.11179955036783654 0.3091860130562678 0.7062207910111254
0.30842679000752854 0.21596271257632682 0.5896104175033859
0.2253627637133295 0.2701448300691845 0.6238464635347748
0.20057021329323016 0.17050947256972437 0.6933226670342728
0.3117995503678366 0.3091860130562678 0.7062207910111254
0.5084267900075286 0.21596271257632682 0.5896104175033859
0.42536276371332954 0.2701448300691845 0.6238464635347748
0.4005702132932301 0.17050947256972437 0.6933226670342728
0.5117995503678365 0.3091860130562678 0.7062207910111254
0.7084267900075285 0.21596271257632682 0.5896104175033859
0.6253627637133296 0.2701448300691845 0.6238464635347748
0.6005702132932301 0.17050947256972437 0.6933226670342728
0.7117995503678366 0.3091860130562678 0.7062207910111254
0.9084267900075285 0.21596271257632682 0.5896104175033859
0.8253627637133296 0.2701448300691845 0.6238464635347748
0.8005702132932302 0.17050947256972437 0.6933226670342728
0.9117995503678366 0.3091860130562678 0.7062207910111254
0.10842679000752849 0.4159627125763269 0.5896104175033859
0.02536276371332949 0.4701448300691845 0.6238464635347748
0.0005702132932301419 0.3705094725697244 0.6933226670342728
0.11179955036783654 0.5091860130562678 0.7062207910111254
0.30842679000752854 0.4159627125763269 0.5896104175033859
0.2253627637133295 0.4701448300691845 0.6238464635347748
0.20057021329323016 0.3705094725697244 0.6933226670342728
0.3117995503678366 0.5091860130562678 0.7062207910111254
0.5084267900075286 0.4159627125763269 0.5896104175033859
0.42536276371332954 0.4701448300691845 0.6238464635347748
0.4005702132932301 0.3705094725697244 0.6933226670342728
0.5117995503678365 0.5091860130562678 0.7062207910111254
0.7084267900075285 0.4159627125763269 0.5896104175033859
0.6253627637133296 0.4701448300691845 0.6238464635347748
0.6005702132932301 0.3705094725697244 0.6933226670342728
0.7117995503678366 0.5091860130562678 0.7062207910111254
0.9084267900075285 0.4159627125763269 0.5896104175033859
0.8253627637133296 0.4701448300691845 0.6238464635347748
0.8005702132932302 0.3705094725697244 0.6933226670342728
0.9117995503678366 0.5091860130562678 0.7062207910111254
0.10842679000752849 0.615962712576327 0.5896104175033859
0.02536276371332949 0.6701448300691846 0.6238464635347748
0.0005702132932301419 0.5705094725697244 0.6933226670342728
0.11179955036783654 0.7091860130562678 0.7062207910111254
0.30842679000752854 0.615962712576327 0.5896104175033859
0.2253627637133295 0.6701448300691846 0.6238464635347748
0.20057021329323016 0.5705094725697244 0.6933226670342728
0.3117995503678366 0.7091860130562678 0.7062207910111254
0.5084267900075286 0.615962712576327 0.5896104175033859
0.42536276371332954 0.6701448300691846 0.6238464635347748
0.4005702132932301 0.5705094725697244 0.6933226670342728
0.5117995503678365 0.7091860130562678 0.7062207910111254
0.7084267900075285 0.615962712576327 0.5896104175033859
0.6253627637133296 0.6701448300691846 0.6238464635347748
0.6005702132932301 0.5705094725697244 0.6933226670342728
0.7117995503678366 0.7091860130562678 0.7062207910111254
0.9084267900075285 0.615962712576327 0.5896104175033859
0.8253627637133296 0.6701448300691846 0.6238464635347748
0.8005702132932302 0.5705094725697244 0.6933226670342728
0.9117995503678366 0.7091860130562678 0.7062207910111254
0.10842679000752849 0.8159627125763269 0.5896104175033859
0.02536276371332949 0.8701448300691844 0.6238464635347748
0.0005702132932301419 0.7705094725697244 0.6933226670342728
0.11179955036783654 0.9091860130562678 0.7062207910111254
0.30842679000752854 0.8159627125763269 0.5896104175033859
0.2253627637133295 0.8701448300691844 0.6238464635347748
0.20057021329323016 0.7705094725697244 0.6933226670342728
0.3117995503678366 0.9091860130562678 0.7062207910111254
0.5084267900075286 0.8159627125763269 0.5896104175033859
0.42536276371332954 0.8701448300691844 0.6238464635347748
0.4005702132932301 0.7705094725697244 0.6933226670342728
0.5117995503678365 0.9091860130562678 0.7062207910111254
0.7084267900075285 0.8159627125763269 0.5896104175033859
0.6253627637133296 0.8701448300691844 0.6238464635347748
0.6005702132932301 0.7705094725697244 0.6933226670342728
0.7117995503678366 0.9091860130562678 0.7062207910111254
0.9084267900075285 0.8159627125763269 0.5896104175033859
0.8253627637133296 0.8701448300691844 0.6238464635347748
0.8005702132932302 0.7705094725697244 0.6933226670342728
0.9117995503678366 0.9091860130562678 0.7062207910111254
0.10842679000752849 0.01596271257632682 0.789610417503386
0.02536276371332949 0.07014483006918448 0.8238464635347749
0.0005702132932301419 -0.029490527430275637 0.8933226670342729
0.11179955036783654 0.1091860130562678 0.9062207910111255
0.30842679000752854 0.01596271257632682 0.789610417503386
0.2253627637133295 0.07014483006918448 0.8238464635347749
0.20057021329323016 -0.029490527430275637 0.8933226670342729
0.3117995503678366 0.1091860130562678 0.9062207910111255
0.5084267900075286 0.01596271257632682 0.789610417503386
0.42536276371332954 0.07014483006918448 0.8238464635347749
0.4005702132932301 -0.029490527430275637 0.8933226670342729
0.5117995503678365 0.1091860130562678 0.9062207910111255
0.7084267900075285 0.01596271257632682 0.789610417503386
0.6253627637133296 0.07014483006918448 0.8238464635347749
0.6005702132932301 -0.029490527430275637 0.8933226670342729
0.7117995503678366 0.1091860130562678 0.9062207910111255
0.9084267900075285 0.01596271257632682 0.789610417503386
0.8253627637133296 0.07014483006918448 0.8238464635347749
0.8005702132932302 -0.029490527430275637 0.8933226670342729
0.9117995503678366 0.1091860130562678 0.9062207910111255
0.10842679000752849 0.21596271257632682 0.789610417503386
0.02536276371332949 0.2701448300691845 0.8238464635347749
0.0005702132932301419 0.17050947256972437 0.8933226670342729
0.11179955036783654 0.3091860130562678 0.9062207910111255
0.30842679000752854 0.21596271257632682 0.789610417503386
0.2253627637133295 0.2701448300691845 0.8238464635347749
0.20057021329323016 0.17050947256972437 0.8933226670342729
0.3117995503678366 0.3091860130562678 0.9062207910111255
0.5084267900075286 0.21596271257632682 0.789610417503386
0.42536276371332954 0.2701448300691845 0.8238464635347749
0.4005702132932301 0.17050947256972437 0.8933226670342729
0.5117995503678365 0.3091860130562678 0.9062207910111255
0.7084267900075285 0.21596271257632682 0.789610417503386
0.6253627637133296 0.2701448300691845 0.8238464635347749
0.6005702132932301 0.17050947256972437 0.8933226670342729
0.7117995503678366 0.3091860130562678 0.9062207910111255
0.9084267900075285 0.21596271257632682 0.789610417503386
0.8253627637133296 0.2701448300691845 0.8238464635347749
0.8005702132932302 0.17050947256972437 0.8933226670342729
0.9117995503678366 0.3091860130562678 0.9062207910111255
0.10842679000752849 0.4159627125763269 0.789610417503386
0.02536276371332949 0.4701448300691845 0.8238464635347749
0.0005702132932301419 0.3705094725697244 0.8933226670342729
0.11179955036783654 0.5091860130562678 0.9062207910111255
0.30842679000752854 0.4159627125763269 0.789610417503386
0.2253627637133295 0.4701448300691845 0.8238464635347749
0.20057021329323016 0.3705094725697244 0.8933226670342729
0.3117995503678366 0.5091860130562678 0.9062207910111255
0.5084267900075286 0.4159627125763269 0.789610417503386
0.42536276371332954 0.4701448300691845 0.8238464635347749
0.4005702132932301 0.3705094725697244 0.8933226670342729
0.5117995503678365 0.5091860130562678 0.9062207910111255
0.7084267900075285 0.4159627125763269 0.789610417503386
0.6253627637133296 0.4701448300691845 0.8238464635347749
0.6005702132932301 0.3705094725697244 0.8933226670342729
0.7117995503678366 0.5091860130562678 0.9062207910111255
0.9084267900075285 0.4159627125763269 0.789610417503386
0.8253627637133296 0.4701448300691845 0.8238464635347749
0.8005702132932302 0.3705094725697244 0.8933226670342729
0.9117995503678366 0.5091860130562678 0.9062207910111255
0.10842679000752849 0.615962712576327 0.789610417503386
0.02536276371332949 0.6701448300691846 0.8238464635347749
0.0005702132932301419 0.5705094725697244 0.8933226670342729
0.11179955036783654 0.7091860130562678 0.9062207910111255
0.30842679000752854 0.615962712576327 0.789610417503386
0.2253627637133295 0.6701448300691846 0.8238464635347749
0.20057021329323016 0.5705094725697244 0.8933226670342729
0.3117995503678366 0.7091860130562678 0.9062207910111255
0.5084267900075286 0.615962712576327 0.789610417503386
0.42536276371332954 0.6701448300691846 0.8238464635347749
0.4005702132932301 0.5705094725697244 0.8933226670342729
0.5117995503678365 0.7091860130562678 0.9062207910111255
0.7084267900075285 0.615962712576327 0.789610417503386
0.6253627637133296 0.6701448300691846 0.8238464635347749
0.6005702132932301 0.5705094725697244 0.8933226670342729
0.7117995503678366 0.7091860130562678 0.9062207910111255
0.9084267900075285 0.615962712576327 0.789610417503386
0.8253627637133296 0.6701448300691846 0.8238464635347749
0.8005702132932302 0.5705094725697244 0.8933226670342729
0.9117995503678366 0.7091860130562678 0.9062207910111255
0.10842679000752849 0.8159627125763269 0.789610417503386
0.02536276371332949 0.8701448300691844 0.8238464635347749
0.0005702132932301419 0.7705094725697244 0.8933226670342729
0.11179955036783654 0.9091860130562678 0.9062207910111255
0.30842679000752854 0.8159627125763269 0.789610417503386
0.2253627637133295 0.8701448300691844 0.8238464635347749
0.20057021329323016 0.7705094725697244 0.8933226670342729
0.3117995503678366 0.9091860130562678 0.9062207910111255
0.5084267900075286 0.8159627125763269 0.789610417503386
0.42536276371332954 0.8701448300691844 0.8238464635347749
0.4005702132932301 0.7705094725697244 0.8933226670342729
0.5117995503678365 0.9091860130562678 0.9062207910111255
0.7084267900075285 0.8159627125763269 0.789610417503386
0.6253627637133296 0.8701448300691844 0.8238464635347749
0.6005702132932301 0.7705094725697244 0.8933226670342729
0.7117995503678366 0.9091860130562678 0.9062207910111255
0.9084267900075285 0.8159627125763269 0.789610417503386
0.8253627637133296 0.8701448300691844 0.8238464635347749
0.8005702132932302 0.7705094725697244 0.8933226670342729
0.9117995503678366 0.9091860130562678 0.9062207910111255
