FCC BaO
3.971
5.0 0.0 0.0
0.0 5.0 0.0
0.0 0.0 5.0
Ba O 
500 500 
Direct
-0.017251754817193023 0.019341531006179295 0.009091120856566156
-0.006297171062202556 0.10007397749847038 0.08580281608239486
0.09914476206671975 -0.0013973890627833063 0.12412615851967812
0.11357865309875521 0.11402145834195475 -0.018481189491864128
0.182748245182807 0.019341531006179295 0.009091120856566156
0.19370282893779744 0.10007397749847038 0.08580281608239486
0.29914476206671975 -0.0013973890627833063 0.12412615851967812
0.3135786530987552 0.11402145834195475 -0.018481189491864128
0.38274824518280703 0.019341531006179295 0.009091120856566156
0.3937028289377975 0.10007397749847038 0.08580281608239486
0.49914476206671976 -0.0013973890627833063 0.12412615851967812
0.5135786530987553 0.11402145834195475 -0.018481189491864128
0.582748245182807 0.019341531006179295 0.009091120856566156
0.5937028289377975 0.10007397749847038 0.08580281608239486
0.6991447620667198 -0.0013973890627833063 0.12412615851967812
0.7135786530987552 0.11402145834195475 -0.018481189491864128
0.7827482451828071 0.019341531006179295 0.009091120856566156
0.7937028289377975 0.10007397749847038 0.08580281608239486
0.8991447620667197 -0.0013973890627833063 0.12412615851967812
0.9135786530987553 0.11402145834195475 -0.018481189491864128
-0.017251754817193023 0.2193415310061793 0.009091120856566156
-0.006297171062202556 0.3000739774984704 0.08580281608239486
0.09914476206671975 0.1986026109372167 0.12412615851967812
0.11357865309875521 0.3140214583419548 -0.018481189491864128
0.182748245182807 0.2193415310061793 0.009091120856566156
0.19370282893779744 0.3000739774984704 0.08580281608239486
0.29914476206671975 0.1986026109372167 0.12412615851967812
0.3135786530987552 0.3140214583419548 -0.018481189491864128
0.38274824518280703 0.2193415310061793 0.009091120856566156
0.3937028289377975 0.3000739774984704 0.08580281608239486
0.49914476206671976 0.1986026109372167 0.12412615851967812
0.5135786530987553 0.3140214583419548 -0.018481189491864128
0.582748245182807 0.2193415310061793 0.009091120856566156
0.5937028289377975 0.3000739774984704 0.08580281608239486
0.6991447620667198 0.1986026109372167 0.12412615851967812
0.7135786530987552 0.3140214583419548 -0.018481189491864128
0.7827482451828071 0.2193415310061793 0.009091120856566156
0.7937028289377975 0.3000739774984704 0.08580281608239486
0.8991447620667197 0.1986026109372167 0.12412615851967812
0.9135786530987553 0.3140214583419548 -0.018481189491864128
-0.017251754817193023 0.4193415310061793 0.009091120856566156
-0.006297171062202556 0.5000739774984704 0.08580281608239486
0.09914476206671975 0.3986026109372167 0.12412615851967812
0.11357865309875521 0.5140214583419548 -0.018481189491864128
0.182748245182807 0.4193415310061793 0.009091120856566156
0.19370282893779744 0.5000739774984704 0.08580281608239486
0.29914476206671975 0.3986026109372167 0.12412615851967812
0.3135786530987552 0.5140214583419548 -0.018481189491864128
0.38274824518280703 0.4193415310061793 0.009091120856566156
0.3937028289377975 0.5000739774984704 0.08580281608239486
0.49914476206671976 0.3986026109372167 0.12412615851967812
0.5135786530987553 0.5140214583419548 -0.018481189491864128
0.582748245182807 0.4193415310061793 0.009091120856566156
0.5937028289377975 0.5000739774984704 0.08580281608239486
0.6991447620667198 0.3986026109372167 0.12412615851967812
0.7135786530987552 0.5140214583419548 -0.018481189491864128
0.7827482451828071 0.4193415310061793 0.009091120856566156
0.7937028289377975 0.5000739774984704 0.08580281608239486
0.8991447620667197 0.3986026109372167 0.12412615851967812
0.9135786530987553 0.5140214583419548 -0.018481189491864128
-0.017251754817193023 0.6193415310061794 0.009091120856566156
-0.006297171062202556 0.7000739774984703 0.08580281608239486
0.09914476206671975 0.5986026109372168 0.12412615851967812
0.11357865309875521 0.7140214583419549 -0.018481189491864128
0.182748245182807 0.6193415310061794 0.009091120856566156
0.19370282893779744 0.7000739774984703 0.08580281608239486
0.29914476206671975 0.5986026109372168 0.12412615851967812
0.3135786530987552 0.7140214583419549 -0.018481189491864128
0.38274824518280703 0.6193415310061794 0.009091120856566156
0.3937028289377975 0.7000739774984703 0.08580281608239486
0.49914476206671976 0.5986026109372168 0.12412615851967812
0.5135786530987553 0.7140214583419549 -0.018481189491864128
0.582748245182807 0.6193415310061794 0.009091120856566156
0.5937028289377975 0.7000739774984703 0.08580281608239486
0.6991447620667198 0.5986026109372168 0.12412615851967812
0.7135786530987552 0.7140214583419549 -0.018481189491864128
0.7827482451828071 0.6193415310061794 0.009091120856566156
0.7937028289377975 0.7000739774984703 0.08580281608239486
0.8991447620667197 0.5986026109372168 0.12412615851967812
0.9135786530987553 0.7140214583419549 -0.018481189491864128
-0.017251754817193023 0.8193415310061793 0.009091120856566156
-0.006297171062202556 0.9000739774984704 0.08580281608239486
0.09914476206671975 0.7986026109372167 0.12412615851967812
0.11357865309875521 0.9140214583419548 -0.018481189491864128
0.182748245182807 0.8193415310061793 0.009091120856566156
0.19370282893779744 0.9000739774984704 0.08580281608239486
0.29914476206671975 0.7986026109372167 0.12412615851967812
0.3135786530987552 0.9140214583419548 -0.018481189491864128
0.38274824518280703 0.8193415310061793 0.009091120856566156
0.3937028289377975 0.9000739774984704 0.08580281608239486
0.49914476206671976 0.7986026109372167 0.12412615851967812
0.5135786530987553 0.9140214583419548 -0.018481189491864128
0.582748245182807 0.8193415310061793 0.009091120856566156
0.5937028289377975 0.9000739774984704 0.08580281608239486
0.6991447620667198 0.7986026109372167 0.12412615851967812
0.7135786530987552 0.9140214583419548 -0.018481189491864128
0.7827482451828071 0.8193415310061793 0.009091120856566156
0.7937028289377975 0.9000739774984704 0.08580281608239486
0.8991447620667197 0.7986026109372167 0.12412615851967812
0.9135786530987553 0.9140214583419548 -0.018481189491864128
-0.017251754817193023 0.019341531006179295 0.20909112085656614
-0.006297171062202556 0.10007397749847038 0.28580281608239483
0.09914476206671975 -0.0013973890627833063 0.3241261585196782
0.11357865309875521 0.11402145834195475 0.1815188105081359
0.182748245182807 0.019341531006179295 0.20909112085656614
0.19370282893779744 0.10007397749847038 0.28580281608239483
0.29914476206671975 -0.0013973890627833063 0.3241261585196782
0.3135786530987552 0.11402145834195475 0.1815188105081359
0.38274824518280703 0.019341531006179295 0.20909112085656614
0.3937028289377975 0.10007397749847038 0.28580281608239483
0.49914476206671976 -0.0013973890627833063 0.3241261585196782
0.5135786530987553 0.11402145834195475 0.1815188105081359
0.582748245182807 0.019341531006179295 0.20909112085656614
0.5937028289377975 0.10007397749847038 0.28580281608239483
0.6991447620667198 -0.0013973890627833063 0.3241261585196782
0.7135786530987552 0.11402145834195475 0.1815188105081359
0.7827482451828071 0.019341531006179295 0.20909112085656614
0.7937028289377975 0.10007397749847038 0.28580281608239483
0.8991447620667197 -0.0013973890627833063 0.3241261585196782
0.9135786530987553 0.11402145834195475 0.1815188105081359
-0.017251754817193023 0.2193415310061793 0.20909112085656614
-0.006297171062202556 0.3000739774984704 0.28580281608239483
0.09914476206671975 0.1986026109372167 0.3241261585196782
0.11357865309875521 0.3140214583419548 0.1815188105081359
0.182748245182807 0.2193415310061793 0.20909112085656614
0.19370282893779744 0.3000739774984704 0.28580281608239483
0.29914476206671975 0.1986026109372167 0.3241261585196782
0.3135786530987552 0.3140214583419548 0.1815188105081359
0.38274824518280703 0.2193415310061793 0.20909112085656614
0.3937028289377975 0.3000739774984704 0.28580281608239483
0.49914476206671976 0.1986026109372167 0.3241261585196782
0.5135786530987553 0.3140214583419548 0.1815188105081359
0.582748245182807 0.2193415310061793 0.20909112085656614
0.5937028289377975 0.3000739774984704 0.28580281608239483
0.6991447620667198 0.1986026109372167 0.3241261585196782
0.7135786530987552 0.3140214583419548 0.1815188105081359
0.7827482451828071 0.2193415310061793 0.20909112085656614
0.7937028289377975 0.3000739774984704 0.28580281608239483
0.8991447620667197 0.1986026109372167 0.3241261585196782
0.9135786530987553 0.3140214583419548 0.1815188105081359
-0.017251754817193023 0.4193415310061793 0.20909112085656614
-0.006297171062202556 0.5000739774984704 0.28580281608239483
0.09914476206671975 0.3986026109372167 0.3241261585196782
0.11357865309875521 0.5140214583419548 0.1815188105081359
0.182748245182807 0.4193415310061793 0.20909112085656614
0.19370282893779744 0.5000739774984704 0.28580281608239483
0.29914476206671975 0.3986026109372167 0.3241261585196782
0.3135786530987552 0.5140214583419548 0.1815188105081359
0.38274824518280703 0.4193415310061793 0.20909112085656614
0.3937028289377975 0.5000739774984704 0.28580281608239483
0.49914476206671976 0.3986026109372167 0.3241261585196782
0.5135786530987553 0.5140214583419548 0.1815188105081359
0.582748245182807 0.4193415310061793 0.20909112085656614
0.5937028289377975 0.5000739774984704 0.28580281608239483
0.6991447620667198 0.3986026109372167 0.3241261585196782
0.7135786530987552 0.5140214583419548 0.1815188105081359
0.7827482451828071 0.4193415310061793 0.20909112085656614
0.7937028289377975 0.5000739774984704 0.28580281608239483
0.8991447620667197 0.3986026109372167 0.3241261585196782
0.9135786530987553 0.5140214583419548 0.1815188105081359
-0.017251754817193023 0.6193415310061794 0.20909112085656614
-0.006297171062202556 0.7000739774984703 0.28580281608239483
0.09914476206671975 0.5986026109372168 0.3241261585196782
0.11357865309875521 0.7140214583419549 0.1815188105081359
0.182748245182807 0.6193415310061794 0.20909112085656614
0.19370282893779744 0.7000739774984703 0.28580281608239483
0.29914476206671975 0.5986026109372168 0.3241261585196782
0.3135786530987552 0.7140214583419549 0.1815188105081359
0.38274824518280703 0.6193415310061794 0.20909112085656614
0.3937028289377975 0.7000739774984703 0.28580281608239483
0.49914476206671976 0.5986026109372168 0.3241261585196782
0.5135786530987553 0.7140214583419549 0.1815188105081359
0.582748245182807 0.6193415310061794 0.20909112085656614
0.5937028289377975 0.7000739774984703 0.28580281608239483
0.6991447620667198 0.5986026109372168 0.3241261585196782
0.7135786530987552 0.7140214583419549 0.1815188105081359
0.7827482451828071 0.6193415310061794 0.20909112085656614
0.7937028289377975 0.7000739774984703 0.28580281608239483
0.8991447620667197 0.5986026109372168 0.3241261585196782
0.9135786530987553 0.7140214583419549 0.1815188105081359
-0.017251754817193023 0.8193415310061793 0.20909112085656614
-0.006297171062202556 0.9000739774984704 0.28580281608239483
0.09914476206671975 0.7986026109372167 0.3241261585196782
0.11357865309875521 0.9140214583419548 0.1815188105081359
0.182748245182807 0.8193415310061793 0.20909112085656614
0.19370282893779744 0.9000739774984704 0.28580281608239483
0.29914476206671975 0.7986026109372167 0.3241261585196782
0.3135786530987552 0.9140214583419548 0.1815188105081359
0.38274824518280703 0.8193415310061793 0.20909112085656614
0.3937028289377975 0.9000739774984704 0.28580281608239483
0.49914476206671976 0.7986026109372167 0.3241261585196782
0.5135786530987553 0.9140214583419548 0.1815188105081359
0.582748245182807 0.8193415310061793 0.20909112085656614
0.5937028289377975 0.9000739774984704 0.28580281608239483
0.6991447620667198 0.7986026109372167 0.3241261585196782
0.7135786530987552 0.9140214583419548 0.1815188105081359
0.7827482451828071 0.8193415310061793 0.20909112085656614
0.7937028289377975 0.9000739774984704 0.28580281608239483
0.8991447620667197 0.7986026109372167 0.3241261585196782
0.9135786530987553 0.9140214583419548 0.1815188105081359
-0.017251754817193023 0.019341531006179295 0.4090911208565662
-0.006297171062202556 0.10007397749847038 0.4858028160823949
0.09914476206671975 -0.0013973890627833063 0.5241261585196781
0.11357865309875521 0.11402145834195475 0.3815188105081359
0.182748245182807 0.019341531006179295 0.4090911208565662
0.19370282893779744 0.10007397749847038 0.4858028160823949
0.29914476206671975 -0.0013973890627833063 0.5241261585196781
0.3135786530987552 0.11402145834195475 0.3815188105081359
0.38274824518280703 0.019341531006179295 0.4090911208565662
0.3937028289377975 0.10007397749847038 0.4858028160823949
0.49914476206671976 -0.0013973890627833063 0.5241261585196781
0.5135786530987553 0.11402145834195475 0.3815188105081359
0.582748245182807 0.019341531006179295 0.4090911208565662
0.5937028289377975 0.10007397749847038 0.4858028160823949
0.6991447620667198 -0.0013973890627833063 0.5241261585196781
0.7135786530987552 0.11402145834195475 0.3815188105081359
0.7827482451828071 0.019341531006179295 0.4090911208565662
0.7937028289377975 0.10007397749847038 0.4858028160823949
0.8991447620667197 -0.0013973890627833063 0.5241261585196781
0.9135786530987553 0.11402145834195475 0.3815188105081359
-0.017251754817193023 0.2193415310061793 0.4090911208565662
-0.006297171062202556 0.3000739774984704 0.4858028160823949
0.09914476206671975 0.1986026109372167 0.5241261585196781
0.11357865309875521 0.3140214583419548 0.3815188105081359
0.182748245182807 0.2193415310061793 0.4090911208565662
0.19370282893779744 0.3000739774984704 0.4858028160823949
0.29914476206671975 0.1986026109372167 0.5241261585196781
0.3135786530987552 0.3140214583419548 0.3815188105081359
0.38274824518280703 0.2193415310061793 0.4090911208565662
0.3937028289377975 0.3000739774984704 0.4858028160823949
0.49914476206671976 0.1986026109372167 0.5241261585196781
0.5135786530987553 0.3140214583419548 0.3815188105081359
0.582748245182807 0.2193415310061793 0.4090911208565662
0.5937028289377975 0.3000739774984704 0.4858028160823949
0.6991447620667198 0.1986026109372167 0.5241261585196781
0.7135786530987552 0.3140214583419548 0.3815188105081359
0.7827482451828071 0.2193415310061793 0.4090911208565662
0.7937028289377975 0.3000739774984704 0.4858028160823949
0.8991447620667197 0.1986026109372167 0.5241261585196781
0.9135786530987553 0.3140214583419548 0.3815188105081359
-0.017251754817193023 0.4193415310061793 0.4090911208565662
-0.006297171062202556 0.5000739774984704 0.4858028160823949
0.09914476206671975 0.3986026109372167 0.5241261585196781
0.11357865309875521 0.5140214583419548 0.3815188105081359
0.182748245182807 0.4193415310061793 0.4090911208565662
0.19370282893779744 0.5000739774984704 0.4858028160823949
0.29914476206671975 0.3986026109372167 0.5241261585196781
0.3135786530987552 0.5140214583419548 0.3815188105081359
0.38274824518280703 0.4193415310061793 0.4090911208565662
0.3937028289377975 0.5000739774984704 0.4858028160823949
0.49914476206671976 0.3986026109372167 0.5241261585196781
0.5135786530987553 0.5140214583419548 0.3815188105081359
0.582748245182807 0.4193415310061793 0.4090911208565662
0.5937028289377975 0.5000739774984704 0.4858028160823949
0.6991447620667198 0.3986026109372167 0.5241261585196781
0.7135786530987552 0.5140214583419548 0.3815188105081359
0.7827482451828071 0.4193415310061793 0.4090911208565662
0.7937028289377975 0.5000739774984704 0.4858028160823949
0.8991447620667197 0.3986026109372167 0.5241261585196781
0.9135786530987553 0.5140214583419548 0.3815188105081359
-0.017251754817193023 0.6193415310061794 0.4090911208565662
-0.006297171062202556 0.7000739774984703 0.4858028160823949
0.09914476206671975 0.5986026109372168 0.5241261585196781
0.11357865309875521 0.7140214583419549 0.3815188105081359
0.182748245182807 0.6193415310061794 0.4090911208565662
0.19370282893779744 0.7000739774984703 0.4858028160823949
0.29914476206671975 0.5986026109372168 0.5241261585196781
0.3135786530987552 0.7140214583419549 0.3815188105081359
0.38274824518280703 0.6193415310061794 0.4090911208565662
0.3937028289377975 0.7000739774984703 0.4858028160823949
0.49914476206671976 0.5986026109372168 0.5241261585196781
0.5135786530987553 0.7140214583419549 0.3815188105081359
0.582748245182807 0.6193415310061794 0.4090911208565662
0.5937028289377975 0.7000739774984703 0.4858028160823949
0.6991447620667198 0.5986026109372168 0.5241261585196781
0.7135786530987552 0.7140214583419549 0.3815188105081359
0.7827482451828071 0.6193415310061794 0.4090911208565662
0.7937028289377975 0.7000739774984703 0.4858028160823949
0.8991447620667197 0.5986026109372168 0.5241261585196781
0.9135786530987553 0.7140214583419549 0.3815188105081359
-0.017251754817193023 0.8193415310061793 0.4090911208565662
-0.006297171062202556 0.9000739774984704 0.4858028160823949
0.09914476206671975 0.7986026109372167 0.5241261585196781
0.11357865309875521 0.9140214583419548 0.3815188105081359
0.182748245182807 0.8193415310061793 0.4090911208565662
0.19370282893779744 0.9000739774984704 0.4858028160823949
0.29914476206671975 0.7986026109372167 0.5241261585196781
0.3135786530987552 0.9140214583419548 0.3815188105081359
0.38274824518280703 0.8193415310061793 0.4090911208565662
0.3937028289377975 0.9000739774984704 0.4858028160823949
0.49914476206671976 0.7986026109372167 0.5241261585196781
0.5135786530987553 0.9140214583419548 0.3815188105081359
0.582748245182807 0.8193415310061793 0.4090911208565662
0.5937028289377975 0.9000739774984704 0.4858028160823949
0.6991447620667198 0.7986026109372167 0.5241261585196781
0.7135786530987552 0.9140214583419548 0.3815188105081359
0.7827482451828071 0.8193415310061793 0.4090911208565662
0.7937028289377975 0.9000739774984704 0.4858028160823949
0.8991447620667197 0.7986026109372167 0.5241261585196781
0.9135786530987553 0.9140214583419548 0.3815188105081359
-0.017251754817193023 0.019341531006179295 0.6090911208565662
-0.006297171062202556 0.10007397749847038 0.6858028160823949
0.09914476206671975 -0.0013973890627833063 0.7241261585196782
0.11357865309875521 0.11402145834195475 0.5815188105081359
0.182748245182807 0.019341531006179295 0.6090911208565662
0.19370282893779744 0.10007397749847038 0.6858028160823949
0.29914476206671975 -0.0013973890627833063 0.7241261585196782
0.3135786530987552 0.11402145834195475 0.5815188105081359
0.38274824518280703 0.019341531006179295 0.6090911208565662
0.3937028289377975 0.10007397749847038 0.6858028160823949
0.49914476206671976 -0.0013973890627833063 0.7241261585196782
0.5135786530987553 0.11402145834195475 0.5815188105081359
0.582748245182807 0.019341531006179295 0.6090911208565662
0.5937028289377975 0.10007397749847038 0.6858028160823949
0.6991447620667198 -0.0013973890627833063 0.7241261585196782
0.7135786530987552 0.11402145834195475 0.5815188105081359
0.7827482451828071 0.019341531006179295 0.6090911208565662
0.7937028289377975 0.10007397749847038 0.6858028160823949
0.8991447620667197 -0.0013973890627833063 0.7241261585196782
0.9135786530987553 0.11402145834195475 0.5815188105081359
-0.017251754817193023 0.2193415310061793 0.6090911208565662
-0.006297171062202556 0.3000739774984704 0.6858028160823949
0.09914476206671975 0.1986026109372167 0.7241261585196782
0.11357865309875521 0.3140214583419548 0.5815188105081359
0.182748245182807 0.2193415310061793 0.6090911208565662
0.19370282893779744 0.3000739774984704 0.6858028160823949
0.29914476206671975 0.1986026109372167 0.7241261585196782
0.3135786530987552 0.3140214583419548 0.5815188105081359
0.38274824518280703 0.2193415310061793 0.6090911208565662
0.3937028289377975 0.3000739774984704 0.6858028160823949
0.49914476206671976 0.1986026109372167 0.7241261585196782
0.5135786530987553 0.3140214583419548 0.5815188105081359
0.582748245182807 0.2193415310061793 0.6090911208565662
0.5937028289377975 0.3000739774984704 0.6858028160823949
0.6991447620667198 0.1986026109372167 0.7241261585196782
0.7135786530987552 0.3140214583419548 0.5815188105081359
0.7827482451828071 0.2193415310061793 0.6090911208565662
0.7937028289377975 0.3000739774984704 0.6858028160823949
0.8991447620667197 0.1986026109372167 0.7241261585196782
0.9135786530987553 0.3140214583419548 0.5815188105081359
-0.017251754817193023 0.4193415310061793 0.6090911208565662
-0.006297171062202556 0.5000739774984704 0.6858028160823949
0.09914476206671975 0.3986026109372167 0.7241261585196782
0.11357865309875521 0.5140214583419548 0.5815188105081359
0.182748245182807 0.4193415310061793 0.6090911208565662
0.19370282893779744 0.5000739774984704 0.6858028160823949
0.29914476206671975 0.3986026109372167 0.7241261585196782
0.3135786530987552 0.5140214583419548 0.5815188105081359
0.38274824518280703 0.4193415310061793 0.6090911208565662
0.3937028289377975 0.5000739774984704 0.6858028160823949
0.49914476206671976 0.3986026109372167 0.7241261585196782
0.5135786530987553 0.5140214583419548 0.5815188105081359
0.582748245182807 0.4193415310061793 0.6090911208565662
0.5937028289377975 0.5000739774984704 0.6858028160823949
0.6991447620667198 0.3986026109372167 0.7241261585196782
0.7135786530987552 0.5140214583419548 0.5815188105081359
0.7827482451828071 0.4193415310061793 0.6090911208565662
0.7937028289377975 0.5000739774984704 0.6858028160823949
0.8991447620667197 0.3986026109372167 0.7241261585196782
0.9135786530987553 0.5140214583419548 0.5815188105081359
-0.017251754817193023 0.6193415310061794 0.6090911208565662
-0.006297171062202556 0.7000739774984703 0.6858028160823949
0.09914476206671975 0.5986026109372168 0.7241261585196782
0.11357865309875521 0.7140214583419549 0.5815188105081359
0.182748245182807 0.6193415310061794 0.6090911208565662
0.19370282893779744 0.7000739774984703 0.6858028160823949
0.29914476206671975 0.5986026109372168 0.7241261585196782
0.3135786530987552 0.7140214583419549 0.5815188105081359
0.38274824518280703 0.6193415310061794 0.6090911208565662
0.3937028289377975 0.7000739774984703 0.6858028160823949
0.49914476206671976 0.5986026109372168 0.7241261585196782
0.5135786530987553 0.7140214583419549 0.5815188105081359
0.582748245182807 0.6193415310061794 0.6090911208565662
0.5937028289377975 0.7000739774984703 0.6858028160823949
0.6991447620667198 0.5986026109372168 0.7241261585196782
0.7135786530987552 0.7140214583419549 0.5815188105081359
0.7827482451828071 0.6193415310061794 0.6090911208565662
0.7937028289377975 0.7000739774984703 0.6858028160823949
0.8991447620667197 0.5986026109372168 0.7241261585196782
0.9135786530987553 0.7140214583419549 0.5815188105081359
-0.017251754817193023 0.8193415310061793 0.6090911208565662
-0.006297171062202556 0.9000739774984704 0.6858028160823949
0.09914476206671975 0.7986026109372167 0.7241261585196782
0.11357865309875521 0.9140214583419548 0.5815188105081359
0.182748245182807 0.8193415310061793 0.6090911208565662
0.19370282893779744 0.9000739774984704 0.6858028160823949
0.29914476206671975 0.7986026109372167 0.7241261585196782
0.3135786530987552 0.9140214583419548 0.5815188105081359
0.38274824518280703 0.8193415310061793 0.6090911208565662
0.3937028289377975 0.9000739774984704 0.6858028160823949
0.49914476206671976 0.7986026109372167 0.7241261585196782
0.5135786530987553 0.9140214583419548 0.5815188105081359
0.582748245182807 0.8193415310061793 0.6090911208565662
0.5937028289377975 0.9000739774984704 0.6858028160823949
0.6991447620667198 0.7986026109372167 0.7241261585196782
0.7135786530987552 0.9140214583419548 0.5815188105081359
0.7827482451828071 0.8193415310061793 0.6090911208565662
0.7937028289377975 0.9000739774984704 0.6858028160823949
0.8991447620667197 0.7986026109372167 0.7241261585196782
0.9135786530987553 0.9140214583419548 0.5815188105081359
-0.017251754817193023 0.019341531006179295 0.8090911208565661
-0.006297171062202556 0.10007397749847038 0.885802816082395
0.09914476206671975 -0.0013973890627833063 0.9241261585196782
0.11357865309875521 0.11402145834195475 0.7815188105081359
0.182748245182807 0.019341531006179295 0.8090911208565661
0.19370282893779744 0.10007397749847038 0.885802816082395
0.29914476206671975 -0.0013973890627833063 0.9241261585196782
0.3135786530987552 0.11402145834195475 0.7815188105081359
0.38274824518280703 0.019341531006179295 0.8090911208565661
0.3937028289377975 0.10007397749847038 0.885802816082395
0.49914476206671976 -0.0013973890627833063 0.9241261585196782
0.5135786530987553 0.11402145834195475 0.7815188105081359
0.582748245182807 0.019341531006179295 0.8090911208565661
0.5937028289377975 0.10007397749847038 0.885802816082395
0.6991447620667198 -0.0013973890627833063 0.9241261585196782
0.7135786530987552 0.11402145834195475 0.7815188105081359
0.7827482451828071 0.019341531006179295 0.8090911208565661
0.7937028289377975 0.10007397749847038 0.885802816082395
0.8991447620667197 -0.0013973890627833063 0.9241261585196782
0.9135786530987553 0.11402145834195475 0.7815188105081359
-0.017251754817193023 0.2193415310061793 0.8090911208565661
-0.006297171062202556 0.3000739774984704 0.885802816082395
0.09914476206671975 0.1986026109372167 0.9241261585196782
0.11357865309875521 0.3140214583419548 0.7815188105081359
0.182748245182807 0.2193415310061793 0.8090911208565661
0.19370282893779744 0.3000739774984704 0.885802816082395
0.29914476206671975 0.1986026109372167 0.9241261585196782
0.3135786530987552 0.3140214583419548 0.7815188105081359
0.38274824518280703 0.2193415310061793 0.8090911208565661
0.3937028289377975 0.3000739774984704 0.885802816082395
0.49914476206671976 0.1986026109372167 0.9241261585196782
0.5135786530987553 0.3140214583419548 0.7815188105081359
0.582748245182807 0.2193415310061793 0.8090911208565661
0.5937028289377975 0.3000739774984704 0.885802816082395
0.6991447620667198 0.1986026109372167 0.9241261585196782
0.7135786530987552 0.3140214583419548 0.7815188105081359
0.7827482451828071 0.2193415310061793 0.8090911208565661
0.7937028289377975 0.3000739774984704 0.885802816082395
0.8991447620667197 0.1986026109372167 0.9241261585196782
0.9135786530987553 0.3140214583419548 0.7815188105081359
-0.017251754817193023 0.4193415310061793 0.8090911208565661
-0.006297171062202556 0.5000739774984704 0.885802816082395
0.09914476206671975 0.3986026109372167 0.9241261585196782
0.11357865309875521 0.5140214583419548 0.7815188105081359
0.182748245182807 0.4193415310061793 0.8090911208565661
0.19370282893779744 0.5000739774984704 0.885802816082395
0.29914476206671975 0.3986026109372167 0.9241261585196782
0.3135786530987552 0.5140214583419548 0.7815188105081359
0.38274824518280703 0.4193415310061793 0.8090911208565661
0.3937028289377975 0.5000739774984704 0.885802816082395
0.49914476206671976 0.3986026109372167 0.9241261585196782
0.5135786530987553 0.5140214583419548 0.7815188105081359
0.582748245182807 0.4193415310061793 0.8090911208565661
0.5937028289377975 0.5000739774984704 0.885802816082395
0.6991447620667198 0.3986026109372167 0.9241261585196782
0.7135786530987552 0.5140214583419548 0.7815188105081359
0.7827482451828071 0.4193415310061793 0.8090911208565661
0.7937028289377975 0.5000739774984704 0.885802816082395
0.8991447620667197 0.3986026109372167 0.9241261585196782
0.9135786530987553 0.5140214583419548 0.7815188105081359
-0.017251754817193023 0.6193415310061794 0.8090911208565661
-0.006297171062202556 0.7000739774984703 0.885802816082395
0.09914476206671975 0.5986026109372168 0.9241261585196782
0.11357865309875521 0.7140214583419549 0.7815188105081359
0.182748245182807 0.6193415310061794 0.8090911208565661
0.19370282893779744 0.7000739774984703 0.885802816082395
0.29914476206671975 0.5986026109372168 0.9241261585196782
0.3135786530987552 0.7140214583419549 0.7815188105081359
0.38274824518280703 0.6193415310061794 0.8090911208565661
0.3937028289377975 0.7000739774984703 0.885802816082395
0.49914476206671976 0.5986026109372168 0.9241261585196782
0.5135786530987553 0.7140214583419549 0.7815188105081359
0.582748245182807 0.6193415310061794 0.8090911208565661
0.5937028289377975 0.7000739774984703 0.885802816082395
0.6991447620667198 0.5986026109372168 0.9241261585196782
0.7135786530987552 0.7140214583419549 0.7815188105081359
0.7827482451828071 0.6193415310061794 0.8090911208565661
0.7937028289377975 0.7000739774984703 0.885802816082395
0.8991447620667197 0.5986026109372168 0.9241261585196782
0.9135786530987553 0.7140214583419549 0.7815188105081359
-0.017251754817193023 0.8193415310061793 0.8090911208565661
-0.006297171062202556 0.9000739774984704 0.885802816082395
0.09914476206671975 0.7986026109372167 0.9241261585196782
0.11357865309875521 0.9140214583419548 0.7815188105081359
0.182748245182807 0.8193415310061793 0.8090911208565661
0.19370282893779744 0.9000739774984704 0.885802816082395
0.29914476206671975 0.7986026109372167 0.9241261585196782
0.3135786530987552 0.9140214583419548 0.7815188105081359
0.38274824518280703 0.8193415310061793 0.8090911208565661
0.3937028289377975 0.9000739774984704 0.885802816082395
0.49914476206671976 0.7986026109372167 0.9241261585196782
0.5135786530987553 0.9140214583419548 0.7815188105081359
0.582748245182807 0.8193415310061793 0.8090911208565661
0.5937028289377975 0.9000739774984704 0.885802816082395
0.6991447620667198 0.7986026109372167 0.9241261585196782
0.7135786530987552 0.9140214583419548 0.7815188105081359
0.7827482451828071 0.8193415310061793 0.8090911208565661
0.7937028289377975 0.9000739774984704 0.885802816082395
0.8991447620667197 0.7986026109372167 0.9241261585196782
0.9135786530987553 0.9140214583419548 0.7815188105081359
0.12473804834031316 0.016302871629296577 -0.014333482169586471
0.02950940064510752 0.07923566404031311 -0.02622541180338575
-0.019588174405571868 0.0012366076353313815 0.11427049673783825
0.08901066125119321 0.08281718975014468 0.08541233803532006
0.32473804834031317 0.016302871629296577 -0.014333482169586471
0.2295094006451075 0.07923566404031311 -0.02622541180338575
0.18041182559442814 0.0012366076353313815 0.11427049673783825
0.28901066125119323 0.08281718975014468 0.08541233803532006
0.5247380483403131 0.016302871629296577 -0.014333482169586471
0.4295094006451075 0.07923566404031311 -0.02622541180338575
0.38041182559442815 0.0012366076353313815 0.11427049673783825
0.48901066125119325 0.08281718975014468 0.08541233803532006
0.7247380483403132 0.016302871629296577 -0.014333482169586471
0.6295094006451075 0.07923566404031311 -0.02622541180338575
0.5804118255944282 0.0012366076353313815 0.11427049673783825
0.6890106612511933 0.08281718975014468 0.08541233803532006
0.9247380483403131 0.016302871629296577 -0.014333482169586471
0.8295094006451076 0.07923566404031311 -0.02622541180338575
0.7804118255944282 0.0012366076353313815 0.11427049673783825
0.8890106612511932 0.08281718975014468 0.08541233803532006
0.12473804834031316 0.21630287162929657 -0.014333482169586471
0.02950940064510752 0.27923566404031314 -0.02622541180338575
-0.019588174405571868 0.2012366076353314 0.11427049673783825
0.08901066125119321 0.2828171897501447 0.08541233803532006
0.32473804834031317 0.21630287162929657 -0.014333482169586471
0.2295094006451075 0.27923566404031314 -0.02622541180338575
0.18041182559442814 0.2012366076353314 0.11427049673783825
0.28901066125119323 0.2828171897501447 0.08541233803532006
0.5247380483403131 0.21630287162929657 -0.014333482169586471
0.4295094006451075 0.27923566404031314 -0.02622541180338575
0.38041182559442815 0.2012366076353314 0.11427049673783825
0.48901066125119325 0.2828171897501447 0.08541233803532006
0.7247380483403132 0.21630287162929657 -0.014333482169586471
0.6295094006451075 0.27923566404031314 -0.02622541180338575
0.5804118255944282 0.2012366076353314 0.11427049673783825
0.6890106612511933 0.2828171897501447 0.08541233803532006
0.9247380483403131 0.21630287162929657 -0.014333482169586471
0.8295094006451076 0.27923566404031314 -0.02622541180338575
0.7804118255944282 0.2012366076353314 0.11427049673783825
0.8890106612511932 0.2828171897501447 0.08541233803532006
0.12473804834031316 0.41630287162929663 -0.014333482169586471
0.02950940064510752 0.47923566404031315 -0.02622541180338575
-0.019588174405571868 0.4012366076353314 0.11427049673783825
0.08901066125119321 0.4828171897501447 0.08541233803532006
0.32473804834031317 0.41630287162929663 -0.014333482169586471
0.2295094006451075 0.47923566404031315 -0.02622541180338575
0.18041182559442814 0.4012366076353314 0.11427049673783825
0.28901066125119323 0.4828171897501447 0.08541233803532006
0.5247380483403131 0.41630287162929663 -0.014333482169586471
0.4295094006451075 0.47923566404031315 -0.02622541180338575
0.38041182559442815 0.4012366076353314 0.11427049673783825
0.48901066125119325 0.4828171897501447 0.08541233803532006
0.7247380483403132 0.41630287162929663 -0.014333482169586471
0.6295094006451075 0.47923566404031315 -0.02622541180338575
0.5804118255944282 0.4012366076353314 0.11427049673783825
0.6890106612511933 0.4828171897501447 0.08541233803532006
0.9247380483403131 0.41630287162929663 -0.014333482169586471
0.8295094006451076 0.47923566404031315 -0.02622541180338575
0.7804118255944282 0.4012366076353314 0.11427049673783825
0.8890106612511932 0.4828171897501447 0.08541233803532006
0.12473804834031316 0.6163028716292966 -0.014333482169586471
0.02950940064510752 0.6792356640403132 -0.02622541180338575
-0.019588174405571868 0.6012366076353315 0.11427049673783825
0.08901066125119321 0.6828171897501447 0.08541233803532006
0.32473804834031317 0.6163028716292966 -0.014333482169586471
0.2295094006451075 0.6792356640403132 -0.02622541180338575
0.18041182559442814 0.6012366076353315 0.11427049673783825
0.28901066125119323 0.6828171897501447 0.08541233803532006
0.5247380483403131 0.6163028716292966 -0.014333482169586471
0.4295094006451075 0.6792356640403132 -0.02622541180338575
0.38041182559442815 0.6012366076353315 0.11427049673783825
0.48901066125119325 0.6828171897501447 0.08541233803532006
0.7247380483403132 0.6163028716292966 -0.014333482169586471
0.6295094006451075 0.6792356640403132 -0.02622541180338575
0.5804118255944282 0.6012366076353315 0.11427049673783825
0.6890106612511933 0.6828171897501447 0.08541233803532006
0.9247380483403131 0.6163028716292966 -0.014333482169586471
0.8295094006451076 0.6792356640403132 -0.02622541180338575
0.7804118255944282 0.6012366076353315 0.11427049673783825
0.8890106612511932 0.6828171897501447 0.08541233803532006
0.12473804834031316 0.8163028716292966 -0.014333482169586471
0.02950940064510752 0.8792356640403132 -0.02622541180338575
-0.019588174405571868 0.8012366076353313 0.11427049673783825
0.08901066125119321 0.8828171897501447 0.08541233803532006
0.32473804834031317 0.8163028716292966 -0.014333482169586471
0.2295094006451075 0.8792356640403132 -0.02622541180338575
0.18041182559442814 0.8012366076353313 0.11427049673783825
0.28901066125119323 0.8828171897501447 0.08541233803532006
0.5247380483403131 0.8163028716292966 -0.014333482169586471
0.4295094006451075 0.8792356640403132 -0.02622541180338575
0.38041182559442815 0.8012366076353313 0.11427049673783825
0.48901066125119325 0.8828171897501447 0.08541233803532006
0.7247380483403132 0.8163028716292966 -0.014333482169586471
0.6295094006451075 0.8792356640403132 -0.02622541180338575
0.5804118255944282 0.8012366076353313 0.11427049673783825
0.6890106612511933 0.8828171897501447 0.08541233803532006
0.9247380483403131 0.8163028716292966 -0.014333482169586471
0.8295094006451076 0.8792356640403132 -0.02622541180338575
0.7804118255944282 0.8012366076353313 0.11427049673783825
0.8890106612511932 0.8828171897501447 0.08541233803532006
0.12473804834031316 0.016302871629296577 0.18566651783041355
0.02950940064510752 0.07923566404031311 0.17377458819661426
-0.019588174405571868 0.0012366076353313815 0.31427049673783825
0.08901066125119321 0.08281718975014468 0.28541233803532007
0.32473804834031317 0.016302871629296577 0.18566651783041355
0.2295094006451075 0.07923566404031311 0.17377458819661426
0.18041182559442814 0.0012366076353313815 0.31427049673783825
0.28901066125119323 0.08281718975014468 0.28541233803532007
0.5247380483403131 0.016302871629296577 0.18566651783041355
0.4295094006451075 0.07923566404031311 0.17377458819661426
0.38041182559442815 0.0012366076353313815 0.31427049673783825
0.48901066125119325 0.08281718975014468 0.28541233803532007
0.7247380483403132 0.016302871629296577 0.18566651783041355
0.6295094006451075 0.07923566404031311 0.17377458819661426
0.5804118255944282 0.0012366076353313815 0.31427049673783825
0.6890106612511933 0.08281718975014468 0.28541233803532007
0.9247380483403131 0.016302871629296577 0.18566651783041355
0.8295094006451076 0.07923566404031311 0.17377458819661426
0.7804118255944282 0.0012366076353313815 0.31427049673783825
0.8890106612511932 0.08281718975014468 0.28541233803532007
0.12473804834031316 0.21630287162929657 0.18566651783041355
0.02950940064510752 0.27923566404031314 0.17377458819661426
-0.019588174405571868 0.2012366076353314 0.31427049673783825
0.08901066125119321 0.2828171897501447 0.28541233803532007
0.32473804834031317 0.21630287162929657 0.18566651783041355
0.2295094006451075 0.27923566404031314 0.17377458819661426
0.18041182559442814 0.2012366076353314 0.31427049673783825
0.28901066125119323 0.2828171897501447 0.28541233803532007
0.5247380483403131 0.21630287162929657 0.18566651783041355
0.4295094006451075 0.27923566404031314 0.17377458819661426
0.38041182559442815 0.2012366076353314 0.31427049673783825
0.48901066125119325 0.2828171897501447 0.28541233803532007
0.7247380483403132 0.21630287162929657 0.18566651783041355
0.6295094006451075 0.27923566404031314 0.17377458819661426
0.5804118255944282 0.2012366076353314 0.31427049673783825
0.6890106612511933 0.2828171897501447 0.28541233803532007
0.9247380483403131 0.21630287162929657 0.18566651783041355
0.8295094006451076 0.27923566404031314 0.17377458819661426
0.7804118255944282 0.2012366076353314 0.31427049673783825
0.8890106612511932 0.2828171897501447 0.28541233803532007
0.12473804834031316 0.41630287162929663 0.18566651783041355
0.02950940064510752 0.47923566404031315 0.17377458819661426
-0.019588174405571868 0.4012366076353314 0.31427049673783825
0.08901066125119321 0.4828171897501447 0.28541233803532007
0.32473804834031317 0.41630287162929663 0.18566651783041355
0.2295094006451075 0.47923566404031315 0.17377458819661426
0.18041182559442814 0.4012366076353314 0.31427049673783825
0.28901066125119323 0.4828171897501447 0.28541233803532007
0.5247380483403131 0.41630287162929663 0.18566651783041355
0.4295094006451075 0.47923566404031315 0.17377458819661426
0.38041182559442815 0.4012366076353314 0.31427049673783825
0.48901066125119325 0.4828171897501447 0.28541233803532007
0.7247380483403132 0.41630287162929663 0.18566651783041355
0.6295094006451075 0.47923566404031315 0.17377458819661426
0.5804118255944282 0.4012366076353314 0.31427049673783825
0.6890106612511933 0.4828171897501447 0.28541233803532007
0.9247380483403131 0.41630287162929663 0.18566651783041355
0.8295094006451076 0.47923566404031315 0.17377458819661426
0.7804118255944282 0.4012366076353314 0.31427049673783825
0.8890106612511932 0.4828171897501447 0.28541233803532007
0.12473804834031316 0.6163028716292966 0.18566651783041355
0.02950940064510752 0.6792356640403132 0.17377458819661426
-0.019588174405571868 0.6012366076353315 0.31427049673783825
0.08901066125119321 0.6828171897501447 0.28541233803532007
0.32473804834031317 0.6163028716292966 0.18566651783041355
0.2295094006451075 0.6792356640403132 0.17377458819661426
0.18041182559442814 0.6012366076353315 0.31427049673783825
0.28901066125119323 0.6828171897501447 0.28541233803532007
0.5247380483403131 0.6163028716292966 0.18566651783041355
0.4295094006451075 0.6792356640403132 0.17377458819661426
0.38041182559442815 0.6012366076353315 0.31427049673783825
0.48901066125119325 0.6828171897501447 0.28541233803532007
0.7247380483403132 0.6163028716292966 0.18566651783041355
0.6295094006451075 0.6792356640403132 0.17377458819661426
0.5804118255944282 0.6012366076353315 0.31427049673783825
0.6890106612511933 0.6828171897501447 0.28541233803532007
0.9247380483403131 0.6163028716292966 0.18566651783041355
0.8295094006451076 0.6792356640403132 0.17377458819661426
0.7804118255944282 0.6012366076353315 0.31427049673783825
0.8890106612511932 0.6828171897501447 0.28541233803532007
0.12473804834031316 0.8163028716292966 0.18566651783041355
0.02950940064510752 0.8792356640403132 0.17377458819661426
-0.019588174405571868 0.8012366076353313 0.31427049673783825
0.08901066125119321 0.8828171897501447 0.28541233803532007
0.32473804834031317 0.8163028716292966 0.18566651783041355
0.2295094006451075 0.8792356640403132 0.17377458819661426
0.18041182559442814 0.8012366076353313 0.31427049673783825
0.28901066125119323 0.8828171897501447 0.28541233803532007
0.5247380483403131 0.8163028716292966 0.18566651783041355
0.4295094006451075 0.8792356640403132 0.17377458819661426
0.38041182559442815 0.8012366076353313 0.31427049673783825
0.48901066125119325 0.8828171897501447 0.28541233803532007
0.7247380483403132 0.8163028716292966 0.18566651783041355
0.6295094006451075 0.8792356640403132 0.17377458819661426
0.5804118255944282 0.8012366076353313 0.31427049673783825
0.6890106612511933 0.8828171897501447 0.28541233803532007
0.9247380483403131 0.8163028716292966 0.18566651783041355
0.8295094006451076 0.8792356640403132 0.17377458819661426
0.7804118255944282 0.8012366076353313 0.31427049673783825
0.8890106612511932 0.8828171897501447 0.28541233803532007
0.12473804834031316 0.016302871629296577 0.38566651783041356
0.02950940064510752 0.07923566404031311 0.3737745881966143
-0.019588174405571868 0.0012366076353313815 0.5142704967378382
0.08901066125119321 0.08281718975014468 0.48541233803532013
0.32473804834031317 0.016302871629296577 0.38566651783041356
0.2295094006451075 0.07923566404031311 0.3737745881966143
0.18041182559442814 0.0012366076353313815 0.5142704967378382
0.28901066125119323 0.08281718975014468 0.48541233803532013
0.5247380483403131 0.016302871629296577 0.38566651783041356
0.4295094006451075 0.07923566404031311 0.3737745881966143
0.38041182559442815 0.0012366076353313815 0.5142704967378382
0.48901066125119325 0.08281718975014468 0.48541233803532013
0.7247380483403132 0.016302871629296577 0.38566651783041356
0.6295094006451075 0.07923566404031311 0.3737745881966143
0.5804118255944282 0.0012366076353313815 0.5142704967378382
0.6890106612511933 0.08281718975014468 0.48541233803532013
0.9247380483403131 0.016302871629296577 0.38566651783041356
0.8295094006451076 0.07923566404031311 0.3737745881966143
0.7804118255944282 0.0012366076353313815 0.5142704967378382
0.8890106612511932 0.08281718975014468 0.48541233803532013
0.12473804834031316 0.21630287162929657 0.38566651783041356
0.02950940064510752 0.27923566404031314 0.3737745881966143
-0.019588174405571868 0.2012366076353314 0.5142704967378382
0.08901066125119321 0.2828171897501447 0.48541233803532013
0.32473804834031317 0.21630287162929657 0.38566651783041356
0.2295094006451075 0.27923566404031314 0.3737745881966143
0.18041182559442814 0.2012366076353314 0.5142704967378382
0.28901066125119323 0.2828171897501447 0.48541233803532013
0.5247380483403131 0.21630287162929657 0.38566651783041356
0.4295094006451075 0.27923566404031314 0.3737745881966143
0.38041182559442815 0.2012366076353314 0.5142704967378382
0.48901066125119325 0.2828171897501447 0.48541233803532013
0.7247380483403132 0.21630287162929657 0.38566651783041356
0.6295094006451075 0.27923566404031314 0.3737745881966143
0.5804118255944282 0.2012366076353314 0.5142704967378382
0.6890106612511933 0.2828171897501447 0.48541233803532013
0.9247380483403131 0.21630287162929657 0.38566651783041356
0.8295094006451076 0.27923566404031314 0.3737745881966143
0.7804118255944282 0.2012366076353314 0.5142704967378382
0.8890106612511932 0.2828171897501447 0.48541233803532013
0.12473804834031316 0.41630287162929663 0.38566651783041356
0.02950940064510752 0.47923566404031315 0.3737745881966143
-0.019588174405571868 0.4012366076353314 0.5142704967378382
0.08901066125119321 0.4828171897501447 0.48541233803532013
0.32473804834031317 0.41630287162929663 0.38566651783041356
0.2295094006451075 0.47923566404031315 0.3737745881966143
0.18041182559442814 0.4012366076353314 0.5142704967378382
0.28901066125119323 0.4828171897501447 0.48541233803532013
0.5247380483403131 0.41630287162929663 0.38566651783041356
0.4295094006451075 0.47923566404031315 0.3737745881966143
0.38041182559442815 0.4012366076353314 0.5142704967378382
0.48901066125119325 0.4828171897501447 0.48541233803532013
0.7247380483403132 0.41630287162929663 0.38566651783041356
0.6295094006451075 0.47923566404031315 0.3737745881966143
0.5804118255944282 0.4012366076353314 0.5142704967378382
0.6890106612511933 0.4828171897501447 0.48541233803532013
0.9247380483403131 0.41630287162929663 0.38566651783041356
0.8295094006451076 0.47923566404031315 0.3737745881966143
0.7804118255944282 0.4012366076353314 0.5142704967378382
0.8890106612511932 0.4828171897501447 0.48541233803532013
0.12473804834031316 0.6163028716292966 0.38566651783041356
0.02950940064510752 0.6792356640403132 0.3737745881966143
-0.019588174405571868 0.6012366076353315 0.5142704967378382
0.08901066125119321 0.6828171897501447 0.48541233803532013
0.32473804834031317 0.6163028716292966 0.38566651783041356
0.2295094006451075 0.6792356640403132 0.3737745881966143
0.18041182559442814 0.6012366076353315 0.5142704967378382
0.28901066125119323 0.6828171897501447 0.48541233803532013
0.5247380483403131 0.6163028716292966 0.38566651783041356
0.4295094006451075 0.6792356640403132 0.3737745881966143
0.38041182559442815 0.6012366076353315 0.5142704967378382
0.48901066125119325 0.6828171897501447 0.48541233803532013
0.7247380483403132 0.6163028716292966 0.38566651783041356
0.6295094006451075 0.6792356640403132 0.3737745881966143
0.5804118255944282 0.6012366076353315 0.5142704967378382
0.6890106612511933 0.6828171897501447 0.48541233803532013
0.9247380483403131 0.6163028716292966 0.38566651783041356
0.8295094006451076 0.6792356640403132 0.3737745881966143
0.7804118255944282 0.6012366076353315 0.5142704967378382
0.8890106612511932 0.6828171897501447 0.48541233803532013
0.12473804834031316 0.8163028716292966 0.38566651783041356
0.02950940064510752 0.8792356640403132 0.3737745881966143
-0.019588174405571868 0.8012366076353313 0.5142704967378382
0.08901066125119321 0.8828171897501447 0.48541233803532013
0.32473804834031317 0.8163028716292966 0.38566651783041356
0.2295094006451075 0.8792356640403132 0.3737745881966143
0.18041182559442814 0.8012366076353313 0.5142704967378382
0.28901066125119323 0.8828171897501447 0.48541233803532013
0.5247380483403131 0.8163028716292966 0.38566651783041356
0.4295094006451075 0.8792356640403132 0.3737745881966143
0.38041182559442815 0.8012366076353313 0.5142704967378382
0.48901066125119325 0.8828171897501447 0.48541233803532013
0.7247380483403132 0.8163028716292966 0.38566651783041356
0.6295094006451075 0.8792356640403132 0.3737745881966143
0.5804118255944282 0.8012366076353313 0.5142704967378382
0.6890106612511933 0.8828171897501447 0.48541233803532013
0.9247380483403131 0.8163028716292966 0.38566651783041356
0.8295094006451076 0.8792356640403132 0.3737745881966143
0.7804118255944282 0.8012366076353313 0.5142704967378382
0.8890106612511932 0.8828171897501447 0.48541233803532013
0.12473804834031316 0.016302871629296577 0.5856665178304136
0.02950940064510752 0.07923566404031311 0.5737745881966142
-0.019588174405571868 0.0012366076353313815 0.7142704967378383
0.08901066125119321 0.08281718975014468 0.6854123380353201
0.32473804834031317 0.016302871629296577 0.5856665178304136
0.2295094006451075 0.07923566404031311 0.5737745881966142
0.18041182559442814 0.0012366076353313815 0.7142704967378383
0.28901066125119323 0.08281718975014468 0.6854123380353201
0.5247380483403131 0.016302871629296577 0.5856665178304136
0.4295094006451075 0.07923566404031311 0.5737745881966142
0.38041182559442815 0.0012366076353313815 0.7142704967378383
0.48901066125119325 0.08281718975014468 0.6854123380353201
0.7247380483403132 0.016302871629296577 0.5856665178304136
0.6295094006451075 0.07923566404031311 0.5737745881966142
0.5804118255944282 0.0012366076353313815 0.7142704967378383
0.6890106612511933 0.08281718975014468 0.6854123380353201
0.9247380483403131 0.016302871629296577 0.5856665178304136
0.8295094006451076 0.07923566404031311 0.5737745881966142
0.7804118255944282 0.0012366076353313815 0.7142704967378383
0.8890106612511932 0.08281718975014468 0.6854123380353201
0.12473804834031316 0.21630287162929657 0.5856665178304136
0.02950940064510752 0.27923566404031314 0.5737745881966142
-0.019588174405571868 0.2012366076353314 0.7142704967378383
0.08901066125119321 0.2828171897501447 0.6854123380353201
0.32473804834031317 0.21630287162929657 0.5856665178304136
0.2295094006451075 0.27923566404031314 0.5737745881966142
0.18041182559442814 0.2012366076353314 0.7142704967378383
0.28901066125119323 0.2828171897501447 0.6854123380353201
0.5247380483403131 0.21630287162929657 0.5856665178304136
0.4295094006451075 0.27923566404031314 0.5737745881966142
0.38041182559442815 0.2012366076353314 0.7142704967378383
0.48901066125119325 0.2828171897501447 0.6854123380353201
0.7247380483403132 0.21630287162929657 0.5856665178304136
0.6295094006451075 0.27923566404031314 0.5737745881966142
0.5804118255944282 0.2012366076353314 0.7142704967378383
0.6890106612511933 0.2828171897501447 0.6854123380353201
0.9247380483403131 0.21630287162929657 0.5856665178304136
0.8295094006451076 0.27923566404031314 0.5737745881966142
0.7804118255944282 0.2012366076353314 0.7142704967378383
0.8890106612511932 0.2828171897501447 0.6854123380353201
0.12473804834031316 0.41630287162929663 0.5856665178304136
0.02950940064510752 0.47923566404031315 0.5737745881966142
-0.019588174405571868 0.4012366076353314 0.7142704967378383
0.08901066125119321 0.4828171897501447 0.6854123380353201
0.32473804834031317 0.41630287162929663 0.5856665178304136
0.2295094006451075 0.47923566404031315 0.5737745881966142
0.18041182559442814 0.4012366076353314 0.7142704967378383
0.28901066125119323 0.4828171897501447 0.6854123380353201
0.5247380483403131 0.41630287162929663 0.5856665178304136
0.4295094006451075 0.47923566404031315 0.5737745881966142
0.38041182559442815 0.4012366076353314 0.7142704967378383
0.48901066125119325 0.4828171897501447 0.6854123380353201
0.7247380483403132 0.41630287162929663 0.5856665178304136
0.6295094006451075 0.47923566404031315 0.5737745881966142
0.5804118255944282 0.4012366076353314 0.7142704967378383
0.6890106612511933 0.4828171897501447 0.6854123380353201
0.9247380483403131 0.41630287162929663 0.5856665178304136
0.8295094006451076 0.47923566404031315 0.5737745881966142
0.7804118255944282 0.4012366076353314 0.7142704967378383
0.8890106612511932 0.4828171897501447 0.6854123380353201
0.12473804834031316 0.6163028716292966 0.5856665178304136
0.02950940064510752 0.6792356640403132 0.5737745881966142
-0.019588174405571868 0.6012366076353315 0.7142704967378383
0.08901066125119321 0.6828171897501447 0.6854123380353201
0.32473804834031317 0.6163028716292966 0.5856665178304136
0.2295094006451075 0.6792356640403132 0.5737745881966142
0.18041182559442814 0.6012366076353315 0.7142704967378383
0.28901066125119323 0.6828171897501447 0.6854123380353201
0.5247380483403131 0.6163028716292966 0.5856665178304136
0.4295094006451075 0.6792356640403132 0.5737745881966142
0.38041182559442815 0.6012366076353315 0.7142704967378383
0.48901066125119325 0.6828171897501447 0.6854123380353201
0.7247380483403132 0.6163028716292966 0.5856665178304136
0.6295094006451075 0.6792356640403132 0.5737745881966142
0.5804118255944282 0.6012366076353315 0.7142704967378383
0.6890106612511933 0.6828171897501447 0.6854123380353201
0.9247380483403131 0.6163028716292966 0.5856665178304136
0.8295094006451076 0.6792356640403132 0.5737745881966142
0.7804118255944282 0.6012366076353315 0.7142704967378383
0.8890106612511932 0.6828171897501447 0.6854123380353201
0.12473804834031316 0.8163028716292966 0.5856665178304136
0.02950940064510752 0.8792356640403132 0.5737745881966142
-0.019588174405571868 0.8012366076353313 0.7142704967378383
0.08901066125119321 0.8828171897501447 0.6854123380353201
0.32473804834031317 0.8163028716292966 0.5856665178304136
0.2295094006451075 0.8792356640403132 0.5737745881966142
0.18041182559442814 0.8012366076353313 0.7142704967378383
0.28901066125119323 0.8828171897501447 0.6854123380353201
0.5247380483403131 0.8163028716292966 0.5856665178304136
0.4295094006451075 0.8792356640403132 0.5737745881966142
0.38041182559442815 0.8012366076353313 0.7142704967378383
0.48901066125119325 0.8828171897501447 0.6854123380353201
0.7247380483403132 0.8163028716292966 0.5856665178304136
0.6295094006451075 0.8792356640403132 0.5737745881966142
0.5804118255944282 0.8012366076353313 0.7142704967378383
0.6890106612511933 0.8828171897501447 0.6854123380353201
0.9247380483403131 0.8163028716292966 0.5856665178304136
0.8295094006451076 0.8792356640403132 0.5737745881966142
0.7804118255944282 0.8012366076353313 0.7142704967378383
0.8890106612511932 0.8828171897501447 0.6854123380353201
0.12473804834031316 0.016302871629296577 0.7856665178304136
0.02950940064510752 0.07923566404031311 0.7737745881966143
-0.019588174405571868 0.0012366076353313815 0.9142704967378382
0.08901066125119321 0.08281718975014468 0.8854123380353202
0.32473804834031317 0.016302871629296577 0.7856665178304136
0.2295094006451075 0.07923566404031311 0.7737745881966143
0.18041182559442814 0.0012366076353313815 0.9142704967378382
0.28901066125119323 0.08281718975014468 0.8854123380353202
0.5247380483403131 0.016302871629296577 0.7856665178304136
0.4295094006451075 0.07923566404031311 0.7737745881966143
0.38041182559442815 0.0012366076353313815 0.9142704967378382
0.48901066125119325 0.08281718975014468 0.8854123380353202
0.7247380483403132 0.016302871629296577 0.7856665178304136
0.6295094006451075 0.07923566404031311 0.7737745881966143
0.5804118255944282 0.0012366076353313815 0.9142704967378382
0.6890106612511933 0.08281718975014468 0.8854123380353202
0.9247380483403131 0.016302871629296577 0.7856665178304136
0.8295094006451076 0.07923566404031311 0.7737745881966143
0.7804118255944282 0.0012366076353313815 0.9142704967378382
0.8890106612511932 0.08281718975014468 0.8854123380353202
0.12473804834031316 0.21630287162929657 0.7856665178304136
0.02950940064510752 0.27923566404031314 0.7737745881966143
-0.019588174405571868 0.2012366076353314 0.9142704967378382
0.08901066125119321 0.2828171897501447 0.8854123380353202
0.32473804834031317 0.21630287162929657 0.7856665178304136
0.2295094006451075 0.27923566404031314 0.7737745881966143
0.18041182559442814 0.2012366076353314 0.9142704967378382
0.28901066125119323 0.2828171897501447 0.8854123380353202
0.5247380483403131 0.21630287162929657 0.7856665178304136
0.4295094006451075 0.27923566404031314 0.7737745881966143
0.38041182559442815 0.2012366076353314 0.9142704967378382
0.48901066125119325 0.2828171897501447 0.8854123380353202
0.7247380483403132 0.21630287162929657 0.7856665178304136
0.6295094006451075 0.27923566404031314 0.7737745881966143
0.5804118255944282 0.2012366076353314 0.9142704967378382
0.6890106612511933 0.2828171897501447 0.8854123380353202
0.9247380483403131 0.21630287162929657 0.7856665178304136
0.8295094006451076 0.27923566404031314 0.7737745881966143
0.7804118255944282 0.2012366076353314 0.9142704967378382
0.8890106612511932 0.2828171897501447 0.8854123380353202
0.12473804834031316 0.41630287162929663 0.7856665178304136
0.02950940064510752 0.47923566404031315 0.7737745881966143
-0.019588174405571868 0.4012366076353314 0.9142704967378382
0.08901066125119321 0.4828171897501447 0.8854123380353202
0.32473804834031317 0.41630287162929663 0.7856665178304136
0.2295094006451075 0.47923566404031315 0.7737745881966143
0.18041182559442814 0.4012366076353314 0.9142704967378382
0.28901066125119323 0.4828171897501447 0.8854123380353202
0.5247380483403131 0.41630287162929663 0.7856665178304136
0.4295094006451075 0.47923566404031315 0.7737745881966143
0.38041182559442815 0.4012366076353314 0.9142704967378382
0.48901066125119325 0.4828171897501447 0.8854123380353202
0.7247380483403132 0.41630287162929663 0.7856665178304136
0.6295094006451075 0.47923566404031315 0.7737745881966143
0.5804118255944282 0.4012366076353314 0.9142704967378382
0.6890106612511933 0.4828171897501447 0.8854123380353202
0.9247380483403131 0.41630287162929663 0.7856665178304136
0.8295094006451076 0.47923566404031315 0.7737745881966143
0.7804118255944282 0.4012366076353314 0.9142704967378382
0.8890106612511932 0.4828171897501447 0.8854123380353202
0.12473804834031316 0.6163028716292966 0.7856665178304136
0.02950940064510752 0.6792356640403132 0.7737745881966143
-0.019588174405571868 0.6012366076353315 0.9142704967378382
0.08901066125119321 0.6828171897501447 0.8854123380353202
0.32473804834031317 0.6163028716292966 0.7856665178304136
0.2295094006451075 0.6792356640403132 0.7737745881966143
0.18041182559442814 0.6012366076353315 0.9142704967378382
0.28901066125119323 0.6828171897501447 0.8854123380353202
0.5247380483403131 0.6163028716292966 0.7856665178304136
0.4295094006451075 0.6792356640403132 0.7737745881966143
0.38041182559442815 0.6012366076353315 0.9142704967378382
0.48901066125119325 0.6828171897501447 0.8854123380353202
0.7247380483403132 0.6163028716292966 0.7856665178304136
0.6295094006451075 0.6792356640403132 0.7737745881966143
0.5804118255944282 0.6012366076353315 0.9142704967378382
0.6890106612511933 0.6828171897501447 0.8854123380353202
0.9247380483403131 0.6163028716292966 0.7856665178304136
0.8295094006451076 0.6792356640403132 0.7737745881966143
0.7804118255944282 0.6012366076353315 0.9142704967378382
0.8890106612511932 0.6828171897501447 0.8854123380353202
0.12473804834031316 0.8163028716292966 0.7856665178304136
0.02950940064510752 0.8792356640403132 0.7737745881966143
-0.019588174405571868 0.8012366076353313 0.9142704967378382
0.08901066125119321 0.8828171897501447 0.8854123380353202
0.32473804834031317 0.8163028716292966 0.7856665178304136
0.2295094006451075 0.8792356640403132 0.7737745881966143
0.18041182559442814 0.8012366076353313 0.9142704967378382
0.28901066125119323 0.8828171897501447 0.8854123380353202
0.5247380483403131 0.8163028716292966 0.7856665178304136
0.4295094006451075 0.8792356640403132 0.7737745881966143
0.38041182559442815 0.8012366076353313 0.9142704967378382
0.48901066125119325 0.8828171897501447 0.8854123380353202
0.7247380483403132 0.8163028716292966 0.7856665178304136
0.6295094006451075 0.8792356640403132 0.7737745881966143
0.5804118255944282 0.8012366076353313 0.9142704967378382
0.6890106612511933 0.8828171897501447 0.8854123380353202
0.9247380483403131 0.8163028716292966 0.7856665178304136
0.8295094006451076 0.8792356640403132 0.7737745881966143
0.7804118255944282 0.8012366076353313 0.9142704967378382
0.8890106612511932 0.8828171897501447 0.8854123380353202
