FCC BaO
3.971
5.0 0.0 0.0
0.0 5.0 0.0
0.0 0.0 5.0
Ba O 
500 500 
Direct
-0.016228586169064443 0.013756461615215735 -0.028371668646816173
0.012145024448143471 0.09843977455079306 0.07332646027664187
0.09883042962630403 -0.017459755572008875 0.10285628400461753
0.09319813599682995 0.07133417241795677 -0.02283393499009169
0.18377141383093556 0.013756461615215735 -0.028371668646816173
0.21214502444814345 0.09843977455079306 0.07332646027664187
0.298830429626304 -0.017459755572008875 0.10285628400461753
0.29319813599683 0.07133417241795677 -0.02283393499009169
0.3837714138309356 0.013756461615215735 -0.028371668646816173
0.4121450244481435 0.09843977455079306 0.07332646027664187
0.49883042962630403 -0.017459755572008875 0.10285628400461753
0.49319813599682993 0.07133417241795677 -0.02283393499009169
0.5837714138309356 0.013756461615215735 -0.028371668646816173
0.6121450244481434 0.09843977455079306 0.07332646027664187
0.698830429626304 -0.017459755572008875 0.10285628400461753
0.69319813599683 0.07133417241795677 -0.02283393499009169
0.7837714138309355 0.013756461615215735 -0.028371668646816173
0.8121450244481436 0.09843977455079306 0.07332646027664187
0.8988304296263041 -0.017459755572008875 0.10285628400461753
0.89319813599683 0.07133417241795677 -0.02283393499009169
-0.016228586169064443 0.21375646161521578 -0.028371668646816173
0.012145024448143471 0.29843977455079307 0.07332646027664187
0.09883042962630403 0.18254024442799113 0.10285628400461753
0.09319813599682995 0.27133417241795676 -0.02283393499009169
0.18377141383093556 0.21375646161521578 -0.028371668646816173
0.21214502444814345 0.29843977455079307 0.07332646027664187
0.298830429626304 0.18254024442799113 0.10285628400461753
0.29319813599683 0.27133417241795676 -0.02283393499009169
0.3837714138309356 0.21375646161521578 -0.028371668646816173
0.4121450244481435 0.29843977455079307 0.07332646027664187
0.49883042962630403 0.18254024442799113 0.10285628400461753
0.49319813599682993 0.27133417241795676 -0.02283393499009169
0.5837714138309356 0.21375646161521578 -0.028371668646816173
0.6121450244481434 0.29843977455079307 0.07332646027664187
0.698830429626304 0.18254024442799113 0.10285628400461753
0.69319813599683 0.27133417241795676 -0.02283393499009169
0.7837714138309355 0.21375646161521578 -0.028371668646816173
0.8121450244481436 0.29843977455079307 0.07332646027664187
0.8988304296263041 0.18254024442799113 0.10285628400461753
0.89319813599683 0.27133417241795676 -0.02283393499009169
-0.016228586169064443 0.41375646161521573 -0.028371668646816173
0.012145024448143471 0.4984397745507931 0.07332646027664187
0.09883042962630403 0.3825402444279911 0.10285628400461753
0.09319813599682995 0.4713341724179568 -0.02283393499009169
0.18377141383093556 0.41375646161521573 -0.028371668646816173
0.21214502444814345 0.4984397745507931 0.07332646027664187
0.298830429626304 0.3825402444279911 0.10285628400461753
0.29319813599683 0.4713341724179568 -0.02283393499009169
0.3837714138309356 0.41375646161521573 -0.028371668646816173
0.4121450244481435 0.4984397745507931 0.07332646027664187
0.49883042962630403 0.3825402444279911 0.10285628400461753
0.49319813599682993 0.4713341724179568 -0.02283393499009169
0.5837714138309356 0.41375646161521573 -0.028371668646816173
0.6121450244481434 0.4984397745507931 0.07332646027664187
0.698830429626304 0.3825402444279911 0.10285628400461753
0.69319813599683 0.4713341724179568 -0.02283393499009169
0.7837714138309355 0.41375646161521573 -0.028371668646816173
0.8121450244481436 0.4984397745507931 0.07332646027664187
0.8988304296263041 0.3825402444279911 0.10285628400461753
0.89319813599683 0.4713341724179568 -0.02283393499009169
-0.016228586169064443 0.6137564616152158 -0.028371668646816173
0.012145024448143471 0.6984397745507931 0.07332646027664187
0.09883042962630403 0.5825402444279911 0.10285628400461753
0.09319813599682995 0.6713341724179568 -0.02283393499009169
0.18377141383093556 0.6137564616152158 -0.028371668646816173
0.21214502444814345 0.6984397745507931 0.07332646027664187
0.298830429626304 0.5825402444279911 0.10285628400461753
0.29319813599683 0.6713341724179568 -0.02283393499009169
0.3837714138309356 0.6137564616152158 -0.028371668646816173
0.4121450244481435 0.6984397745507931 0.07332646027664187
0.49883042962630403 0.5825402444279911 0.10285628400461753
0.49319813599682993 0.6713341724179568 -0.02283393499009169
0.5837714138309356 0.6137564616152158 -0.028371668646816173
0.6121450244481434 0.6984397745507931 0.07332646027664187
0.698830429626304 0.5825402444279911 0.10285628400461753
0.69319813599683 0.6713341724179568 -0.02283393499009169
0.7837714138309355 0.6137564616152158 -0.028371668646816173
0.8121450244481436 0.6984397745507931 0.07332646027664187
0.8988304296263041 0.5825402444279911 0.10285628400461753
0.89319813599683 0.6713341724179568 -0.02283393499009169
-0.016228586169064443 0.8137564616152159 -0.028371668646816173
0.012145024448143471 0.898439774550793 0.07332646027664187
0.09883042962630403 0.7825402444279912 0.10285628400461753
0.09319813599682995 0.8713341724179569 -0.02283393499009169
0.18377141383093556 0.8137564616152159 -0.028371668646816173
0.21214502444814345 0.898439774550793 0.07332646027664187
0.298830429626304 0.7825402444279912 0.10285628400461753
0.29319813599683 0.8713341724179569 -0.02283393499009169
0.3837714138309356 0.8137564616152159 -0.028371668646816173
0.4121450244481435 0.898439774550793 0.07332646027664187
0.49883042962630403 0.7825402444279912 0.10285628400461753
0.49319813599682993 0.8713341724179569 -0.02283393499009169
0.5837714138309356 0.8137564616152159 -0.028371668646816173
0.6121450244481434 0.898439774550793 0.07332646027664187
0.698830429626304 0.7825402444279912 0.10285628400461753
0.69319813599683 0.8713341724179569 -0.02283393499009169
0.7837714138309355 0.8137564616152159 -0.028371668646816173
0.8121450244481436 0.898439774550793 0.07332646027664187
0.8988304296263041 0.7825402444279912 0.10285628400461753
0.89319813599683 0.8713341724179569 -0.02283393499009169
-0.016228586169064443 0.013756461615215735 0.17162833135318384
0.012145024448143471 0.09843977455079306 0.27332646027664187
0.09883042962630403 -0.017459755572008875 0.30285628400461756
0.09319813599682995 0.07133417241795677 0.17716606500990834
0.18377141383093556 0.013756461615215735 0.17162833135318384
0.21214502444814345 0.09843977455079306 0.27332646027664187
0.298830429626304 -0.017459755572008875 0.30285628400461756
0.29319813599683 0.07133417241795677 0.17716606500990834
0.3837714138309356 0.013756461615215735 0.17162833135318384
0.4121450244481435 0.09843977455079306 0.27332646027664187
0.49883042962630403 -0.017459755572008875 0.30285628400461756
0.49319813599682993 0.07133417241795677 0.17716606500990834
0.5837714138309356 0.013756461615215735 0.17162833135318384
0.6121450244481434 0.09843977455079306 0.27332646027664187
0.698830429626304 -0.017459755572008875 0.30285628400461756
0.69319813599683 0.07133417241795677 0.17716606500990834
0.7837714138309355 0.013756461615215735 0.17162833135318384
0.8121450244481436 0.09843977455079306 0.27332646027664187
0.8988304296263041 -0.017459755572008875 0.30285628400461756
0.89319813599683 0.07133417241795677 0.17716606500990834
-0.016228586169064443 0.21375646161521578 0.17162833135318384
0.012145024448143471 0.29843977455079307 0.27332646027664187
0.09883042962630403 0.18254024442799113 0.30285628400461756
0.09319813599682995 0.27133417241795676 0.17716606500990834
0.18377141383093556 0.21375646161521578 0.17162833135318384
0.21214502444814345 0.29843977455079307 0.27332646027664187
0.298830429626304 0.18254024442799113 0.30285628400461756
0.29319813599683 0.27133417241795676 0.17716606500990834
0.3837714138309356 0.21375646161521578 0.17162833135318384
0.4121450244481435 0.29843977455079307 0.27332646027664187
0.49883042962630403 0.18254024442799113 0.30285628400461756
0.49319813599682993 0.27133417241795676 0.17716606500990834
0.5837714138309356 0.21375646161521578 0.17162833135318384
0.6121450244481434 0.29843977455079307 0.27332646027664187
0.698830429626304 0.18254024442799113 0.30285628400461756
0.69319813599683 0.27133417241795676 0.17716606500990834
0.7837714138309355 0.21375646161521578 0.17162833135318384
0.8121450244481436 0.29843977455079307 0.27332646027664187
0.8988304296263041 0.18254024442799113 0.30285628400461756
0.89319813599683 0.27133417241795676 0.17716606500990834
-0.016228586169064443 0.41375646161521573 0.17162833135318384
0.012145024448143471 0.4984397745507931 0.27332646027664187
0.09883042962630403 0.3825402444279911 0.30285628400461756
0.09319813599682995 0.4713341724179568 0.17716606500990834
0.18377141383093556 0.41375646161521573 0.17162833135318384
0.21214502444814345 0.4984397745507931 0.27332646027664187
0.298830429626304 0.3825402444279911 0.30285628400461756
0.29319813599683 0.4713341724179568 0.17716606500990834
0.3837714138309356 0.41375646161521573 0.17162833135318384
0.4121450244481435 0.4984397745507931 0.27332646027664187
0.49883042962630403 0.3825402444279911 0.30285628400461756
0.49319813599682993 0.4713341724179568 0.17716606500990834
0.5837714138309356 0.41375646161521573 0.17162833135318384
0.6121450244481434 0.4984397745507931 0.27332646027664187
0.698830429626304 0.3825402444279911 0.30285628400461756
0.69319813599683 0.4713341724179568 0.17716606500990834
0.7837714138309355 0.41375646161521573 0.17162833135318384
0.8121450244481436 0.4984397745507931 0.27332646027664187
0.8988304296263041 0.3825402444279911 0.30285628400461756
0.89319813599683 0.4713341724179568 0.17716606500990834
-0.016228586169064443 0.6137564616152158 0.17162833135318384
0.012145024448143471 0.6984397745507931 0.27332646027664187
0.09883042962630403 0.5825402444279911 0.30285628400461756
0.09319813599682995 0.6713341724179568 0.17716606500990834
0.18377141383093556 0.6137564616152158 0.17162833135318384
0.21214502444814345 0.6984397745507931 0.27332646027664187
0.298830429626304 0.5825402444279911 0.30285628400461756
0.29319813599683 0.6713341724179568 0.17716606500990834
0.3837714138309356 0.6137564616152158 0.17162833135318384
0.4121450244481435 0.6984397745507931 0.27332646027664187
0.49883042962630403 0.5825402444279911 0.30285628400461756
0.49319813599682993 0.6713341724179568 0.17716606500990834
0.5837714138309356 0.6137564616152158 0.17162833135318384
0.6121450244481434 0.6984397745507931 0.27332646027664187
0.698830429626304 0.5825402444279911 0.30285628400461756
0.69319813599683 0.6713341724179568 0.17716606500990834
0.7837714138309355 0.6137564616152158 0.17162833135318384
0.8121450244481436 0.6984397745507931 0.27332646027664187
0.8988304296263041 0.5825402444279911 0.30285628400461756
0.89319813599683 0.6713341724179568 0.17716606500990834
-0.016228586169064443 0.8137564616152159 0.17162833135318384
0.012145024448143471 0.898439774550793 0.27332646027664187
0.09883042962630403 0.7825402444279912 0.30285628400461756
0.09319813599682995 0.8713341724179569 0.17716606500990834
0.18377141383093556 0.8137564616152159 0.17162833135318384
0.21214502444814345 0.898439774550793 0.27332646027664187
0.298830429626304 0.7825402444279912 0.30285628400461756
0.29319813599683 0.8713341724179569 0.17716606500990834
0.3837714138309356 0.8137564616152159 0.17162833135318384
0.4121450244481435 0.898439774550793 0.27332646027664187
0.49883042962630403 0.7825402444279912 0.30285628400461756
0.49319813599682993 0.8713341724179569 0.17716606500990834
0.5837714138309356 0.8137564616152159 0.17162833135318384
0.6121450244481434 0.898439774550793 0.27332646027664187
0.698830429626304 0.7825402444279912 0.30285628400461756
0.69319813599683 0.8713341724179569 0.17716606500990834
0.7837714138309355 0.8137564616152159 0.17162833135318384
0.8121450244481436 0.898439774550793 0.27332646027664187
0.8988304296263041 0.7825402444279912 0.30285628400461756
0.89319813599683 0.8713341724179569 0.17716606500990834
-0.016228586169064443 0.013756461615215735 0.37162833135318385
0.012145024448143471 0.09843977455079306 0.4733264602766418
0.09883042962630403 -0.017459755572008875 0.5028562840046176
0.09319813599682995 0.07133417241795677 0.37716606500990835
0.18377141383093556 0.013756461615215735 0.37162833135318385
0.21214502444814345 0.09843977455079306 0.4733264602766418
0.298830429626304 -0.017459755572008875 0.5028562840046176
0.29319813599683 0.07133417241795677 0.37716606500990835
0.3837714138309356 0.013756461615215735 0.37162833135318385
0.4121450244481435 0.09843977455079306 0.4733264602766418
0.49883042962630403 -0.017459755572008875 0.5028562840046176
0.49319813599682993 0.07133417241795677 0.37716606500990835
0.5837714138309356 0.013756461615215735 0.37162833135318385
0.6121450244481434 0.09843977455079306 0.4733264602766418
0.698830429626304 -0.017459755572008875 0.5028562840046176
0.69319813599683 0.07133417241795677 0.37716606500990835
0.7837714138309355 0.013756461615215735 0.37162833135318385
0.8121450244481436 0.09843977455079306 0.4733264602766418
0.8988304296263041 -0.017459755572008875 0.5028562840046176
0.89319813599683 0.07133417241795677 0.37716606500990835
-0.016228586169064443 0.21375646161521578 0.37162833135318385
0.012145024448143471 0.29843977455079307 0.4733264602766418
0.09883042962630403 0.18254024442799113 0.5028562840046176
0.09319813599682995 0.27133417241795676 0.37716606500990835
0.18377141383093556 0.21375646161521578 0.37162833135318385
0.21214502444814345 0.29843977455079307 0.4733264602766418
0.298830429626304 0.18254024442799113 0.5028562840046176
0.29319813599683 0.27133417241795676 0.37716606500990835
0.3837714138309356 0.21375646161521578 0.37162833135318385
0.4121450244481435 0.29843977455079307 0.4733264602766418
0.49883042962630403 0.18254024442799113 0.5028562840046176
0.49319813599682993 0.27133417241795676 0.37716606500990835
0.5837714138309356 0.21375646161521578 0.37162833135318385
0.6121450244481434 0.29843977455079307 0.4733264602766418
0.698830429626304 0.18254024442799113 0.5028562840046176
0.69319813599683 0.27133417241795676 0.37716606500990835
0.7837714138309355 0.21375646161521578 0.37162833135318385
0.8121450244481436 0.29843977455079307 0.4733264602766418
0.8988304296263041 0.18254024442799113 0.5028562840046176
0.89319813599683 0.27133417241795676 0.37716606500990835
-0.016228586169064443 0.41375646161521573 0.37162833135318385
0.012145024448143471 0.4984397745507931 0.4733264602766418
0.09883042962630403 0.3825402444279911 0.5028562840046176
0.09319813599682995 0.4713341724179568 0.37716606500990835
0.18377141383093556 0.41375646161521573 0.37162833135318385
0.21214502444814345 0.4984397745507931 0.4733264602766418
0.298830429626304 0.3825402444279911 0.5028562840046176
0.29319813599683 0.4713341724179568 0.37716606500990835
0.3837714138309356 0.41375646161521573 0.37162833135318385
0.4121450244481435 0.4984397745507931 0.4733264602766418
0.49883042962630403 0.3825402444279911 0.5028562840046176
0.49319813599682993 0.4713341724179568 0.37716606500990835
0.5837714138309356 0.41375646161521573 0.37162833135318385
0.6121450244481434 0.4984397745507931 0.4733264602766418
0.698830429626304 0.3825402444279911 0.5028562840046176
0.69319813599683 0.4713341724179568 0.37716606500990835
0.7837714138309355 0.41375646161521573 0.37162833135318385
0.8121450244481436 0.4984397745507931 0.4733264602766418
0.8988304296263041 0.3825402444279911 0.5028562840046176
0.89319813599683 0.4713341724179568 0.37716606500990835
-0.016228586169064443 0.6137564616152158 0.37162833135318385
0.012145024448143471 0.6984397745507931 0.4733264602766418
0.09883042962630403 0.5825402444279911 0.5028562840046176
0.09319813599682995 0.6713341724179568 0.37716606500990835
0.18377141383093556 0.6137564616152158 0.37162833135318385
0.21214502444814345 0.6984397745507931 0.4733264602766418
0.298830429626304 0.5825402444279911 0.5028562840046176
0.29319813599683 0.6713341724179568 0.37716606500990835
0.3837714138309356 0.6137564616152158 0.37162833135318385
0.4121450244481435 0.6984397745507931 0.4733264602766418
0.49883042962630403 0.5825402444279911 0.5028562840046176
0.49319813599682993 0.6713341724179568 0.37716606500990835
0.5837714138309356 0.6137564616152158 0.37162833135318385
0.6121450244481434 0.6984397745507931 0.4733264602766418
0.698830429626304 0.5825402444279911 0.5028562840046176
0.69319813599683 0.6713341724179568 0.37716606500990835
0.7837714138309355 0.6137564616152158 0.37162833135318385
0.8121450244481436 0.6984397745507931 0.4733264602766418
0.8988304296263041 0.5825402444279911 0.5028562840046176
0.89319813599683 0.6713341724179568 0.37716606500990835
-0.016228586169064443 0.8137564616152159 0.37162833135318385
0.012145024448143471 0.898439774550793 0.4733264602766418
0.09883042962630403 0.7825402444279912 0.5028562840046176
0.09319813599682995 0.8713341724179569 0.37716606500990835
0.18377141383093556 0.8137564616152159 0.37162833135318385
0.21214502444814345 0.898439774550793 0.4733264602766418
0.298830429626304 0.7825402444279912 0.5028562840046176
0.29319813599683 0.8713341724179569 0.37716606500990835
0.3837714138309356 0.8137564616152159 0.37162833135318385
0.4121450244481435 0.898439774550793 0.4733264602766418
0.49883042962630403 0.7825402444279912 0.5028562840046176
0.49319813599682993 0.8713341724179569 0.37716606500990835
0.5837714138309356 0.8137564616152159 0.37162833135318385
0.6121450244481434 0.898439774550793 0.4733264602766418
0.698830429626304 0.7825402444279912 0.5028562840046176
0.69319813599683 0.8713341724179569 0.37716606500990835
0.7837714138309355 0.8137564616152159 0.37162833135318385
0.8121450244481436 0.898439774550793 0.4733264602766418
0.8988304296263041 0.7825402444279912 0.5028562840046176
0.89319813599683 0.8713341724179569 0.37716606500990835
-0.016228586169064443 0.013756461615215735 0.5716283313531839
0.012145024448143471 0.09843977455079306 0.6733264602766419
0.09883042962630403 -0.017459755572008875 0.7028562840046176
0.09319813599682995 0.07133417241795677 0.5771660650099083
0.18377141383093556 0.013756461615215735 0.5716283313531839
0.21214502444814345 0.09843977455079306 0.6733264602766419
0.298830429626304 -0.017459755572008875 0.7028562840046176
0.29319813599683 0.07133417241795677 0.5771660650099083
0.3837714138309356 0.013756461615215735 0.5716283313531839
0.4121450244481435 0.09843977455079306 0.6733264602766419
0.49883042962630403 -0.017459755572008875 0.7028562840046176
0.49319813599682993 0.07133417241795677 0.5771660650099083
0.5837714138309356 0.013756461615215735 0.5716283313531839
0.6121450244481434 0.09843977455079306 0.6733264602766419
0.698830429626304 -0.017459755572008875 0.7028562840046176
0.69319813599683 0.07133417241795677 0.5771660650099083
0.7837714138309355 0.013756461615215735 0.5716283313531839
0.8121450244481436 0.09843977455079306 0.6733264602766419
0.8988304296263041 -0.017459755572008875 0.7028562840046176
0.89319813599683 0.07133417241795677 0.5771660650099083
-0.016228586169064443 0.21375646161521578 0.5716283313531839
0.012145024448143471 0.29843977455079307 0.6733264602766419
0.09883042962630403 0.18254024442799113 0.7028562840046176
0.09319813599682995 0.27133417241795676 0.5771660650099083
0.18377141383093556 0.21375646161521578 0.5716283313531839
0.21214502444814345 0.29843977455079307 0.6733264602766419
0.298830429626304 0.18254024442799113 0.7028562840046176
0.29319813599683 0.27133417241795676 0.5771660650099083
0.3837714138309356 0.21375646161521578 0.5716283313531839
0.4121450244481435 0.29843977455079307 0.6733264602766419
0.49883042962630403 0.18254024442799113 0.7028562840046176
0.49319813599682993 0.27133417241795676 0.5771660650099083
0.5837714138309356 0.21375646161521578 0.5716283313531839
0.6121450244481434 0.29843977455079307 0.6733264602766419
0.698830429626304 0.18254024442799113 0.7028562840046176
0.69319813599683 0.27133417241795676 0.5771660650099083
0.7837714138309355 0.21375646161521578 0.5716283313531839
0.8121450244481436 0.29843977455079307 0.6733264602766419
0.8988304296263041 0.18254024442799113 0.7028562840046176
0.89319813599683 0.27133417241795676 0.5771660650099083
-0.016228586169064443 0.41375646161521573 0.5716283313531839
0.012145024448143471 0.4984397745507931 0.6733264602766419
0.09883042962630403 0.3825402444279911 0.7028562840046176
0.09319813599682995 0.4713341724179568 0.5771660650099083
0.18377141383093556 0.41375646161521573 0.5716283313531839
0.21214502444814345 0.4984397745507931 0.6733264602766419
0.298830429626304 0.3825402444279911 0.7028562840046176
0.29319813599683 0.4713341724179568 0.5771660650099083
0.3837714138309356 0.41375646161521573 0.5716283313531839
0.4121450244481435 0.4984397745507931 0.6733264602766419
0.49883042962630403 0.3825402444279911 0.7028562840046176
0.49319813599682993 0.4713341724179568 0.5771660650099083
0.5837714138309356 0.41375646161521573 0.5716283313531839
0.6121450244481434 0.4984397745507931 0.6733264602766419
0.698830429626304 0.3825402444279911 0.7028562840046176
0.69319813599683 0.4713341724179568 0.5771660650099083
0.7837714138309355 0.41375646161521573 0.5716283313531839
0.8121450244481436 0.4984397745507931 0.6733264602766419
0.8988304296263041 0.3825402444279911 0.7028562840046176
0.89319813599683 0.4713341724179568 0.5771660650099083
-0.016228586169064443 0.6137564616152158 0.5716283313531839
0.012145024448143471 0.6984397745507931 0.6733264602766419
0.09883042962630403 0.5825402444279911 0.7028562840046176
0.09319813599682995 0.6713341724179568 0.5771660650099083
0.18377141383093556 0.6137564616152158 0.5716283313531839
0.21214502444814345 0.6984397745507931 0.6733264602766419
0.298830429626304 0.5825402444279911 0.7028562840046176
0.29319813599683 0.6713341724179568 0.5771660650099083
0.3837714138309356 0.6137564616152158 0.5716283313531839
0.4121450244481435 0.6984397745507931 0.6733264602766419
0.49883042962630403 0.5825402444279911 0.7028562840046176
0.49319813599682993 0.6713341724179568 0.5771660650099083
0.5837714138309356 0.6137564616152158 0.5716283313531839
0.6121450244481434 0.6984397745507931 0.6733264602766419
0.698830429626304 0.5825402444279911 0.7028562840046176
0.69319813599683 0.6713341724179568 0.5771660650099083
0.7837714138309355 0.6137564616152158 0.5716283313531839
0.8121450244481436 0.6984397745507931 0.6733264602766419
0.8988304296263041 0.5825402444279911 0.7028562840046176
0.89319813599683 0.6713341724179568 0.5771660650099083
-0.016228586169064443 0.8137564616152159 0.5716283313531839
0.012145024448143471 0.898439774550793 0.6733264602766419
0.09883042962630403 0.7825402444279912 0.7028562840046176
0.09319813599682995 0.8713341724179569 0.5771660650099083
0.18377141383093556 0.8137564616152159 0.5716283313531839
0.21214502444814345 0.898439774550793 0.6733264602766419
0.298830429626304 0.7825402444279912 0.7028562840046176
0.29319813599683 0.8713341724179569 0.5771660650099083
0.3837714138309356 0.8137564616152159 0.5716283313531839
0.4121450244481435 0.898439774550793 0.6733264602766419
0.49883042962630403 0.7825402444279912 0.7028562840046176
0.49319813599682993 0.8713341724179569 0.5771660650099083
0.5837714138309356 0.8137564616152159 0.5716283313531839
0.6121450244481434 0.898439774550793 0.6733264602766419
0.698830429626304 0.7825402444279912 0.7028562840046176
0.69319813599683 0.8713341724179569 0.5771660650099083
0.7837714138309355 0.8137564616152159 0.5716283313531839
0.8121450244481436 0.898439774550793 0.6733264602766419
0.8988304296263041 0.7825402444279912 0.7028562840046176
0.89319813599683 0.8713341724179569 0.5771660650099083
-0.016228586169064443 0.013756461615215735 0.7716283313531839
0.012145024448143471 0.09843977455079306 0.8733264602766418
0.09883042962630403 -0.017459755572008875 0.9028562840046176
0.09319813599682995 0.07133417241795677 0.7771660650099084
0.18377141383093556 0.013756461615215735 0.7716283313531839
0.21214502444814345 0.09843977455079306 0.8733264602766418
0.298830429626304 -0.017459755572008875 0.9028562840046176
0.29319813599683 0.07133417241795677 0.7771660650099084
0.3837714138309356 0.013756461615215735 0.7716283313531839
0.4121450244481435 0.09843977455079306 0.8733264602766418
0.49883042962630403 -0.017459755572008875 0.9028562840046176
0.49319813599682993 0.07133417241795677 0.7771660650099084
0.5837714138309356 0.013756461615215735 0.7716283313531839
0.6121450244481434 0.09843977455079306 0.8733264602766418
0.698830429626304 -0.017459755572008875 0.9028562840046176
0.69319813599683 0.07133417241795677 0.7771660650099084
0.7837714138309355 0.013756461615215735 0.7716283313531839
0.8121450244481436 0.09843977455079306 0.8733264602766418
0.8988304296263041 -0.017459755572008875 0.9028562840046176
0.89319813599683 0.07133417241795677 0.7771660650099084
-0.016228586169064443 0.21375646161521578 0.7716283313531839
0.012145024448143471 0.29843977455079307 0.8733264602766418
0.09883042962630403 0.18254024442799113 0.9028562840046176
0.09319813599682995 0.27133417241795676 0.7771660650099084
0.18377141383093556 0.21375646161521578 0.7716283313531839
0.21214502444814345 0.29843977455079307 0.8733264602766418
0.298830429626304 0.18254024442799113 0.9028562840046176
0.29319813599683 0.27133417241795676 0.7771660650099084
0.3837714138309356 0.21375646161521578 0.7716283313531839
0.4121450244481435 0.29843977455079307 0.8733264602766418
0.49883042962630403 0.18254024442799113 0.9028562840046176
0.49319813599682993 0.27133417241795676 0.7771660650099084
0.5837714138309356 0.21375646161521578 0.7716283313531839
0.6121450244481434 0.29843977455079307 0.8733264602766418
0.698830429626304 0.18254024442799113 0.9028562840046176
0.69319813599683 0.27133417241795676 0.7771660650099084
0.7837714138309355 0.21375646161521578 0.7716283313531839
0.8121450244481436 0.29843977455079307 0.8733264602766418
0.8988304296263041 0.18254024442799113 0.9028562840046176
0.89319813599683 0.27133417241795676 0.7771660650099084
-0.016228586169064443 0.41375646161521573 0.7716283313531839
0.012145024448143471 0.4984397745507931 0.8733264602766418
0.09883042962630403 0.3825402444279911 0.9028562840046176
0.09319813599682995 0.4713341724179568 0.7771660650099084
0.18377141383093556 0.41375646161521573 0.7716283313531839
0.21214502444814345 0.4984397745507931 0.8733264602766418
0.298830429626304 0.3825402444279911 0.9028562840046176
0.29319813599683 0.4713341724179568 0.7771660650099084
0.3837714138309356 0.41375646161521573 0.7716283313531839
0.4121450244481435 0.4984397745507931 0.8733264602766418
0.49883042962630403 0.3825402444279911 0.9028562840046176
0.49319813599682993 0.4713341724179568 0.7771660650099084
0.5837714138309356 0.41375646161521573 0.7716283313531839
0.6121450244481434 0.4984397745507931 0.8733264602766418
0.698830429626304 0.3825402444279911 0.9028562840046176
0.69319813599683 0.4713341724179568 0.7771660650099084
0.7837714138309355 0.41375646161521573 0.7716283313531839
0.8121450244481436 0.4984397745507931 0.8733264602766418
0.8988304296263041 0.3825402444279911 0.9028562840046176
0.89319813599683 0.4713341724179568 0.7771660650099084
-0.016228586169064443 0.6137564616152158 0.7716283313531839
0.012145024448143471 0.6984397745507931 0.8733264602766418
0.09883042962630403 0.5825402444279911 0.9028562840046176
0.09319813599682995 0.6713341724179568 0.7771660650099084
0.18377141383093556 0.6137564616152158 0.7716283313531839
0.21214502444814345 0.6984397745507931 0.8733264602766418
0.298830429626304 0.5825402444279911 0.9028562840046176
0.29319813599683 0.6713341724179568 0.7771660650099084
0.3837714138309356 0.6137564616152158 0.7716283313531839
0.4121450244481435 0.6984397745507931 0.8733264602766418
0.49883042962630403 0.5825402444279911 0.9028562840046176
0.49319813599682993 0.6713341724179568 0.7771660650099084
0.5837714138309356 0.6137564616152158 0.7716283313531839
0.6121450244481434 0.6984397745507931 0.8733264602766418
0.698830429626304 0.5825402444279911 0.9028562840046176
0.69319813599683 0.6713341724179568 0.7771660650099084
0.7837714138309355 0.6137564616152158 0.7716283313531839
0.8121450244481436 0.6984397745507931 0.8733264602766418
0.8988304296263041 0.5825402444279911 0.9028562840046176
0.89319813599683 0.6713341724179568 0.7771660650099084
-0.016228586169064443 0.8137564616152159 0.7716283313531839
0.012145024448143471 0.898439774550793 0.8733264602766418
0.09883042962630403 0.7825402444279912 0.9028562840046176
0.09319813599682995 0.8713341724179569 0.7771660650099084
0.18377141383093556 0.8137564616152159 0.7716283313531839
0.21214502444814345 0.898439774550793 0.8733264602766418
0.298830429626304 0.7825402444279912 0.9028562840046176
0.29319813599683 0.8713341724179569 0.7771660650099084
0.3837714138309356 0.8137564616152159 0.7716283313531839
0.4121450244481435 0.898439774550793 0.8733264602766418
0.49883042962630403 0.7825402444279912 0.9028562840046176
0.49319813599682993 0.8713341724179569 0.7771660650099084
0.5837714138309356 0.8137564616152159 0.7716283313531839
0.6121450244481434 0.898439774550793 0.8733264602766418
0.698830429626304 0.7825402444279912 0.9028562840046176
0.69319813599683 0.8713341724179569 0.7771660650099084
0.7837714138309355 0.8137564616152159 0.7716283313531839
0.8121450244481436 0.898439774550793 0.8733264602766418
0.8988304296263041 0.7825402444279912 0.9028562840046176
0.89319813599683 0.8713341724179569 0.7771660650099084
0.08304769550494495 0.009711909975332798 -0.005024567545790654
-0.011402649159310942 0.10132529277641687 0.016338846956097133
-0.013420057116141927 -0.010733920926310215 0.09663808669598284
0.09521686170777632 0.08679349478931515 0.1287192758971785
0.28304769550494496 0.009711909975332798 -0.005024567545790654
0.18859735084068907 0.10132529277641687 0.016338846956097133
0.18657994288385807 -0.010733920926310215 0.09663808669598284
0.29521686170777633 0.08679349478931515 0.1287192758971785
0.483047695504945 0.009711909975332798 -0.005024567545790654
0.3885973508406891 0.10132529277641687 0.016338846956097133
0.3865799428838581 -0.010733920926310215 0.09663808669598284
0.49521686170777635 0.08679349478931515 0.1287192758971785
0.6830476955049449 0.009711909975332798 -0.005024567545790654
0.5885973508406891 0.10132529277641687 0.016338846956097133
0.5865799428838581 -0.010733920926310215 0.09663808669598284
0.6952168617077764 0.08679349478931515 0.1287192758971785
0.8830476955049451 0.009711909975332798 -0.005024567545790654
0.7885973508406892 0.10132529277641687 0.016338846956097133
0.7865799428838581 -0.010733920926310215 0.09663808669598284
0.8952168617077764 0.08679349478931515 0.1287192758971785
0.08304769550494495 0.20971190997533282 -0.005024567545790654
-0.011402649159310942 0.3013252927764169 0.016338846956097133
-0.013420057116141927 0.1892660790736898 0.09663808669598284
0.09521686170777632 0.28679349478931515 0.1287192758971785
0.28304769550494496 0.20971190997533282 -0.005024567545790654
0.18859735084068907 0.3013252927764169 0.016338846956097133
0.18657994288385807 0.1892660790736898 0.09663808669598284
0.29521686170777633 0.28679349478931515 0.1287192758971785
0.483047695504945 0.20971190997533282 -0.005024567545790654
0.3885973508406891 0.3013252927764169 0.016338846956097133
0.3865799428838581 0.1892660790736898 0.09663808669598284
0.49521686170777635 0.28679349478931515 0.1287192758971785
0.6830476955049449 0.20971190997533282 -0.005024567545790654
0.5885973508406891 0.3013252927764169 0.016338846956097133
0.5865799428838581 0.1892660790736898 0.09663808669598284
0.6952168617077764 0.28679349478931515 0.1287192758971785
0.8830476955049451 0.20971190997533282 -0.005024567545790654
0.7885973508406892 0.3013252927764169 0.016338846956097133
0.7865799428838581 0.1892660790736898 0.09663808669598284
0.8952168617077764 0.28679349478931515 0.1287192758971785
0.08304769550494495 0.4097119099753328 -0.005024567545790654
-0.011402649159310942 0.5013252927764169 0.016338846956097133
-0.013420057116141927 0.3892660790736898 0.09663808669598284
0.09521686170777632 0.48679349478931516 0.1287192758971785
0.28304769550494496 0.4097119099753328 -0.005024567545790654
0.18859735084068907 0.5013252927764169 0.016338846956097133
0.18657994288385807 0.3892660790736898 0.09663808669598284
0.29521686170777633 0.48679349478931516 0.1287192758971785
0.483047695504945 0.4097119099753328 -0.005024567545790654
0.3885973508406891 0.5013252927764169 0.016338846956097133
0.3865799428838581 0.3892660790736898 0.09663808669598284
0.49521686170777635 0.48679349478931516 0.1287192758971785
0.6830476955049449 0.4097119099753328 -0.005024567545790654
0.5885973508406891 0.5013252927764169 0.016338846956097133
0.5865799428838581 0.3892660790736898 0.09663808669598284
0.6952168617077764 0.48679349478931516 0.1287192758971785
0.8830476955049451 0.4097119099753328 -0.005024567545790654
0.7885973508406892 0.5013252927764169 0.016338846956097133
0.7865799428838581 0.3892660790736898 0.09663808669598284
0.8952168617077764 0.48679349478931516 0.1287192758971785
0.08304769550494495 0.6097119099753328 -0.005024567545790654
-0.011402649159310942 0.701325292776417 0.016338846956097133
-0.013420057116141927 0.5892660790736898 0.09663808669598284
0.09521686170777632 0.6867934947893152 0.1287192758971785
0.28304769550494496 0.6097119099753328 -0.005024567545790654
0.18859735084068907 0.701325292776417 0.016338846956097133
0.18657994288385807 0.5892660790736898 0.09663808669598284
0.29521686170777633 0.6867934947893152 0.1287192758971785
0.483047695504945 0.6097119099753328 -0.005024567545790654
0.3885973508406891 0.701325292776417 0.016338846956097133
0.3865799428838581 0.5892660790736898 0.09663808669598284
0.49521686170777635 0.6867934947893152 0.1287192758971785
0.6830476955049449 0.6097119099753328 -0.005024567545790654
0.5885973508406891 0.701325292776417 0.016338846956097133
0.5865799428838581 0.5892660790736898 0.09663808669598284
0.6952168617077764 0.6867934947893152 0.1287192758971785
0.8830476955049451 0.6097119099753328 -0.005024567545790654
0.7885973508406892 0.701325292776417 0.016338846956097133
0.7865799428838581 0.5892660790736898 0.09663808669598284
0.8952168617077764 0.6867934947893152 0.1287192758971785
0.08304769550494495 0.8097119099753329 -0.005024567545790654
-0.011402649159310942 0.9013252927764169 0.016338846956097133
-0.013420057116141927 0.7892660790736898 0.09663808669598284
0.09521686170777632 0.8867934947893151 0.1287192758971785
0.28304769550494496 0.8097119099753329 -0.005024567545790654
0.18859735084068907 0.9013252927764169 0.016338846956097133
0.18657994288385807 0.7892660790736898 0.09663808669598284
0.29521686170777633 0.8867934947893151 0.1287192758971785
0.483047695504945 0.8097119099753329 -0.005024567545790654
0.3885973508406891 0.9013252927764169 0.016338846956097133
0.3865799428838581 0.7892660790736898 0.09663808669598284
0.49521686170777635 0.8867934947893151 0.1287192758971785
0.6830476955049449 0.8097119099753329 -0.005024567545790654
0.5885973508406891 0.9013252927764169 0.016338846956097133
0.5865799428838581 0.7892660790736898 0.09663808669598284
0.6952168617077764 0.8867934947893151 0.1287192758971785
0.8830476955049451 0.8097119099753329 -0.005024567545790654
0.7885973508406892 0.9013252927764169 0.016338846956097133
0.7865799428838581 0.7892660790736898 0.09663808669598284
0.8952168617077764 0.8867934947893151 0.1287192758971785
0.08304769550494495 0.009711909975332798 0.19497543245420934
-0.011402649159310942 0.10132529277641687 0.21633884695609715
-0.013420057116141927 -0.010733920926310215 0.29663808669598285
0.09521686170777632 0.08679349478931515 0.32871927589717853
0.28304769550494496 0.009711909975332798 0.19497543245420934
0.18859735084068907 0.10132529277641687 0.21633884695609715
0.18657994288385807 -0.010733920926310215 0.29663808669598285
0.29521686170777633 0.08679349478931515 0.32871927589717853
0.483047695504945 0.009711909975332798 0.19497543245420934
0.3885973508406891 0.10132529277641687 0.21633884695609715
0.3865799428838581 -0.010733920926310215 0.29663808669598285
0.49521686170777635 0.08679349478931515 0.32871927589717853
0.6830476955049449 0.009711909975332798 0.19497543245420934
0.5885973508406891 0.10132529277641687 0.21633884695609715
0.5865799428838581 -0.010733920926310215 0.29663808669598285
0.6952168617077764 0.08679349478931515 0.32871927589717853
0.8830476955049451 0.009711909975332798 0.19497543245420934
0.7885973508406892 0.10132529277641687 0.21633884695609715
0.7865799428838581 -0.010733920926310215 0.29663808669598285
0.8952168617077764 0.08679349478931515 0.32871927589717853
0.08304769550494495 0.20971190997533282 0.19497543245420934
-0.011402649159310942 0.3013252927764169 0.21633884695609715
-0.013420057116141927 0.1892660790736898 0.29663808669598285
0.09521686170777632 0.28679349478931515 0.32871927589717853
0.28304769550494496 0.20971190997533282 0.19497543245420934
0.18859735084068907 0.3013252927764169 0.21633884695609715
0.18657994288385807 0.1892660790736898 0.29663808669598285
0.29521686170777633 0.28679349478931515 0.32871927589717853
0.483047695504945 0.20971190997533282 0.19497543245420934
0.3885973508406891 0.3013252927764169 0.21633884695609715
0.3865799428838581 0.1892660790736898 0.29663808669598285
0.49521686170777635 0.28679349478931515 0.32871927589717853
0.6830476955049449 0.20971190997533282 0.19497543245420934
0.5885973508406891 0.3013252927764169 0.21633884695609715
0.5865799428838581 0.1892660790736898 0.29663808669598285
0.6952168617077764 0.28679349478931515 0.32871927589717853
0.8830476955049451 0.20971190997533282 0.19497543245420934
0.7885973508406892 0.3013252927764169 0.21633884695609715
0.7865799428838581 0.1892660790736898 0.29663808669598285
0.8952168617077764 0.28679349478931515 0.32871927589717853
0.08304769550494495 0.4097119099753328 0.19497543245420934
-0.011402649159310942 0.5013252927764169 0.21633884695609715
-0.013420057116141927 0.3892660790736898 0.29663808669598285
0.09521686170777632 0.48679349478931516 0.32871927589717853
0.28304769550494496 0.4097119099753328 0.19497543245420934
0.18859735084068907 0.5013252927764169 0.21633884695609715
0.18657994288385807 0.3892660790736898 0.29663808669598285
0.29521686170777633 0.48679349478931516 0.32871927589717853
0.483047695504945 0.4097119099753328 0.19497543245420934
0.3885973508406891 0.5013252927764169 0.21633884695609715
0.3865799428838581 0.3892660790736898 0.29663808669598285
0.49521686170777635 0.48679349478931516 0.32871927589717853
0.6830476955049449 0.4097119099753328 0.19497543245420934
0.5885973508406891 0.5013252927764169 0.21633884695609715
0.5865799428838581 0.3892660790736898 0.29663808669598285
0.6952168617077764 0.48679349478931516 0.32871927589717853
0.8830476955049451 0.4097119099753328 0.19497543245420934
0.7885973508406892 0.5013252927764169 0.21633884695609715
0.7865799428838581 0.3892660790736898 0.29663808669598285
0.8952168617077764 0.48679349478931516 0.32871927589717853
0.08304769550494495 0.6097119099753328 0.19497543245420934
-0.011402649159310942 0.701325292776417 0.21633884695609715
-0.013420057116141927 0.5892660790736898 0.29663808669598285
0.09521686170777632 0.6867934947893152 0.32871927589717853
0.28304769550494496 0.6097119099753328 0.19497543245420934
0.18859735084068907 0.701325292776417 0.21633884695609715
0.18657994288385807 0.5892660790736898 0.29663808669598285
0.29521686170777633 0.6867934947893152 0.32871927589717853
0.483047695504945 0.6097119099753328 0.19497543245420934
0.3885973508406891 0.701325292776417 0.21633884695609715
0.3865799428838581 0.5892660790736898 0.29663808669598285
0.49521686170777635 0.6867934947893152 0.32871927589717853
0.6830476955049449 0.6097119099753328 0.19497543245420934
0.5885973508406891 0.701325292776417 0.21633884695609715
0.5865799428838581 0.5892660790736898 0.29663808669598285
0.6952168617077764 0.6867934947893152 0.32871927589717853
0.8830476955049451 0.6097119099753328 0.19497543245420934
0.7885973508406892 0.701325292776417 0.21633884695609715
0.7865799428838581 0.5892660790736898 0.29663808669598285
0.8952168617077764 0.6867934947893152 0.32871927589717853
0.08304769550494495 0.8097119099753329 0.19497543245420934
-0.011402649159310942 0.9013252927764169 0.21633884695609715
-0.013420057116141927 0.7892660790736898 0.29663808669598285
0.09521686170777632 0.8867934947893151 0.32871927589717853
0.28304769550494496 0.8097119099753329 0.19497543245420934
0.18859735084068907 0.9013252927764169 0.21633884695609715
0.18657994288385807 0.7892660790736898 0.29663808669598285
0.29521686170777633 0.8867934947893151 0.32871927589717853
0.483047695504945 0.8097119099753329 0.19497543245420934
0.3885973508406891 0.9013252927764169 0.21633884695609715
0.3865799428838581 0.7892660790736898 0.29663808669598285
0.49521686170777635 0.8867934947893151 0.32871927589717853
0.6830476955049449 0.8097119099753329 0.19497543245420934
0.5885973508406891 0.9013252927764169 0.21633884695609715
0.5865799428838581 0.7892660790736898 0.29663808669598285
0.6952168617077764 0.8867934947893151 0.32871927589717853
0.8830476955049451 0.8097119099753329 0.19497543245420934
0.7885973508406892 0.9013252927764169 0.21633884695609715
0.7865799428838581 0.7892660790736898 0.29663808669598285
0.8952168617077764 0.8867934947893151 0.32871927589717853
0.08304769550494495 0.009711909975332798 0.3949754324542094
-0.011402649159310942 0.10132529277641687 0.4163388469560972
-0.013420057116141927 -0.010733920926310215 0.49663808669598286
0.09521686170777632 0.08679349478931515 0.5287192758971785
0.28304769550494496 0.009711909975332798 0.3949754324542094
0.18859735084068907 0.10132529277641687 0.4163388469560972
0.18657994288385807 -0.010733920926310215 0.49663808669598286
0.29521686170777633 0.08679349478931515 0.5287192758971785
0.483047695504945 0.009711909975332798 0.3949754324542094
0.3885973508406891 0.10132529277641687 0.4163388469560972
0.3865799428838581 -0.010733920926310215 0.49663808669598286
0.49521686170777635 0.08679349478931515 0.5287192758971785
0.6830476955049449 0.009711909975332798 0.3949754324542094
0.5885973508406891 0.10132529277641687 0.4163388469560972
0.5865799428838581 -0.010733920926310215 0.49663808669598286
0.6952168617077764 0.08679349478931515 0.5287192758971785
0.8830476955049451 0.009711909975332798 0.3949754324542094
0.7885973508406892 0.10132529277641687 0.4163388469560972
0.7865799428838581 -0.010733920926310215 0.49663808669598286
0.8952168617077764 0.08679349478931515 0.5287192758971785
0.08304769550494495 0.20971190997533282 0.3949754324542094
-0.011402649159310942 0.3013252927764169 0.4163388469560972
-0.013420057116141927 0.1892660790736898 0.49663808669598286
0.09521686170777632 0.28679349478931515 0.5287192758971785
0.28304769550494496 0.20971190997533282 0.3949754324542094
0.18859735084068907 0.3013252927764169 0.4163388469560972
0.18657994288385807 0.1892660790736898 0.49663808669598286
0.29521686170777633 0.28679349478931515 0.5287192758971785
0.483047695504945 0.20971190997533282 0.3949754324542094
0.3885973508406891 0.3013252927764169 0.4163388469560972
0.3865799428838581 0.1892660790736898 0.49663808669598286
0.49521686170777635 0.28679349478931515 0.5287192758971785
0.6830476955049449 0.20971190997533282 0.3949754324542094
0.5885973508406891 0.3013252927764169 0.4163388469560972
0.5865799428838581 0.1892660790736898 0.49663808669598286
0.6952168617077764 0.28679349478931515 0.5287192758971785
0.8830476955049451 0.20971190997533282 0.3949754324542094
0.7885973508406892 0.3013252927764169 0.4163388469560972
0.7865799428838581 0.1892660790736898 0.49663808669598286
0.8952168617077764 0.28679349478931515 0.5287192758971785
0.08304769550494495 0.4097119099753328 0.3949754324542094
-0.011402649159310942 0.5013252927764169 0.4163388469560972
-0.013420057116141927 0.3892660790736898 0.49663808669598286
0.09521686170777632 0.48679349478931516 0.5287192758971785
0.28304769550494496 0.4097119099753328 0.3949754324542094
0.18859735084068907 0.5013252927764169 0.4163388469560972
0.18657994288385807 0.3892660790736898 0.49663808669598286
0.29521686170777633 0.48679349478931516 0.5287192758971785
0.483047695504945 0.4097119099753328 0.3949754324542094
0.3885973508406891 0.5013252927764169 0.4163388469560972
0.3865799428838581 0.3892660790736898 0.49663808669598286
0.49521686170777635 0.48679349478931516 0.5287192758971785
0.6830476955049449 0.4097119099753328 0.3949754324542094
0.5885973508406891 0.5013252927764169 0.4163388469560972
0.5865799428838581 0.3892660790736898 0.49663808669598286
0.6952168617077764 0.48679349478931516 0.5287192758971785
0.8830476955049451 0.4097119099753328 0.3949754324542094
0.7885973508406892 0.5013252927764169 0.4163388469560972
0.7865799428838581 0.3892660790736898 0.49663808669598286
0.8952168617077764 0.48679349478931516 0.5287192758971785
0.08304769550494495 0.6097119099753328 0.3949754324542094
-0.011402649159310942 0.701325292776417 0.4163388469560972
-0.013420057116141927 0.5892660790736898 0.49663808669598286
0.09521686170777632 0.6867934947893152 0.5287192758971785
0.28304769550494496 0.6097119099753328 0.3949754324542094
0.18859735084068907 0.701325292776417 0.4163388469560972
0.18657994288385807 0.5892660790736898 0.49663808669598286
0.29521686170777633 0.6867934947893152 0.5287192758971785
0.483047695504945 0.6097119099753328 0.3949754324542094
0.3885973508406891 0.701325292776417 0.4163388469560972
0.3865799428838581 0.5892660790736898 0.49663808669598286
0.49521686170777635 0.6867934947893152 0.5287192758971785
0.6830476955049449 0.6097119099753328 0.3949754324542094
0.5885973508406891 0.701325292776417 0.4163388469560972
0.5865799428838581 0.5892660790736898 0.49663808669598286
0.6952168617077764 0.6867934947893152 0.5287192758971785
0.8830476955049451 0.6097119099753328 0.3949754324542094
0.7885973508406892 0.701325292776417 0.4163388469560972
0.7865799428838581 0.5892660790736898 0.49663808669598286
0.8952168617077764 0.6867934947893152 0.5287192758971785
0.08304769550494495 0.8097119099753329 0.3949754324542094
-0.011402649159310942 0.9013252927764169 0.4163388469560972
-0.013420057116141927 0.7892660790736898 0.49663808669598286
0.09521686170777632 0.8867934947893151 0.5287192758971785
0.28304769550494496 0.8097119099753329 0.3949754324542094
0.18859735084068907 0.9013252927764169 0.4163388469560972
0.18657994288385807 0.7892660790736898 0.49663808669598286
0.29521686170777633 0.8867934947893151 0.5287192758971785
0.483047695504945 0.8097119099753329 0.3949754324542094
0.3885973508406891 0.9013252927764169 0.4163388469560972
0.3865799428838581 0.7892660790736898 0.49663808669598286
0.49521686170777635 0.8867934947893151 0.5287192758971785
0.6830476955049449 0.8097119099753329 0.3949754324542094
0.5885973508406891 0.9013252927764169 0.4163388469560972
0.5865799428838581 0.7892660790736898 0.49663808669598286
0.6952168617077764 0.8867934947893151 0.5287192758971785
0.8830476955049451 0.8097119099753329 0.3949754324542094
0.7885973508406892 0.9013252927764169 0.4163388469560972
0.7865799428838581 0.7892660790736898 0.49663808669598286
0.8952168617077764 0.8867934947893151 0.5287192758971785
0.08304769550494495 0.009711909975332798 0.5949754324542094
-0.011402649159310942 0.10132529277641687 0.6163388469560972
-0.013420057116141927 -0.010733920926310215 0.6966380866959829
0.09521686170777632 0.08679349478931515 0.7287192758971786
0.28304769550494496 0.009711909975332798 0.5949754324542094
0.18859735084068907 0.10132529277641687 0.6163388469560972
0.18657994288385807 -0.010733920926310215 0.6966380866959829
0.29521686170777633 0.08679349478931515 0.7287192758971786
0.483047695504945 0.009711909975332798 0.5949754324542094
0.3885973508406891 0.10132529277641687 0.6163388469560972
0.3865799428838581 -0.010733920926310215 0.6966380866959829
0.49521686170777635 0.08679349478931515 0.7287192758971786
0.6830476955049449 0.009711909975332798 0.5949754324542094
0.5885973508406891 0.10132529277641687 0.6163388469560972
0.5865799428838581 -0.010733920926310215 0.6966380866959829
0.6952168617077764 0.08679349478931515 0.7287192758971786
0.8830476955049451 0.009711909975332798 0.5949754324542094
0.7885973508406892 0.10132529277641687 0.6163388469560972
0.7865799428838581 -0.010733920926310215 0.6966380866959829
0.8952168617077764 0.08679349478931515 0.7287192758971786
0.08304769550494495 0.20971190997533282 0.5949754324542094
-0.011402649159310942 0.3013252927764169 0.6163388469560972
-0.013420057116141927 0.1892660790736898 0.6966380866959829
0.09521686170777632 0.28679349478931515 0.7287192758971786
0.28304769550494496 0.20971190997533282 0.5949754324542094
0.18859735084068907 0.3013252927764169 0.6163388469560972
0.18657994288385807 0.1892660790736898 0.6966380866959829
0.29521686170777633 0.28679349478931515 0.7287192758971786
0.483047695504945 0.20971190997533282 0.5949754324542094
0.3885973508406891 0.3013252927764169 0.6163388469560972
0.3865799428838581 0.1892660790736898 0.6966380866959829
0.49521686170777635 0.28679349478931515 0.7287192758971786
0.6830476955049449 0.20971190997533282 0.5949754324542094
0.5885973508406891 0.3013252927764169 0.6163388469560972
0.5865799428838581 0.1892660790736898 0.6966380866959829
0.6952168617077764 0.28679349478931515 0.7287192758971786
0.8830476955049451 0.20971190997533282 0.5949754324542094
0.7885973508406892 0.3013252927764169 0.6163388469560972
0.7865799428838581 0.1892660790736898 0.6966380866959829
0.8952168617077764 0.28679349478931515 0.7287192758971786
0.08304769550494495 0.4097119099753328 0.5949754324542094
-0.011402649159310942 0.5013252927764169 0.6163388469560972
-0.013420057116141927 0.3892660790736898 0.6966380866959829
0.09521686170777632 0.48679349478931516 0.7287192758971786
0.28304769550494496 0.4097119099753328 0.5949754324542094
0.18859735084068907 0.5013252927764169 0.6163388469560972
0.18657994288385807 0.3892660790736898 0.6966380866959829
0.29521686170777633 0.48679349478931516 0.7287192758971786
0.483047695504945 0.4097119099753328 0.5949754324542094
0.3885973508406891 0.5013252927764169 0.6163388469560972
0.3865799428838581 0.3892660790736898 0.6966380866959829
0.49521686170777635 0.48679349478931516 0.7287192758971786
0.6830476955049449 0.4097119099753328 0.5949754324542094
0.5885973508406891 0.5013252927764169 0.6163388469560972
0.5865799428838581 0.3892660790736898 0.6966380866959829
0.6952168617077764 0.48679349478931516 0.7287192758971786
0.8830476955049451 0.4097119099753328 0.5949754324542094
0.7885973508406892 0.5013252927764169 0.6163388469560972
0.7865799428838581 0.3892660790736898 0.6966380866959829
0.8952168617077764 0.48679349478931516 0.7287192758971786
0.08304769550494495 0.6097119099753328 0.5949754324542094
-0.011402649159310942 0.701325292776417 0.6163388469560972
-0.013420057116141927 0.5892660790736898 0.6966380866959829
0.09521686170777632 0.6867934947893152 0.7287192758971786
0.28304769550494496 0.6097119099753328 0.5949754324542094
0.18859735084068907 0.701325292776417 0.6163388469560972
0.18657994288385807 0.5892660790736898 0.6966380866959829
0.29521686170777633 0.6867934947893152 0.7287192758971786
0.483047695504945 0.6097119099753328 0.5949754324542094
0.3885973508406891 0.701325292776417 0.6163388469560972
0.3865799428838581 0.5892660790736898 0.6966380866959829
0.49521686170777635 0.6867934947893152 0.7287192758971786
0.6830476955049449 0.6097119099753328 0.5949754324542094
0.5885973508406891 0.701325292776417 0.6163388469560972
0.5865799428838581 0.5892660790736898 0.6966380866959829
0.6952168617077764 0.6867934947893152 0.7287192758971786
0.8830476955049451 0.6097119099753328 0.5949754324542094
0.7885973508406892 0.701325292776417 0.6163388469560972
0.7865799428838581 0.5892660790736898 0.6966380866959829
0.8952168617077764 0.6867934947893152 0.7287192758971786
0.08304769550494495 0.8097119099753329 0.5949754324542094
-0.011402649159310942 0.9013252927764169 0.6163388469560972
-0.013420057116141927 0.7892660790736898 0.6966380866959829
0.09521686170777632 0.8867934947893151 0.7287192758971786
0.28304769550494496 0.8097119099753329 0.5949754324542094
0.18859735084068907 0.9013252927764169 0.6163388469560972
0.18657994288385807 0.7892660790736898 0.6966380866959829
0.29521686170777633 0.8867934947893151 0.7287192758971786
0.483047695504945 0.8097119099753329 0.5949754324542094
0.3885973508406891 0.9013252927764169 0.6163388469560972
0.3865799428838581 0.7892660790736898 0.6966380866959829
0.49521686170777635 0.8867934947893151 0.7287192758971786
0.6830476955049449 0.8097119099753329 0.5949754324542094
0.5885973508406891 0.9013252927764169 0.6163388469560972
0.5865799428838581 0.7892660790736898 0.6966380866959829
0.6952168617077764 0.8867934947893151 0.7287192758971786
0.8830476955049451 0.8097119099753329 0.5949754324542094
0.7885973508406892 0.9013252927764169 0.6163388469560972
0.7865799428838581 0.7892660790736898 0.6966380866959829
0.8952168617077764 0.8867934947893151 0.7287192758971786
0.08304769550494495 0.009711909975332798 0.7949754324542093
-0.011402649159310942 0.10132529277641687 0.8163388469560972
-0.013420057116141927 -0.010733920926310215 0.8966380866959828
0.09521686170777632 0.08679349478931515 0.9287192758971785
0.28304769550494496 0.009711909975332798 0.7949754324542093
0.18859735084068907 0.10132529277641687 0.8163388469560972
0.18657994288385807 -0.010733920926310215 0.8966380866959828
0.29521686170777633 0.08679349478931515 0.9287192758971785
0.483047695504945 0.009711909975332798 0.7949754324542093
0.3885973508406891 0.10132529277641687 0.8163388469560972
0.3865799428838581 -0.010733920926310215 0.8966380866959828
0.49521686170777635 0.08679349478931515 0.9287192758971785
0.6830476955049449 0.009711909975332798 0.7949754324542093
0.5885973508406891 0.10132529277641687 0.8163388469560972
0.5865799428838581 -0.010733920926310215 0.8966380866959828
0.6952168617077764 0.08679349478931515 0.9287192758971785
0.8830476955049451 0.009711909975332798 0.7949754324542093
0.7885973508406892 0.10132529277641687 0.8163388469560972
0.7865799428838581 -0.010733920926310215 0.8966380866959828
0.8952168617077764 0.08679349478931515 0.9287192758971785
0.08304769550494495 0.20971190997533282 0.7949754324542093
-0.011402649159310942 0.3013252927764169 0.8163388469560972
-0.013420057116141927 0.1892660790736898 0.8966380866959828
0.09521686170777632 0.28679349478931515 0.9287192758971785
0.28304769550494496 0.20971190997533282 0.7949754324542093
0.18859735084068907 0.3013252927764169 0.8163388469560972
0.18657994288385807 0.1892660790736898 0.8966380866959828
0.29521686170777633 0.28679349478931515 0.9287192758971785
0.483047695504945 0.20971190997533282 0.7949754324542093
0.3885973508406891 0.3013252927764169 0.8163388469560972
0.3865799428838581 0.1892660790736898 0.8966380866959828
0.49521686170777635 0.28679349478931515 0.9287192758971785
0.6830476955049449 0.20971190997533282 0.7949754324542093
0.5885973508406891 0.3013252927764169 0.8163388469560972
0.5865799428838581 0.1892660790736898 0.8966380866959828
0.6952168617077764 0.28679349478931515 0.9287192758971785
0.8830476955049451 0.20971190997533282 0.7949754324542093
0.7885973508406892 0.3013252927764169 0.8163388469560972
0.7865799428838581 0.1892660790736898 0.8966380866959828
0.8952168617077764 0.28679349478931515 0.9287192758971785
0.08304769550494495 0.4097119099753328 0.7949754324542093
-0.011402649159310942 0.5013252927764169 0.8163388469560972
-0.013420057116141927 0.3892660790736898 0.8966380866959828
0.09521686170777632 0.48679349478931516 0.9287192758971785
0.28304769550494496 0.4097119099753328 0.7949754324542093
0.18859735084068907 0.5013252927764169 0.8163388469560972
0.18657994288385807 0.3892660790736898 0.8966380866959828
0.29521686170777633 0.48679349478931516 0.9287192758971785
0.483047695504945 0.4097119099753328 0.7949754324542093
0.3885973508406891 0.5013252927764169 0.8163388469560972
0.3865799428838581 0.3892660790736898 0.8966380866959828
0.49521686170777635 0.48679349478931516 0.9287192758971785
0.6830476955049449 0.4097119099753328 0.7949754324542093
0.5885973508406891 0.5013252927764169 0.8163388469560972
0.5865799428838581 0.3892660790736898 0.8966380866959828
0.6952168617077764 0.48679349478931516 0.9287192758971785
0.8830476955049451 0.4097119099753328 0.7949754324542093
0.7885973508406892 0.5013252927764169 0.8163388469560972
0.7865799428838581 0.3892660790736898 0.8966380866959828
0.8952168617077764 0.48679349478931516 0.9287192758971785
0.08304769550494495 0.6097119099753328 0.7949754324542093
-0.011402649159310942 0.701325292776417 0.8163388469560972
-0.013420057116141927 0.5892660790736898 0.8966380866959828
0.09521686170777632 0.6867934947893152 0.9287192758971785
0.28304769550494496 0.6097119099753328 0.7949754324542093
0.18859735084068907 0.701325292776417 0.8163388469560972
0.18657994288385807 0.5892660790736898 0.8966380866959828
0.29521686170777633 0.6867934947893152 0.9287192758971785
0.483047695504945 0.6097119099753328 0.7949754324542093
0.3885973508406891 0.701325292776417 0.8163388469560972
0.3865799428838581 0.5892660790736898 0.8966380866959828
0.49521686170777635 0.6867934947893152 0.9287192758971785
0.6830476955049449 0.6097119099753328 0.7949754324542093
0.5885973508406891 0.701325292776417 0.8163388469560972
0.5865799428838581 0.5892660790736898 0.8966380866959828
0.6952168617077764 0.6867934947893152 0.9287192758971785
0.8830476955049451 0.6097119099753328 0.7949754324542093
0.7885973508406892 0.701325292776417 0.8163388469560972
0.7865799428838581 0.5892660790736898 0.8966380866959828
0.8952168617077764 0.6867934947893152 0.9287192758971785
0.08304769550494495 0.8097119099753329 0.7949754324542093
-0.011402649159310942 0.9013252927764169 0.8163388469560972
-0.013420057116141927 0.7892660790736898 0.8966380866959828
0.09521686170777632 0.8867934947893151 0.9287192758971785
0.28304769550494496 0.8097119099753329 0.7949754324542093
0.18859735084068907 0.9013252927764169 0.8163388469560972
0.18657994288385807 0.7892660790736898 0.8966380866959828
0.29521686170777633 0.8867934947893151 0.9287192758971785
0.483047695504945 0.8097119099753329 0.7949754324542093
0.3885973508406891 0.9013252927764169 0.8163388469560972
0.3865799428838581 0.7892660790736898 0.8966380866959828
0.49521686170777635 0.8867934947893151 0.9287192758971785
0.6830476955049449 0.8097119099753329 0.7949754324542093
0.5885973508406891 0.9013252927764169 0.8163388469560972
0.5865799428838581 0.7892660790736898 0.8966380866959828
0.6952168617077764 0.8867934947893151 0.9287192758971785
0.8830476955049451 0.8097119099753329 0.7949754324542093
0.7885973508406892 0.9013252927764169 0.8163388469560972
0.7865799428838581 0.7892660790736898 0.8966380866959828
0.8952168617077764 0.8867934947893151 0.9287192758971785
