FCC BaO
3.971
5.0 0.0 0.0
0.0 5.0 0.0
0.0 0.0 5.0
Ba O 
500 500 
Direct
-0.025720234764873135 0.009947530573565427 -0.023678266178997705
0.012721986780465575 0.0772579923588279 0.08077692359371505
0.12534013223115667 -0.0011185985149598332 0.08376049001357792
0.10111877312972084 0.08617656785857368 -0.006760490774543712
0.1742797652351269 0.009947530573565427 -0.023678266178997705
0.2127219867804656 0.0772579923588279 0.08077692359371505
0.32534013223115665 -0.0011185985149598332 0.08376049001357792
0.30111877312972085 0.08617656785857368 -0.006760490774543712
0.37427976523512685 0.009947530573565427 -0.023678266178997705
0.4127219867804656 0.0772579923588279 0.08077692359371505
0.5253401322311566 -0.0011185985149598332 0.08376049001357792
0.5011187731297209 0.08617656785857368 -0.006760490774543712
0.5742797652351269 0.009947530573565427 -0.023678266178997705
0.6127219867804656 0.0772579923588279 0.08077692359371505
0.7253401322311567 -0.0011185985149598332 0.08376049001357792
0.7011187731297208 0.08617656785857368 -0.006760490774543712
0.7742797652351269 0.009947530573565427 -0.023678266178997705
0.8127219867804656 0.0772579923588279 0.08077692359371505
0.9253401322311566 -0.0011185985149598332 0.08376049001357792
0.901118773129721 0.08617656785857368 -0.006760490774543712
-0.025720234764873135 0.2099475305735654 -0.023678266178997705
0.012721986780465575 0.2772579923588279 0.08077692359371505
0.12534013223115667 0.1988814014850402 0.08376049001357792
0.10111877312972084 0.28617656785857365 -0.006760490774543712
0.1742797652351269 0.2099475305735654 -0.023678266178997705
0.2127219867804656 0.2772579923588279 0.08077692359371505
0.32534013223115665 0.1988814014850402 0.08376049001357792
0.30111877312972085 0.28617656785857365 -0.006760490774543712
0.37427976523512685 0.2099475305735654 -0.023678266178997705
0.4127219867804656 0.2772579923588279 0.08077692359371505
0.5253401322311566 0.1988814014850402 0.08376049001357792
0.5011187731297209 0.28617656785857365 -0.006760490774543712
0.5742797652351269 0.2099475305735654 -0.023678266178997705
0.6127219867804656 0.2772579923588279 0.08077692359371505
0.7253401322311567 0.1988814014850402 0.08376049001357792
0.7011187731297208 0.28617656785857365 -0.006760490774543712
0.7742797652351269 0.2099475305735654 -0.023678266178997705
0.8127219867804656 0.2772579923588279 0.08077692359371505
0.9253401322311566 0.1988814014850402 0.08376049001357792
0.901118773129721 0.28617656785857365 -0.006760490774543712
-0.025720234764873135 0.4099475305735655 -0.023678266178997705
0.012721986780465575 0.47725799235882793 0.08077692359371505
0.12534013223115667 0.3988814014850402 0.08376049001357792
0.10111877312972084 0.4861765678585737 -0.006760490774543712
0.1742797652351269 0.4099475305735655 -0.023678266178997705
0.2127219867804656 0.47725799235882793 0.08077692359371505
0.32534013223115665 0.3988814014850402 0.08376049001357792
0.30111877312972085 0.4861765678585737 -0.006760490774543712
0.37427976523512685 0.4099475305735655 -0.023678266178997705
0.4127219867804656 0.47725799235882793 0.08077692359371505
0.5253401322311566 0.3988814014850402 0.08376049001357792
0.5011187731297209 0.4861765678585737 -0.006760490774543712
0.5742797652351269 0.4099475305735655 -0.023678266178997705
0.6127219867804656 0.47725799235882793 0.08077692359371505
0.7253401322311567 0.3988814014850402 0.08376049001357792
0.7011187731297208 0.4861765678585737 -0.006760490774543712
0.7742797652351269 0.4099475305735655 -0.023678266178997705
0.8127219867804656 0.47725799235882793 0.08077692359371505
0.9253401322311566 0.3988814014850402 0.08376049001357792
0.901118773129721 0.4861765678585737 -0.006760490774543712
-0.025720234764873135 0.6099475305735655 -0.023678266178997705
0.012721986780465575 0.677257992358828 0.08077692359371505
0.12534013223115667 0.5988814014850402 0.08376049001357792
0.10111877312972084 0.6861765678585737 -0.006760490774543712
0.1742797652351269 0.6099475305735655 -0.023678266178997705
0.2127219867804656 0.677257992358828 0.08077692359371505
0.32534013223115665 0.5988814014850402 0.08376049001357792
0.30111877312972085 0.6861765678585737 -0.006760490774543712
0.37427976523512685 0.6099475305735655 -0.023678266178997705
0.4127219867804656 0.677257992358828 0.08077692359371505
0.5253401322311566 0.5988814014850402 0.08376049001357792
0.5011187731297209 0.6861765678585737 -0.006760490774543712
0.5742797652351269 0.6099475305735655 -0.023678266178997705
0.6127219867804656 0.677257992358828 0.08077692359371505
0.7253401322311567 0.5988814014850402 0.08376049001357792
0.7011187731297208 0.6861765678585737 -0.006760490774543712
0.7742797652351269 0.6099475305735655 -0.023678266178997705
0.8127219867804656 0.677257992358828 0.08077692359371505
0.9253401322311566 0.5988814014850402 0.08376049001357792
0.901118773129721 0.6861765678585737 -0.006760490774543712
-0.025720234764873135 0.8099475305735654 -0.023678266178997705
0.012721986780465575 0.8772579923588278 0.08077692359371505
0.12534013223115667 0.7988814014850402 0.08376049001357792
0.10111877312972084 0.8861765678585738 -0.006760490774543712
0.1742797652351269 0.8099475305735654 -0.023678266178997705
0.2127219867804656 0.8772579923588278 0.08077692359371505
0.32534013223115665 0.7988814014850402 0.08376049001357792
0.30111877312972085 0.8861765678585738 -0.006760490774543712
0.37427976523512685 0.8099475305735654 -0.023678266178997705
0.4127219867804656 0.8772579923588278 0.08077692359371505
0.5253401322311566 0.7988814014850402 0.08376049001357792
0.5011187731297209 0.8861765678585738 -0.006760490774543712
0.5742797652351269 0.8099475305735654 -0.023678266178997705
0.6127219867804656 0.8772579923588278 0.08077692359371505
0.7253401322311567 0.7988814014850402 0.08376049001357792
0.7011187731297208 0.8861765678585738 -0.006760490774543712
0.7742797652351269 0.8099475305735654 -0.023678266178997705
0.8127219867804656 0.8772579923588278 0.08077692359371505
0.9253401322311566 0.7988814014850402 0.08376049001357792
0.901118773129721 0.8861765678585738 -0.006760490774543712
-0.025720234764873135 0.009947530573565427 0.1763217338210023
0.012721986780465575 0.0772579923588279 0.28077692359371503
0.12534013223115667 -0.0011185985149598332 0.2837604900135779
0.10111877312972084 0.08617656785857368 0.1932395092254563
0.1742797652351269 0.009947530573565427 0.1763217338210023
0.2127219867804656 0.0772579923588279 0.28077692359371503
0.32534013223115665 -0.0011185985149598332 0.2837604900135779
0.30111877312972085 0.08617656785857368 0.1932395092254563
0.37427976523512685 0.009947530573565427 0.1763217338210023
0.4127219867804656 0.0772579923588279 0.28077692359371503
0.5253401322311566 -0.0011185985149598332 0.2837604900135779
0.5011187731297209 0.08617656785857368 0.1932395092254563
0.5742797652351269 0.009947530573565427 0.1763217338210023
0.6127219867804656 0.0772579923588279 0.28077692359371503
0.7253401322311567 -0.0011185985149598332 0.2837604900135779
0.7011187731297208 0.08617656785857368 0.1932395092254563
0.7742797652351269 0.009947530573565427 0.1763217338210023
0.8127219867804656 0.0772579923588279 0.28077692359371503
0.9253401322311566 -0.0011185985149598332 0.2837604900135779
0.901118773129721 0.08617656785857368 0.1932395092254563
-0.025720234764873135 0.2099475305735654 0.1763217338210023
0.012721986780465575 0.2772579923588279 0.28077692359371503
0.12534013223115667 0.1988814014850402 0.2837604900135779
0.10111877312972084 0.28617656785857365 0.1932395092254563
0.1742797652351269 0.2099475305735654 0.1763217338210023
0.2127219867804656 0.2772579923588279 0.28077692359371503
0.32534013223115665 0.1988814014850402 0.2837604900135779
0.30111877312972085 0.28617656785857365 0.1932395092254563
0.37427976523512685 0.2099475305735654 0.1763217338210023
0.4127219867804656 0.2772579923588279 0.28077692359371503
0.5253401322311566 0.1988814014850402 0.2837604900135779
0.5011187731297209 0.28617656785857365 0.1932395092254563
0.5742797652351269 0.2099475305735654 0.1763217338210023
0.6127219867804656 0.2772579923588279 0.28077692359371503
0.7253401322311567 0.1988814014850402 0.2837604900135779
0.7011187731297208 0.28617656785857365 0.1932395092254563
0.7742797652351269 0.2099475305735654 0.1763217338210023
0.8127219867804656 0.2772579923588279 0.28077692359371503
0.9253401322311566 0.1988814014850402 0.2837604900135779
0.901118773129721 0.28617656785857365 0.1932395092254563
-0.025720234764873135 0.4099475305735655 0.1763217338210023
0.012721986780465575 0.47725799235882793 0.28077692359371503
0.12534013223115667 0.3988814014850402 0.2837604900135779
0.10111877312972084 0.4861765678585737 0.1932395092254563
0.1742797652351269 0.4099475305735655 0.1763217338210023
0.2127219867804656 0.47725799235882793 0.28077692359371503
0.32534013223115665 0.3988814014850402 0.2837604900135779
0.30111877312972085 0.4861765678585737 0.1932395092254563
0.37427976523512685 0.4099475305735655 0.1763217338210023
0.4127219867804656 0.47725799235882793 0.28077692359371503
0.5253401322311566 0.3988814014850402 0.2837604900135779
0.5011187731297209 0.4861765678585737 0.1932395092254563
0.5742797652351269 0.4099475305735655 0.1763217338210023
0.6127219867804656 0.47725799235882793 0.28077692359371503
0.7253401322311567 0.3988814014850402 0.2837604900135779
0.7011187731297208 0.4861765678585737 0.1932395092254563
0.7742797652351269 0.4099475305735655 0.1763217338210023
0.8127219867804656 0.47725799235882793 0.28077692359371503
0.9253401322311566 0.3988814014850402 0.2837604900135779
0.901118773129721 0.4861765678585737 0.1932395092254563
-0.025720234764873135 0.6099475305735655 0.1763217338210023
0.012721986780465575 0.677257992358828 0.28077692359371503
0.12534013223115667 0.5988814014850402 0.2837604900135779
0.10111877312972084 0.6861765678585737 0.1932395092254563
0.1742797652351269 0.6099475305735655 0.1763217338210023
0.2127219867804656 0.677257992358828 0.28077692359371503
0.32534013223115665 0.5988814014850402 0.2837604900135779
0.30111877312972085 0.6861765678585737 0.1932395092254563
0.37427976523512685 0.6099475305735655 0.1763217338210023
0.4127219867804656 0.677257992358828 0.28077692359371503
0.5253401322311566 0.5988814014850402 0.2837604900135779
0.5011187731297209 0.6861765678585737 0.1932395092254563
0.5742797652351269 0.6099475305735655 0.1763217338210023
0.6127219867804656 0.677257992358828 0.28077692359371503
0.7253401322311567 0.5988814014850402 0.2837604900135779
0.7011187731297208 0.6861765678585737 0.1932395092254563
0.7742797652351269 0.6099475305735655 0.1763217338210023
0.8127219867804656 0.677257992358828 0.28077692359371503
0.9253401322311566 0.5988814014850402 0.2837604900135779
0.901118773129721 0.6861765678585737 0.1932395092254563
-0.025720234764873135 0.8099475305735654 0.1763217338210023
0.012721986780465575 0.8772579923588278 0.28077692359371503
0.12534013223115667 0.7988814014850402 0.2837604900135779
0.10111877312972084 0.8861765678585738 0.1932395092254563
0.1742797652351269 0.8099475305735654 0.1763217338210023
0.2127219867804656 0.8772579923588278 0.28077692359371503
0.32534013223115665 0.7988814014850402 0.2837604900135779
0.30111877312972085 0.8861765678585738 0.1932395092254563
0.37427976523512685 0.8099475305735654 0.1763217338210023
0.4127219867804656 0.8772579923588278 0.28077692359371503
0.5253401322311566 0.7988814014850402 0.2837604900135779
0.5011187731297209 0.8861765678585738 0.1932395092254563
0.5742797652351269 0.8099475305735654 0.1763217338210023
0.6127219867804656 0.8772579923588278 0.28077692359371503
0.7253401322311567 0.7988814014850402 0.2837604900135779
0.7011187731297208 0.8861765678585738 0.1932395092254563
0.7742797652351269 0.8099475305735654 0.1763217338210023
0.8127219867804656 0.8772579923588278 0.28077692359371503
0.9253401322311566 0.7988814014850402 0.2837604900135779
0.901118773129721 0.8861765678585738 0.1932395092254563
-0.025720234764873135 0.009947530573565427 0.3763217338210023
0.012721986780465575 0.0772579923588279 0.48077692359371504
0.12534013223115667 -0.0011185985149598332 0.4837604900135779
0.10111877312972084 0.08617656785857368 0.3932395092254563
0.1742797652351269 0.009947530573565427 0.3763217338210023
0.2127219867804656 0.0772579923588279 0.48077692359371504
0.32534013223115665 -0.0011185985149598332 0.4837604900135779
0.30111877312972085 0.08617656785857368 0.3932395092254563
0.37427976523512685 0.009947530573565427 0.3763217338210023
0.4127219867804656 0.0772579923588279 0.48077692359371504
0.5253401322311566 -0.0011185985149598332 0.4837604900135779
0.5011187731297209 0.08617656785857368 0.3932395092254563
0.5742797652351269 0.009947530573565427 0.3763217338210023
0.6127219867804656 0.0772579923588279 0.48077692359371504
0.7253401322311567 -0.0011185985149598332 0.4837604900135779
0.7011187731297208 0.08617656785857368 0.3932395092254563
0.7742797652351269 0.009947530573565427 0.3763217338210023
0.8127219867804656 0.0772579923588279 0.48077692359371504
0.9253401322311566 -0.0011185985149598332 0.4837604900135779
0.901118773129721 0.08617656785857368 0.3932395092254563
-0.025720234764873135 0.2099475305735654 0.3763217338210023
0.012721986780465575 0.2772579923588279 0.48077692359371504
0.12534013223115667 0.1988814014850402 0.4837604900135779
0.10111877312972084 0.28617656785857365 0.3932395092254563
0.1742797652351269 0.2099475305735654 0.3763217338210023
0.2127219867804656 0.2772579923588279 0.48077692359371504
0.32534013223115665 0.1988814014850402 0.4837604900135779
0.30111877312972085 0.28617656785857365 0.3932395092254563
0.37427976523512685 0.2099475305735654 0.3763217338210023
0.4127219867804656 0.2772579923588279 0.48077692359371504
0.5253401322311566 0.1988814014850402 0.4837604900135779
0.5011187731297209 0.28617656785857365 0.3932395092254563
0.5742797652351269 0.2099475305735654 0.3763217338210023
0.6127219867804656 0.2772579923588279 0.48077692359371504
0.7253401322311567 0.1988814014850402 0.4837604900135779
0.7011187731297208 0.28617656785857365 0.3932395092254563
0.7742797652351269 0.2099475305735654 0.3763217338210023
0.8127219867804656 0.2772579923588279 0.48077692359371504
0.9253401322311566 0.1988814014850402 0.4837604900135779
0.901118773129721 0.28617656785857365 0.3932395092254563
-0.025720234764873135 0.4099475305735655 0.3763217338210023
0.012721986780465575 0.47725799235882793 0.48077692359371504
0.12534013223115667 0.3988814014850402 0.4837604900135779
0.10111877312972084 0.4861765678585737 0.3932395092254563
0.1742797652351269 0.4099475305735655 0.3763217338210023
0.2127219867804656 0.47725799235882793 0.48077692359371504
0.32534013223115665 0.3988814014850402 0.4837604900135779
0.30111877312972085 0.4861765678585737 0.3932395092254563
0.37427976523512685 0.4099475305735655 0.3763217338210023
0.4127219867804656 0.47725799235882793 0.48077692359371504
0.5253401322311566 0.3988814014850402 0.4837604900135779
0.5011187731297209 0.4861765678585737 0.3932395092254563
0.5742797652351269 0.4099475305735655 0.3763217338210023
0.6127219867804656 0.47725799235882793 0.48077692359371504
0.7253401322311567 0.3988814014850402 0.4837604900135779
0.7011187731297208 0.4861765678585737 0.3932395092254563
0.7742797652351269 0.4099475305735655 0.3763217338210023
0.8127219867804656 0.47725799235882793 0.48077692359371504
0.9253401322311566 0.3988814014850402 0.4837604900135779
0.901118773129721 0.4861765678585737 0.3932395092254563
-0.025720234764873135 0.6099475305735655 0.3763217338210023
0.012721986780465575 0.677257992358828 0.48077692359371504
0.12534013223115667 0.5988814014850402 0.4837604900135779
0.10111877312972084 0.6861765678585737 0.3932395092254563
0.1742797652351269 0.6099475305735655 0.3763217338210023
0.2127219867804656 0.677257992358828 0.48077692359371504
0.32534013223115665 0.5988814014850402 0.4837604900135779
0.30111877312972085 0.6861765678585737 0.3932395092254563
0.37427976523512685 0.6099475305735655 0.3763217338210023
0.4127219867804656 0.677257992358828 0.48077692359371504
0.5253401322311566 0.5988814014850402 0.4837604900135779
0.5011187731297209 0.6861765678585737 0.3932395092254563
0.5742797652351269 0.6099475305735655 0.3763217338210023
0.6127219867804656 0.677257992358828 0.48077692359371504
0.7253401322311567 0.5988814014850402 0.4837604900135779
0.7011187731297208 0.6861765678585737 0.3932395092254563
0.7742797652351269 0.6099475305735655 0.3763217338210023
0.8127219867804656 0.677257992358828 0.48077692359371504
0.9253401322311566 0.5988814014850402 0.4837604900135779
0.901118773129721 0.6861765678585737 0.3932395092254563
-0.025720234764873135 0.8099475305735654 0.3763217338210023
0.012721986780465575 0.8772579923588278 0.48077692359371504
0.12534013223115667 0.7988814014850402 0.4837604900135779
0.10111877312972084 0.8861765678585738 0.3932395092254563
0.1742797652351269 0.8099475305735654 0.3763217338210023
0.2127219867804656 0.8772579923588278 0.48077692359371504
0.32534013223115665 0.7988814014850402 0.4837604900135779
0.30111877312972085 0.8861765678585738 0.3932395092254563
0.37427976523512685 0.8099475305735654 0.3763217338210023
0.4127219867804656 0.8772579923588278 0.48077692359371504
0.5253401322311566 0.7988814014850402 0.4837604900135779
0.5011187731297209 0.8861765678585738 0.3932395092254563
0.5742797652351269 0.8099475305735654 0.3763217338210023
0.6127219867804656 0.8772579923588278 0.48077692359371504
0.7253401322311567 0.7988814014850402 0.4837604900135779
0.7011187731297208 0.8861765678585738 0.3932395092254563
0.7742797652351269 0.8099475305735654 0.3763217338210023
0.8127219867804656 0.8772579923588278 0.48077692359371504
0.9253401322311566 0.7988814014850402 0.4837604900135779
0.901118773129721 0.8861765678585738 0.3932395092254563
-0.025720234764873135 0.009947530573565427 0.5763217338210023
0.012721986780465575 0.0772579923588279 0.6807769235937151
0.12534013223115667 -0.0011185985149598332 0.683760490013578
0.10111877312972084 0.08617656785857368 0.5932395092254563
0.1742797652351269 0.009947530573565427 0.5763217338210023
0.2127219867804656 0.0772579923588279 0.6807769235937151
0.32534013223115665 -0.0011185985149598332 0.683760490013578
0.30111877312972085 0.08617656785857368 0.5932395092254563
0.37427976523512685 0.009947530573565427 0.5763217338210023
0.4127219867804656 0.0772579923588279 0.6807769235937151
0.5253401322311566 -0.0011185985149598332 0.683760490013578
0.5011187731297209 0.08617656785857368 0.5932395092254563
0.5742797652351269 0.009947530573565427 0.5763217338210023
0.6127219867804656 0.0772579923588279 0.6807769235937151
0.7253401322311567 -0.0011185985149598332 0.683760490013578
0.7011187731297208 0.08617656785857368 0.5932395092254563
0.7742797652351269 0.009947530573565427 0.5763217338210023
0.8127219867804656 0.0772579923588279 0.6807769235937151
0.9253401322311566 -0.0011185985149598332 0.683760490013578
0.901118773129721 0.08617656785857368 0.5932395092254563
-0.025720234764873135 0.2099475305735654 0.5763217338210023
0.012721986780465575 0.2772579923588279 0.6807769235937151
0.12534013223115667 0.1988814014850402 0.683760490013578
0.10111877312972084 0.28617656785857365 0.5932395092254563
0.1742797652351269 0.2099475305735654 0.5763217338210023
0.2127219867804656 0.2772579923588279 0.6807769235937151
0.32534013223115665 0.1988814014850402 0.683760490013578
0.30111877312972085 0.28617656785857365 0.5932395092254563
0.37427976523512685 0.2099475305735654 0.5763217338210023
0.4127219867804656 0.2772579923588279 0.6807769235937151
0.5253401322311566 0.1988814014850402 0.683760490013578
0.5011187731297209 0.28617656785857365 0.5932395092254563
0.5742797652351269 0.2099475305735654 0.5763217338210023
0.6127219867804656 0.2772579923588279 0.6807769235937151
0.7253401322311567 0.1988814014850402 0.683760490013578
0.7011187731297208 0.28617656785857365 0.5932395092254563
0.7742797652351269 0.2099475305735654 0.5763217338210023
0.8127219867804656 0.2772579923588279 0.6807769235937151
0.9253401322311566 0.1988814014850402 0.683760490013578
0.901118773129721 0.28617656785857365 0.5932395092254563
-0.025720234764873135 0.4099475305735655 0.5763217338210023
0.012721986780465575 0.47725799235882793 0.6807769235937151
0.12534013223115667 0.3988814014850402 0.683760490013578
0.10111877312972084 0.4861765678585737 0.5932395092254563
0.1742797652351269 0.4099475305735655 0.5763217338210023
0.2127219867804656 0.47725799235882793 0.6807769235937151
0.32534013223115665 0.3988814014850402 0.683760490013578
0.30111877312972085 0.4861765678585737 0.5932395092254563
0.37427976523512685 0.4099475305735655 0.5763217338210023
0.4127219867804656 0.47725799235882793 0.6807769235937151
0.5253401322311566 0.3988814014850402 0.683760490013578
0.5011187731297209 0.4861765678585737 0.5932395092254563
0.5742797652351269 0.4099475305735655 0.5763217338210023
0.6127219867804656 0.47725799235882793 0.6807769235937151
0.7253401322311567 0.3988814014850402 0.683760490013578
0.7011187731297208 0.4861765678585737 0.5932395092254563
0.7742797652351269 0.4099475305735655 0.5763217338210023
0.8127219867804656 0.47725799235882793 0.6807769235937151
0.9253401322311566 0.3988814014850402 0.683760490013578
0.901118773129721 0.4861765678585737 0.5932395092254563
-0.025720234764873135 0.6099475305735655 0.5763217338210023
0.012721986780465575 0.677257992358828 0.6807769235937151
0.12534013223115667 0.5988814014850402 0.683760490013578
0.10111877312972084 0.6861765678585737 0.5932395092254563
0.1742797652351269 0.6099475305735655 0.5763217338210023
0.2127219867804656 0.677257992358828 0.6807769235937151
0.32534013223115665 0.5988814014850402 0.683760490013578
0.30111877312972085 0.6861765678585737 0.5932395092254563
0.37427976523512685 0.6099475305735655 0.5763217338210023
0.4127219867804656 0.677257992358828 0.6807769235937151
0.5253401322311566 0.5988814014850402 0.683760490013578
0.5011187731297209 0.6861765678585737 0.5932395092254563
0.5742797652351269 0.6099475305735655 0.5763217338210023
0.6127219867804656 0.677257992358828 0.6807769235937151
0.7253401322311567 0.5988814014850402 0.683760490013578
0.7011187731297208 0.6861765678585737 0.5932395092254563
0.7742797652351269 0.6099475305735655 0.5763217338210023
0.8127219867804656 0.677257992358828 0.6807769235937151
0.9253401322311566 0.5988814014850402 0.683760490013578
0.901118773129721 0.6861765678585737 0.5932395092254563
-0.025720234764873135 0.8099475305735654 0.5763217338210023
0.012721986780465575 0.8772579923588278 0.6807769235937151
0.12534013223115667 0.7988814014850402 0.683760490013578
0.10111877312972084 0.8861765678585738 0.5932395092254563
0.1742797652351269 0.8099475305735654 0.5763217338210023
0.2127219867804656 0.8772579923588278 0.6807769235937151
0.32534013223115665 0.7988814014850402 0.683760490013578
0.30111877312972085 0.8861765678585738 0.5932395092254563
0.37427976523512685 0.8099475305735654 0.5763217338210023
0.4127219867804656 0.8772579923588278 0.6807769235937151
0.5253401322311566 0.7988814014850402 0.683760490013578
0.5011187731297209 0.8861765678585738 0.5932395092254563
0.5742797652351269 0.8099475305735654 0.5763217338210023
0.6127219867804656 0.8772579923588278 0.6807769235937151
0.7253401322311567 0.7988814014850402 0.683760490013578
0.7011187731297208 0.8861765678585738 0.5932395092254563
0.7742797652351269 0.8099475305735654 0.5763217338210023
0.8127219867804656 0.8772579923588278 0.6807769235937151
0.9253401322311566 0.7988814014850402 0.683760490013578
0.901118773129721 0.8861765678585738 0.5932395092254563
-0.025720234764873135 0.009947530573565427 0.7763217338210023
0.012721986780465575 0.0772579923588279 0.8807769235937152
0.12534013223115667 -0.0011185985149598332 0.883760490013578
0.10111877312972084 0.08617656785857368 0.7932395092254563
0.1742797652351269 0.009947530573565427 0.7763217338210023
0.2127219867804656 0.0772579923588279 0.8807769235937152
0.32534013223115665 -0.0011185985149598332 0.883760490013578
0.30111877312972085 0.08617656785857368 0.7932395092254563
0.37427976523512685 0.009947530573565427 0.7763217338210023
0.4127219867804656 0.0772579923588279 0.8807769235937152
0.5253401322311566 -0.0011185985149598332 0.883760490013578
0.5011187731297209 0.08617656785857368 0.7932395092254563
0.5742797652351269 0.009947530573565427 0.7763217338210023
0.6127219867804656 0.0772579923588279 0.8807769235937152
0.7253401322311567 -0.0011185985149598332 0.883760490013578
0.7011187731297208 0.08617656785857368 0.7932395092254563
0.7742797652351269 0.009947530573565427 0.7763217338210023
0.8127219867804656 0.0772579923588279 0.8807769235937152
0.9253401322311566 -0.0011185985149598332 0.883760490013578
0.901118773129721 0.08617656785857368 0.7932395092254563
-0.025720234764873135 0.2099475305735654 0.7763217338210023
0.012721986780465575 0.2772579923588279 0.8807769235937152
0.12534013223115667 0.1988814014850402 0.883760490013578
0.10111877312972084 0.28617656785857365 0.7932395092254563
0.1742797652351269 0.2099475305735654 0.7763217338210023
0.2127219867804656 0.2772579923588279 0.8807769235937152
0.32534013223115665 0.1988814014850402 0.883760490013578
0.30111877312972085 0.28617656785857365 0.7932395092254563
0.37427976523512685 0.2099475305735654 0.7763217338210023
0.4127219867804656 0.2772579923588279 0.8807769235937152
0.5253401322311566 0.1988814014850402 0.883760490013578
0.5011187731297209 0.28617656785857365 0.7932395092254563
0.5742797652351269 0.2099475305735654 0.7763217338210023
0.6127219867804656 0.2772579923588279 0.8807769235937152
0.7253401322311567 0.1988814014850402 0.883760490013578
0.7011187731297208 0.28617656785857365 0.7932395092254563
0.7742797652351269 0.2099475305735654 0.7763217338210023
0.8127219867804656 0.2772579923588279 0.8807769235937152
0.9253401322311566 0.1988814014850402 0.883760490013578
0.901118773129721 0.28617656785857365 0.7932395092254563
-0.025720234764873135 0.4099475305735655 0.7763217338210023
0.012721986780465575 0.47725799235882793 0.8807769235937152
0.12534013223115667 0.3988814014850402 0.883760490013578
0.10111877312972084 0.4861765678585737 0.7932395092254563
0.1742797652351269 0.4099475305735655 0.7763217338210023
0.2127219867804656 0.47725799235882793 0.8807769235937152
0.32534013223115665 0.3988814014850402 0.883760490013578
0.30111877312972085 0.4861765678585737 0.7932395092254563
0.37427976523512685 0.4099475305735655 0.7763217338210023
0.4127219867804656 0.47725799235882793 0.8807769235937152
0.5253401322311566 0.3988814014850402 0.883760490013578
0.5011187731297209 0.4861765678585737 0.7932395092254563
0.5742797652351269 0.4099475305735655 0.7763217338210023
0.6127219867804656 0.47725799235882793 0.8807769235937152
0.7253401322311567 0.3988814014850402 0.883760490013578
0.7011187731297208 0.4861765678585737 0.7932395092254563
0.7742797652351269 0.4099475305735655 0.7763217338210023
0.8127219867804656 0.47725799235882793 0.8807769235937152
0.9253401322311566 0.3988814014850402 0.883760490013578
0.901118773129721 0.4861765678585737 0.7932395092254563
-0.025720234764873135 0.6099475305735655 0.7763217338210023
0.012721986780465575 0.677257992358828 0.8807769235937152
0.12534013223115667 0.5988814014850402 0.883760490013578
0.10111877312972084 0.6861765678585737 0.7932395092254563
0.1742797652351269 0.6099475305735655 0.7763217338210023
0.2127219867804656 0.677257992358828 0.8807769235937152
0.32534013223115665 0.5988814014850402 0.883760490013578
0.30111877312972085 0.6861765678585737 0.7932395092254563
0.37427976523512685 0.6099475305735655 0.7763217338210023
0.4127219867804656 0.677257992358828 0.8807769235937152
0.5253401322311566 0.5988814014850402 0.883760490013578
0.5011187731297209 0.6861765678585737 0.7932395092254563
0.5742797652351269 0.6099475305735655 0.7763217338210023
0.6127219867804656 0.677257992358828 0.8807769235937152
0.7253401322311567 0.5988814014850402 0.883760490013578
0.7011187731297208 0.6861765678585737 0.7932395092254563
0.7742797652351269 0.6099475305735655 0.7763217338210023
0.8127219867804656 0.677257992358828 0.8807769235937152
0.9253401322311566 0.5988814014850402 0.883760490013578
0.901118773129721 0.6861765678585737 0.7932395092254563
-0.025720234764873135 0.8099475305735654 0.7763217338210023
0.012721986780465575 0.8772579923588278 0.8807769235937152
0.12534013223115667 0.7988814014850402 0.883760490013578
0.10111877312972084 0.8861765678585738 0.7932395092254563
0.1742797652351269 0.8099475305735654 0.7763217338210023
0.2127219867804656 0.8772579923588278 0.8807769235937152
0.32534013223115665 0.7988814014850402 0.883760490013578
0.30111877312972085 0.8861765678585738 0.7932395092254563
0.37427976523512685 0.8099475305735654 0.7763217338210023
0.4127219867804656 0.8772579923588278 0.8807769235937152
0.5253401322311566 0.7988814014850402 0.883760490013578
0.5011187731297209 0.8861765678585738 0.7932395092254563
0.5742797652351269 0.8099475305735654 0.7763217338210023
0.6127219867804656 0.8772579923588278 0.8807769235937152
0.7253401322311567 0.7988814014850402 0.883760490013578
0.7011187731297208 0.8861765678585738 0.7932395092254563
0.7742797652351269 0.8099475305735654 0.7763217338210023
0.8127219867804656 0.8772579923588278 0.8807769235937152
0.9253401322311566 0.7988814014850402 0.883760490013578
0.901118773129721 0.8861765678585738 0.7932395092254563
0.07415615074932648 0.010391207058147924 -0.029057190832473496
-0.01114514588243652 0.09619072764898443 -0.02651915218116445
0.006259385453746201 -0.009523281217813 0.084176447807786
0.07782998268180506 0.07079503462911349 0.11838795058030933
0.2741561507493265 0.010391207058147924 -0.029057190832473496
0.1888548541175635 0.09619072764898443 -0.02651915218116445
0.2062593854537462 -0.009523281217813 0.084176447807786
0.2778299826818051 0.07079503462911349 0.11838795058030933
0.47415615074932654 0.010391207058147924 -0.029057190832473496
0.3888548541175635 0.09619072764898443 -0.02651915218116445
0.4062593854537462 -0.009523281217813 0.084176447807786
0.4778299826818051 0.07079503462911349 0.11838795058030933
0.6741561507493266 0.010391207058147924 -0.029057190832473496
0.5888548541175636 0.09619072764898443 -0.02651915218116445
0.6062593854537462 -0.009523281217813 0.084176447807786
0.6778299826818052 0.07079503462911349 0.11838795058030933
0.8741561507493265 0.010391207058147924 -0.029057190832473496
0.7888548541175635 0.09619072764898443 -0.02651915218116445
0.8062593854537463 -0.009523281217813 0.084176447807786
0.8778299826818051 0.07079503462911349 0.11838795058030933
0.07415615074932648 0.21039120705814793 -0.029057190832473496
-0.01114514588243652 0.29619072764898446 -0.02651915218116445
0.006259385453746201 0.190476718782187 0.084176447807786
0.07782998268180506 0.2707950346291135 0.11838795058030933
0.2741561507493265 0.21039120705814793 -0.029057190832473496
0.1888548541175635 0.29619072764898446 -0.02651915218116445
0.2062593854537462 0.190476718782187 0.084176447807786
0.2778299826818051 0.2707950346291135 0.11838795058030933
0.47415615074932654 0.21039120705814793 -0.029057190832473496
0.3888548541175635 0.29619072764898446 -0.02651915218116445
0.4062593854537462 0.190476718782187 0.084176447807786
0.4778299826818051 0.2707950346291135 0.11838795058030933
0.6741561507493266 0.21039120705814793 -0.029057190832473496
0.5888548541175636 0.29619072764898446 -0.02651915218116445
0.6062593854537462 0.190476718782187 0.084176447807786
0.6778299826818052 0.2707950346291135 0.11838795058030933
0.8741561507493265 0.21039120705814793 -0.029057190832473496
0.7888548541175635 0.29619072764898446 -0.02651915218116445
0.8062593854537463 0.190476718782187 0.084176447807786
0.8778299826818051 0.2707950346291135 0.11838795058030933
0.07415615074932648 0.41039120705814797 -0.029057190832473496
-0.01114514588243652 0.4961907276489845 -0.02651915218116445
0.006259385453746201 0.39047671878218704 0.084176447807786
0.07782998268180506 0.4707950346291135 0.11838795058030933
0.2741561507493265 0.41039120705814797 -0.029057190832473496
0.1888548541175635 0.4961907276489845 -0.02651915218116445
0.2062593854537462 0.39047671878218704 0.084176447807786
0.2778299826818051 0.4707950346291135 0.11838795058030933
0.47415615074932654 0.41039120705814797 -0.029057190832473496
0.3888548541175635 0.4961907276489845 -0.02651915218116445
0.4062593854537462 0.39047671878218704 0.084176447807786
0.4778299826818051 0.4707950346291135 0.11838795058030933
0.6741561507493266 0.41039120705814797 -0.029057190832473496
0.5888548541175636 0.4961907276489845 -0.02651915218116445
0.6062593854537462 0.39047671878218704 0.084176447807786
0.6778299826818052 0.4707950346291135 0.11838795058030933
0.8741561507493265 0.41039120705814797 -0.029057190832473496
0.7888548541175635 0.4961907276489845 -0.02651915218116445
0.8062593854537463 0.39047671878218704 0.084176447807786
0.8778299826818051 0.4707950346291135 0.11838795058030933
0.07415615074932648 0.610391207058148 -0.029057190832473496
-0.01114514588243652 0.6961907276489845 -0.02651915218116445
0.006259385453746201 0.590476718782187 0.084176447807786
0.07782998268180506 0.6707950346291135 0.11838795058030933
0.2741561507493265 0.610391207058148 -0.029057190832473496
0.1888548541175635 0.6961907276489845 -0.02651915218116445
0.2062593854537462 0.590476718782187 0.084176447807786
0.2778299826818051 0.6707950346291135 0.11838795058030933
0.47415615074932654 0.610391207058148 -0.029057190832473496
0.3888548541175635 0.6961907276489845 -0.02651915218116445
0.4062593854537462 0.590476718782187 0.084176447807786
0.4778299826818051 0.6707950346291135 0.11838795058030933
0.6741561507493266 0.610391207058148 -0.029057190832473496
0.5888548541175636 0.6961907276489845 -0.02651915218116445
0.6062593854537462 0.590476718782187 0.084176447807786
0.6778299826818052 0.6707950346291135 0.11838795058030933
0.8741561507493265 0.610391207058148 -0.029057190832473496
0.7888548541175635 0.6961907276489845 -0.02651915218116445
0.8062593854537463 0.590476718782187 0.084176447807786
0.8778299826818051 0.6707950346291135 0.11838795058030933
0.07415615074932648 0.810391207058148 -0.029057190832473496
-0.01114514588243652 0.8961907276489844 -0.02651915218116445
0.006259385453746201 0.7904767187821871 0.084176447807786
0.07782998268180506 0.8707950346291136 0.11838795058030933
0.2741561507493265 0.810391207058148 -0.029057190832473496
0.1888548541175635 0.8961907276489844 -0.02651915218116445
0.2062593854537462 0.7904767187821871 0.084176447807786
0.2778299826818051 0.8707950346291136 0.11838795058030933
0.47415615074932654 0.810391207058148 -0.029057190832473496
0.3888548541175635 0.8961907276489844 -0.02651915218116445
0.4062593854537462 0.7904767187821871 0.084176447807786
0.4778299826818051 0.8707950346291136 0.11838795058030933
0.6741561507493266 0.810391207058148 -0.029057190832473496
0.5888548541175636 0.8961907276489844 -0.02651915218116445
0.6062593854537462 0.7904767187821871 0.084176447807786
0.6778299826818052 0.8707950346291136 0.11838795058030933
0.8741561507493265 0.810391207058148 -0.029057190832473496
0.7888548541175635 0.8961907276489844 -0.02651915218116445
0.8062593854537463 0.7904767187821871 0.084176447807786
0.8778299826818051 0.8707950346291136 0.11838795058030933
0.07415615074932648 0.010391207058147924 0.17094280916752652
-0.01114514588243652 0.09619072764898443 0.17348084781883555
0.006259385453746201 -0.009523281217813 0.284176447807786
0.07782998268180506 0.07079503462911349 0.31838795058030933
0.2741561507493265 0.010391207058147924 0.17094280916752652
0.1888548541175635 0.09619072764898443 0.17348084781883555
0.2062593854537462 -0.009523281217813 0.284176447807786
0.2778299826818051 0.07079503462911349 0.31838795058030933
0.47415615074932654 0.010391207058147924 0.17094280916752652
0.3888548541175635 0.09619072764898443 0.17348084781883555
0.4062593854537462 -0.009523281217813 0.284176447807786
0.4778299826818051 0.07079503462911349 0.31838795058030933
0.6741561507493266 0.010391207058147924 0.17094280916752652
0.5888548541175636 0.09619072764898443 0.17348084781883555
0.6062593854537462 -0.009523281217813 0.284176447807786
0.6778299826818052 0.07079503462911349 0.31838795058030933
0.8741561507493265 0.010391207058147924 0.17094280916752652
0.7888548541175635 0.09619072764898443 0.17348084781883555
0.8062593854537463 -0.009523281217813 0.284176447807786
0.8778299826818051 0.07079503462911349 0.31838795058030933
0.07415615074932648 0.21039120705814793 0.17094280916752652
-0.01114514588243652 0.29619072764898446 0.17348084781883555
0.006259385453746201 0.190476718782187 0.284176447807786
0.07782998268180506 0.2707950346291135 0.31838795058030933
0.2741561507493265 0.21039120705814793 0.17094280916752652
0.1888548541175635 0.29619072764898446 0.17348084781883555
0.2062593854537462 0.190476718782187 0.284176447807786
0.2778299826818051 0.2707950346291135 0.31838795058030933
0.47415615074932654 0.21039120705814793 0.17094280916752652
0.3888548541175635 0.29619072764898446 0.17348084781883555
0.4062593854537462 0.190476718782187 0.284176447807786
0.4778299826818051 0.2707950346291135 0.31838795058030933
0.6741561507493266 0.21039120705814793 0.17094280916752652
0.5888548541175636 0.29619072764898446 0.17348084781883555
0.6062593854537462 0.190476718782187 0.284176447807786
0.6778299826818052 0.2707950346291135 0.31838795058030933
0.8741561507493265 0.21039120705814793 0.17094280916752652
0.7888548541175635 0.29619072764898446 0.17348084781883555
0.8062593854537463 0.190476718782187 0.284176447807786
0.8778299826818051 0.2707950346291135 0.31838795058030933
0.07415615074932648 0.41039120705814797 0.17094280916752652
-0.01114514588243652 0.4961907276489845 0.17348084781883555
0.006259385453746201 0.39047671878218704 0.284176447807786
0.07782998268180506 0.4707950346291135 0.31838795058030933
0.2741561507493265 0.41039120705814797 0.17094280916752652
0.1888548541175635 0.4961907276489845 0.17348084781883555
0.2062593854537462 0.39047671878218704 0.284176447807786
0.2778299826818051 0.4707950346291135 0.31838795058030933
0.47415615074932654 0.41039120705814797 0.17094280916752652
0.3888548541175635 0.4961907276489845 0.17348084781883555
0.4062593854537462 0.39047671878218704 0.284176447807786
0.4778299826818051 0.4707950346291135 0.31838795058030933
0.6741561507493266 0.41039120705814797 0.17094280916752652
0.5888548541175636 0.4961907276489845 0.17348084781883555
0.6062593854537462 0.39047671878218704 0.284176447807786
0.6778299826818052 0.4707950346291135 0.31838795058030933
0.8741561507493265 0.41039120705814797 0.17094280916752652
0.7888548541175635 0.4961907276489845 0.17348084781883555
0.8062593854537463 0.39047671878218704 0.284176447807786
0.8778299826818051 0.4707950346291135 0.31838795058030933
0.07415615074932648 0.610391207058148 0.17094280916752652
-0.01114514588243652 0.6961907276489845 0.17348084781883555
0.006259385453746201 0.590476718782187 0.284176447807786
0.07782998268180506 0.6707950346291135 0.31838795058030933
0.2741561507493265 0.610391207058148 0.17094280916752652
0.1888548541175635 0.6961907276489845 0.17348084781883555
0.2062593854537462 0.590476718782187 0.284176447807786
0.2778299826818051 0.6707950346291135 0.31838795058030933
0.47415615074932654 0.610391207058148 0.17094280916752652
0.3888548541175635 0.6961907276489845 0.17348084781883555
0.4062593854537462 0.590476718782187 0.284176447807786
0.4778299826818051 0.6707950346291135 0.31838795058030933
0.6741561507493266 0.610391207058148 0.17094280916752652
0.5888548541175636 0.6961907276489845 0.17348084781883555
0.6062593854537462 0.590476718782187 0.284176447807786
0.6778299826818052 0.6707950346291135 0.31838795058030933
0.8741561507493265 0.610391207058148 0.17094280916752652
0.7888548541175635 0.6961907276489845 0.17348084781883555
0.8062593854537463 0.590476718782187 0.284176447807786
0.8778299826818051 0.6707950346291135 0.31838795058030933
0.07415615074932648 0.810391207058148 0.17094280916752652
-0.01114514588243652 0.8961907276489844 0.17348084781883555
0.006259385453746201 0.7904767187821871 0.284176447807786
0.07782998268180506 0.8707950346291136 0.31838795058030933
0.2741561507493265 0.810391207058148 0.17094280916752652
0.1888548541175635 0.8961907276489844 0.17348084781883555
0.2062593854537462 0.7904767187821871 0.284176447807786
0.2778299826818051 0.8707950346291136 0.31838795058030933
0.47415615074932654 0.810391207058148 0.17094280916752652
0.3888548541175635 0.8961907276489844 0.17348084781883555
0.4062593854537462 0.7904767187821871 0.284176447807786
0.4778299826818051 0.8707950346291136 0.31838795058030933
0.6741561507493266 0.810391207058148 0.17094280916752652
0.5888548541175636 0.8961907276489844 0.17348084781883555
0.6062593854537462 0.7904767187821871 0.284176447807786
0.6778299826818052 0.8707950346291136 0.31838795058030933
0.8741561507493265 0.810391207058148 0.17094280916752652
0.7888548541175635 0.8961907276489844 0.17348084781883555
0.8062593854537463 0.7904767187821871 0.284176447807786
0.8778299826818051 0.8707950346291136 0.31838795058030933
0.07415615074932648 0.010391207058147924 0.37094280916752653
-0.01114514588243652 0.09619072764898443 0.3734808478188356
0.006259385453746201 -0.009523281217813 0.48417644780778607
0.07782998268180506 0.07079503462911349 0.5183879505803093
0.2741561507493265 0.010391207058147924 0.37094280916752653
0.1888548541175635 0.09619072764898443 0.3734808478188356
0.2062593854537462 -0.009523281217813 0.48417644780778607
0.2778299826818051 0.07079503462911349 0.5183879505803093
0.47415615074932654 0.010391207058147924 0.37094280916752653
0.3888548541175635 0.09619072764898443 0.3734808478188356
0.4062593854537462 -0.009523281217813 0.48417644780778607
0.4778299826818051 0.07079503462911349 0.5183879505803093
0.6741561507493266 0.010391207058147924 0.37094280916752653
0.5888548541175636 0.09619072764898443 0.3734808478188356
0.6062593854537462 -0.009523281217813 0.48417644780778607
0.6778299826818052 0.07079503462911349 0.5183879505803093
0.8741561507493265 0.010391207058147924 0.37094280916752653
0.7888548541175635 0.09619072764898443 0.3734808478188356
0.8062593854537463 -0.009523281217813 0.48417644780778607
0.8778299826818051 0.07079503462911349 0.5183879505803093
0.07415615074932648 0.21039120705814793 0.37094280916752653
-0.01114514588243652 0.29619072764898446 0.3734808478188356
0.006259385453746201 0.190476718782187 0.48417644780778607
0.07782998268180506 0.2707950346291135 0.5183879505803093
0.2741561507493265 0.21039120705814793 0.37094280916752653
0.1888548541175635 0.29619072764898446 0.3734808478188356
0.2062593854537462 0.190476718782187 0.48417644780778607
0.2778299826818051 0.2707950346291135 0.5183879505803093
0.47415615074932654 0.21039120705814793 0.37094280916752653
0.3888548541175635 0.29619072764898446 0.3734808478188356
0.4062593854537462 0.190476718782187 0.48417644780778607
0.4778299826818051 0.2707950346291135 0.5183879505803093
0.6741561507493266 0.21039120705814793 0.37094280916752653
0.5888548541175636 0.29619072764898446 0.3734808478188356
0.6062593854537462 0.190476718782187 0.48417644780778607
0.6778299826818052 0.2707950346291135 0.5183879505803093
0.8741561507493265 0.21039120705814793 0.37094280916752653
0.7888548541175635 0.29619072764898446 0.3734808478188356
0.8062593854537463 0.190476718782187 0.48417644780778607
0.8778299826818051 0.2707950346291135 0.5183879505803093
0.07415615074932648 0.41039120705814797 0.37094280916752653
-0.01114514588243652 0.4961907276489845 0.3734808478188356
0.006259385453746201 0.39047671878218704 0.48417644780778607
0.07782998268180506 0.4707950346291135 0.5183879505803093
0.2741561507493265 0.41039120705814797 0.37094280916752653
0.1888548541175635 0.4961907276489845 0.3734808478188356
0.2062593854537462 0.39047671878218704 0.48417644780778607
0.2778299826818051 0.4707950346291135 0.5183879505803093
0.47415615074932654 0.41039120705814797 0.37094280916752653
0.3888548541175635 0.4961907276489845 0.3734808478188356
0.4062593854537462 0.39047671878218704 0.48417644780778607
0.4778299826818051 0.4707950346291135 0.5183879505803093
0.6741561507493266 0.41039120705814797 0.37094280916752653
0.5888548541175636 0.4961907276489845 0.3734808478188356
0.6062593854537462 0.39047671878218704 0.48417644780778607
0.6778299826818052 0.4707950346291135 0.5183879505803093
0.8741561507493265 0.41039120705814797 0.37094280916752653
0.7888548541175635 0.4961907276489845 0.3734808478188356
0.8062593854537463 0.39047671878218704 0.48417644780778607
0.8778299826818051 0.4707950346291135 0.5183879505803093
0.07415615074932648 0.610391207058148 0.37094280916752653
-0.01114514588243652 0.6961907276489845 0.3734808478188356
0.006259385453746201 0.590476718782187 0.48417644780778607
0.07782998268180506 0.6707950346291135 0.5183879505803093
0.2741561507493265 0.610391207058148 0.37094280916752653
0.1888548541175635 0.6961907276489845 0.3734808478188356
0.2062593854537462 0.590476718782187 0.48417644780778607
0.2778299826818051 0.6707950346291135 0.5183879505803093
0.47415615074932654 0.610391207058148 0.37094280916752653
0.3888548541175635 0.6961907276489845 0.3734808478188356
0.4062593854537462 0.590476718782187 0.48417644780778607
0.4778299826818051 0.6707950346291135 0.5183879505803093
0.6741561507493266 0.610391207058148 0.37094280916752653
0.5888548541175636 0.6961907276489845 0.3734808478188356
0.6062593854537462 0.590476718782187 0.48417644780778607
0.6778299826818052 0.6707950346291135 0.5183879505803093
0.8741561507493265 0.610391207058148 0.37094280916752653
0.7888548541175635 0.6961907276489845 0.3734808478188356
0.8062593854537463 0.590476718782187 0.48417644780778607
0.8778299826818051 0.6707950346291135 0.5183879505803093
0.07415615074932648 0.810391207058148 0.37094280916752653
-0.01114514588243652 0.8961907276489844 0.3734808478188356
0.006259385453746201 0.7904767187821871 0.48417644780778607
0.07782998268180506 0.8707950346291136 0.5183879505803093
0.2741561507493265 0.810391207058148 0.37094280916752653
0.1888548541175635 0.8961907276489844 0.3734808478188356
0.2062593854537462 0.7904767187821871 0.48417644780778607
0.2778299826818051 0.8707950346291136 0.5183879505803093
0.47415615074932654 0.810391207058148 0.37094280916752653
0.3888548541175635 0.8961907276489844 0.3734808478188356
0.4062593854537462 0.7904767187821871 0.48417644780778607
0.4778299826818051 0.8707950346291136 0.5183879505803093
0.6741561507493266 0.810391207058148 0.37094280916752653
0.5888548541175636 0.8961907276489844 0.3734808478188356
0.6062593854537462 0.7904767187821871 0.48417644780778607
0.6778299826818052 0.8707950346291136 0.5183879505803093
0.8741561507493265 0.810391207058148 0.37094280916752653
0.7888548541175635 0.8961907276489844 0.3734808478188356
0.8062593854537463 0.7904767187821871 0.48417644780778607
0.8778299826818051 0.8707950346291136 0.5183879505803093
0.07415615074932648 0.010391207058147924 0.5709428091675265
-0.01114514588243652 0.09619072764898443 0.5734808478188356
0.006259385453746201 -0.009523281217813 0.6841764478077861
0.07782998268180506 0.07079503462911349 0.7183879505803094
0.2741561507493265 0.010391207058147924 0.5709428091675265
0.1888548541175635 0.09619072764898443 0.5734808478188356
0.2062593854537462 -0.009523281217813 0.6841764478077861
0.2778299826818051 0.07079503462911349 0.7183879505803094
0.47415615074932654 0.010391207058147924 0.5709428091675265
0.3888548541175635 0.09619072764898443 0.5734808478188356
0.4062593854537462 -0.009523281217813 0.6841764478077861
0.4778299826818051 0.07079503462911349 0.7183879505803094
0.6741561507493266 0.010391207058147924 0.5709428091675265
0.5888548541175636 0.09619072764898443 0.5734808478188356
0.6062593854537462 -0.009523281217813 0.6841764478077861
0.6778299826818052 0.07079503462911349 0.7183879505803094
0.8741561507493265 0.010391207058147924 0.5709428091675265
0.7888548541175635 0.09619072764898443 0.5734808478188356
0.8062593854537463 -0.009523281217813 0.6841764478077861
0.8778299826818051 0.07079503462911349 0.7183879505803094
0.07415615074932648 0.21039120705814793 0.5709428091675265
-0.01114514588243652 0.29619072764898446 0.5734808478188356
0.006259385453746201 0.190476718782187 0.6841764478077861
0.07782998268180506 0.2707950346291135 0.7183879505803094
0.2741561507493265 0.21039120705814793 0.5709428091675265
0.1888548541175635 0.29619072764898446 0.5734808478188356
0.2062593854537462 0.190476718782187 0.6841764478077861
0.2778299826818051 0.2707950346291135 0.7183879505803094
0.47415615074932654 0.21039120705814793 0.5709428091675265
0.3888548541175635 0.29619072764898446 0.5734808478188356
0.4062593854537462 0.190476718782187 0.6841764478077861
0.4778299826818051 0.2707950346291135 0.7183879505803094
0.6741561507493266 0.21039120705814793 0.5709428091675265
0.5888548541175636 0.29619072764898446 0.5734808478188356
0.6062593854537462 0.190476718782187 0.6841764478077861
0.6778299826818052 0.2707950346291135 0.7183879505803094
0.8741561507493265 0.21039120705814793 0.5709428091675265
0.7888548541175635 0.29619072764898446 0.5734808478188356
0.8062593854537463 0.190476718782187 0.6841764478077861
0.8778299826818051 0.2707950346291135 0.7183879505803094
0.07415615074932648 0.41039120705814797 0.5709428091675265
-0.01114514588243652 0.4961907276489845 0.5734808478188356
0.006259385453746201 0.39047671878218704 0.6841764478077861
0.07782998268180506 0.4707950346291135 0.7183879505803094
0.2741561507493265 0.41039120705814797 0.5709428091675265
0.1888548541175635 0.4961907276489845 0.5734808478188356
0.2062593854537462 0.39047671878218704 0.6841764478077861
0.2778299826818051 0.4707950346291135 0.7183879505803094
0.47415615074932654 0.41039120705814797 0.5709428091675265
0.3888548541175635 0.4961907276489845 0.5734808478188356
0.4062593854537462 0.39047671878218704 0.6841764478077861
0.4778299826818051 0.4707950346291135 0.7183879505803094
0.6741561507493266 0.41039120705814797 0.5709428091675265
0.5888548541175636 0.4961907276489845 0.5734808478188356
0.6062593854537462 0.39047671878218704 0.6841764478077861
0.6778299826818052 0.4707950346291135 0.7183879505803094
0.8741561507493265 0.41039120705814797 0.5709428091675265
0.7888548541175635 0.4961907276489845 0.5734808478188356
0.8062593854537463 0.39047671878218704 0.6841764478077861
0.8778299826818051 0.4707950346291135 0.7183879505803094
0.07415615074932648 0.610391207058148 0.5709428091675265
-0.01114514588243652 0.6961907276489845 0.5734808478188356
0.006259385453746201 0.590476718782187 0.6841764478077861
0.07782998268180506 0.6707950346291135 0.7183879505803094
0.2741561507493265 0.610391207058148 0.5709428091675265
0.1888548541175635 0.6961907276489845 0.5734808478188356
0.2062593854537462 0.590476718782187 0.6841764478077861
0.2778299826818051 0.6707950346291135 0.7183879505803094
0.47415615074932654 0.610391207058148 0.5709428091675265
0.3888548541175635 0.6961907276489845 0.5734808478188356
0.4062593854537462 0.590476718782187 0.6841764478077861
0.4778299826818051 0.6707950346291135 0.7183879505803094
0.6741561507493266 0.610391207058148 0.5709428091675265
0.5888548541175636 0.6961907276489845 0.5734808478188356
0.6062593854537462 0.590476718782187 0.6841764478077861
0.6778299826818052 0.6707950346291135 0.7183879505803094
0.8741561507493265 0.610391207058148 0.5709428091675265
0.7888548541175635 0.6961907276489845 0.5734808478188356
0.8062593854537463 0.590476718782187 0.6841764478077861
0.8778299826818051 0.6707950346291135 0.7183879505803094
0.07415615074932648 0.810391207058148 0.5709428091675265
-0.01114514588243652 0.8961907276489844 0.5734808478188356
0.006259385453746201 0.7904767187821871 0.6841764478077861
0.07782998268180506 0.8707950346291136 0.7183879505803094
0.2741561507493265 0.810391207058148 0.5709428091675265
0.1888548541175635 0.8961907276489844 0.5734808478188356
0.2062593854537462 0.7904767187821871 0.6841764478077861
0.2778299826818051 0.8707950346291136 0.7183879505803094
0.47415615074932654 0.810391207058148 0.5709428091675265
0.3888548541175635 0.8961907276489844 0.5734808478188356
0.4062593854537462 0.7904767187821871 0.6841764478077861
0.4778299826818051 0.8707950346291136 0.7183879505803094
0.6741561507493266 0.810391207058148 0.5709428091675265
0.5888548541175636 0.8961907276489844 0.5734808478188356
0.6062593854537462 0.7904767187821871 0.6841764478077861
0.6778299826818052 0.8707950346291136 0.7183879505803094
0.8741561507493265 0.810391207058148 0.5709428091675265
0.7888548541175635 0.8961907276489844 0.5734808478188356
0.8062593854537463 0.7904767187821871 0.6841764478077861
0.8778299826818051 0.8707950346291136 0.7183879505803094
0.07415615074932648 0.010391207058147924 0.7709428091675266
-0.01114514588243652 0.09619072764898443 0.7734808478188356
0.006259385453746201 -0.009523281217813 0.884176447807786
0.07782998268180506 0.07079503462911349 0.9183879505803093
0.2741561507493265 0.010391207058147924 0.7709428091675266
0.1888548541175635 0.09619072764898443 0.7734808478188356
0.2062593854537462 -0.009523281217813 0.884176447807786
0.2778299826818051 0.07079503462911349 0.9183879505803093
0.47415615074932654 0.010391207058147924 0.7709428091675266
0.3888548541175635 0.09619072764898443 0.7734808478188356
0.4062593854537462 -0.009523281217813 0.884176447807786
0.4778299826818051 0.07079503462911349 0.9183879505803093
0.6741561507493266 0.010391207058147924 0.7709428091675266
0.5888548541175636 0.09619072764898443 0.7734808478188356
0.6062593854537462 -0.009523281217813 0.884176447807786
0.6778299826818052 0.07079503462911349 0.9183879505803093
0.8741561507493265 0.010391207058147924 0.7709428091675266
0.7888548541175635 0.09619072764898443 0.7734808478188356
0.8062593854537463 -0.009523281217813 0.884176447807786
0.8778299826818051 0.07079503462911349 0.9183879505803093
0.07415615074932648 0.21039120705814793 0.7709428091675266
-0.01114514588243652 0.29619072764898446 0.7734808478188356
0.006259385453746201 0.190476718782187 0.884176447807786
0.07782998268180506 0.2707950346291135 0.9183879505803093
0.2741561507493265 0.21039120705814793 0.7709428091675266
0.1888548541175635 0.29619072764898446 0.7734808478188356
0.2062593854537462 0.190476718782187 0.884176447807786
0.2778299826818051 0.2707950346291135 0.9183879505803093
0.47415615074932654 0.21039120705814793 0.7709428091675266
0.3888548541175635 0.29619072764898446 0.7734808478188356
0.4062593854537462 0.190476718782187 0.884176447807786
0.4778299826818051 0.2707950346291135 0.9183879505803093
0.6741561507493266 0.21039120705814793 0.7709428091675266
0.5888548541175636 0.29619072764898446 0.7734808478188356
0.6062593854537462 0.190476718782187 0.884176447807786
0.6778299826818052 0.2707950346291135 0.9183879505803093
0.8741561507493265 0.21039120705814793 0.7709428091675266
0.7888548541175635 0.29619072764898446 0.7734808478188356
0.8062593854537463 0.190476718782187 0.884176447807786
0.8778299826818051 0.2707950346291135 0.9183879505803093
0.07415615074932648 0.41039120705814797 0.7709428091675266
-0.01114514588243652 0.4961907276489845 0.7734808478188356
0.006259385453746201 0.39047671878218704 0.884176447807786
0.07782998268180506 0.4707950346291135 0.9183879505803093
0.2741561507493265 0.41039120705814797 0.7709428091675266
0.1888548541175635 0.4961907276489845 0.7734808478188356
0.2062593854537462 0.39047671878218704 0.884176447807786
0.2778299826818051 0.4707950346291135 0.9183879505803093
0.47415615074932654 0.41039120705814797 0.7709428091675266
0.3888548541175635 0.4961907276489845 0.7734808478188356
0.4062593854537462 0.39047671878218704 0.884176447807786
0.4778299826818051 0.4707950346291135 0.9183879505803093
0.6741561507493266 0.41039120705814797 0.7709428091675266
0.5888548541175636 0.4961907276489845 0.7734808478188356
0.6062593854537462 0.39047671878218704 0.884176447807786
0.6778299826818052 0.4707950346291135 0.9183879505803093
0.8741561507493265 0.41039120705814797 0.7709428091675266
0.7888548541175635 0.4961907276489845 0.7734808478188356
0.8062593854537463 0.39047671878218704 0.884176447807786
0.8778299826818051 0.4707950346291135 0.9183879505803093
0.07415615074932648 0.610391207058148 0.7709428091675266
-0.01114514588243652 0.6961907276489845 0.7734808478188356
0.006259385453746201 0.590476718782187 0.884176447807786
0.07782998268180506 0.6707950346291135 0.9183879505803093
0.2741561507493265 0.610391207058148 0.7709428091675266
0.1888548541175635 0.6961907276489845 0.7734808478188356
0.2062593854537462 0.590476718782187 0.884176447807786
0.2778299826818051 0.6707950346291135 0.9183879505803093
0.47415615074932654 0.610391207058148 0.7709428091675266
0.3888548541175635 0.6961907276489845 0.7734808478188356
0.4062593854537462 0.590476718782187 0.884176447807786
0.4778299826818051 0.6707950346291135 0.9183879505803093
0.6741561507493266 0.610391207058148 0.7709428091675266
0.5888548541175636 0.6961907276489845 0.7734808478188356
0.6062593854537462 0.590476718782187 0.884176447807786
0.6778299826818052 0.6707950346291135 0.9183879505803093
0.8741561507493265 0.610391207058148 0.7709428091675266
0.7888548541175635 0.6961907276489845 0.7734808478188356
0.8062593854537463 0.590476718782187 0.884176447807786
0.8778299826818051 0.6707950346291135 0.9183879505803093
0.07415615074932648 0.810391207058148 0.7709428091675266
-0.01114514588243652 0.8961907276489844 0.7734808478188356
0.006259385453746201 0.7904767187821871 0.884176447807786
0.07782998268180506 0.8707950346291136 0.9183879505803093
0.2741561507493265 0.810391207058148 0.7709428091675266
0.1888548541175635 0.8961907276489844 0.7734808478188356
0.2062593854537462 0.7904767187821871 0.884176447807786
0.2778299826818051 0.8707950346291136 0.9183879505803093
0.47415615074932654 0.810391207058148 0.7709428091675266
0.3888548541175635 0.8961907276489844 0.7734808478188356
0.4062593854537462 0.7904767187821871 0.884176447807786
0.4778299826818051 0.8707950346291136 0.9183879505803093
0.6741561507493266 0.810391207058148 0.7709428091675266
0.5888548541175636 0.8961907276489844 0.7734808478188356
0.6062593854537462 0.7904767187821871 0.884176447807786
0.6778299826818052 0.8707950346291136 0.9183879505803093
0.8741561507493265 0.810391207058148 0.7709428091675266
0.7888548541175635 0.8961907276489844 0.7734808478188356
0.8062593854537463 0.7904767187821871 0.884176447807786
0.8778299826818051 0.8707950346291136 0.9183879505803093
