FCC BaO
5.61604
3.0 0.0 0.0
0.0 3.0 0.0
0.0 0.0 3.0
Ba O 
108 108 
Direct
0.315148038970001 -0.6518823303697096 0.19350710604734805
0.1064121272356072 0.2535073601321867 0.5875530406908489
0.30698440694190726 -0.5103975999260476 0.53617781228847
-0.06727105795010188 0.49241625234909625 0.05279640807959639
0.6484813723033344 -0.6518823303697096 0.19350710604734805
0.4397454605689405 0.2535073601321867 0.5875530406908489
0.6403177402752406 -0.5103975999260476 0.53617781228847
0.2660622753832314 0.49241625234909625 0.05279640807959639
0.9818147056366677 -0.6518823303697096 0.19350710604734805
0.7730787939022739 0.2535073601321867 0.5875530406908489
0.973651073608574 -0.5103975999260476 0.53617781228847
0.5993956087165647 0.49241625234909625 0.05279640807959639
0.315148038970001 -0.31854899703637624 0.19350710604734805
0.1064121272356072 0.58684069346552 0.5875530406908489
0.30698440694190726 -0.1770642665927143 0.53617781228847
-0.06727105795010188 0.8257495856824295 0.05279640807959639
0.6484813723033344 -0.31854899703637624 0.19350710604734805
0.4397454605689405 0.58684069346552 0.5875530406908489
0.6403177402752406 -0.1770642665927143 0.53617781228847
0.2660622753832314 0.8257495856824295 0.05279640807959639
0.9818147056366677 -0.31854899703637624 0.19350710604734805
0.7730787939022739 0.58684069346552 0.5875530406908489
0.973651073608574 -0.1770642665927143 0.53617781228847
0.5993956087165647 0.8257495856824295 0.05279640807959639
0.315148038970001 0.014784336296957079 0.19350710604734805
0.1064121272356072 0.9201740267988534 0.5875530406908489
0.30698440694190726 0.15626906674061902 0.53617781228847
-0.06727105795010188 1.1590829190157628 0.05279640807959639
0.6484813723033344 0.014784336296957079 0.19350710604734805
0.4397454605689405 0.9201740267988534 0.5875530406908489
0.6403177402752406 0.15626906674061902 0.53617781228847
0.2660622753832314 1.1590829190157628 0.05279640807959639
0.9818147056366677 0.014784336296957079 0.19350710604734805
0.7730787939022739 0.9201740267988534 0.5875530406908489
0.973651073608574 0.15626906674061902 0.53617781228847
0.5993956087165647 1.1590829190157628 0.05279640807959639
0.315148038970001 -0.6518823303697096 0.5268404393806814
0.1064121272356072 0.2535073601321867 0.9208863740241823
0.30698440694190726 -0.5103975999260476 0.8695111456218033
-0.06727105795010188 0.49241625234909625 0.3861297414129297
0.6484813723033344 -0.6518823303697096 0.5268404393806814
0.4397454605689405 0.2535073601321867 0.9208863740241823
0.6403177402752406 -0.5103975999260476 0.8695111456218033
0.2660622753832314 0.49241625234909625 0.3861297414129297
0.9818147056366677 -0.6518823303697096 0.5268404393806814
0.7730787939022739 0.2535073601321867 0.9208863740241823
0.973651073608574 -0.5103975999260476 0.8695111456218033
0.5993956087165647 0.49241625234909625 0.3861297414129297
0.315148038970001 -0.31854899703637624 0.5268404393806814
0.1064121272356072 0.58684069346552 0.9208863740241823
0.30698440694190726 -0.1770642665927143 0.8695111456218033
-0.06727105795010188 0.8257495856824295 0.3861297414129297
0.6484813723033344 -0.31854899703637624 0.5268404393806814
0.4397454605689405 0.58684069346552 0.9208863740241823
0.6403177402752406 -0.1770642665927143 0.8695111456218033
0.2660622753832314 0.8257495856824295 0.3861297414129297
0.9818147056366677 -0.31854899703637624 0.5268404393806814
0.7730787939022739 0.58684069346552 0.9208863740241823
0.973651073608574 -0.1770642665927143 0.8695111456218033
0.5993956087165647 0.8257495856824295 0.3861297414129297
0.315148038970001 0.014784336296957079 0.5268404393806814
0.1064121272356072 0.9201740267988534 0.9208863740241823
0.30698440694190726 0.15626906674061902 0.8695111456218033
-0.06727105795010188 1.1590829190157628 0.3861297414129297
0.6484813723033344 0.014784336296957079 0.5268404393806814
0.4397454605689405 0.9201740267988534 0.9208863740241823
0.6403177402752406 0.15626906674061902 0.8695111456218033
0.2660622753832314 1.1590829190157628 0.3861297414129297
0.9818147056366677 0.014784336296957079 0.5268404393806814
0.7730787939022739 0.9201740267988534 0.9208863740241823
0.973651073608574 0.15626906674061902 0.8695111456218033
0.5993956087165647 1.1590829190157628 0.3861297414129297
0.315148038970001 -0.6518823303697096 0.8601737727140147
0.1064121272356072 0.2535073601321867 1.2542197073575156
0.30698440694190726 -0.5103975999260476 1.2028444789551367
-0.06727105795010188 0.49241625234909625 0.7194630747462629
0.6484813723033344 -0.6518823303697096 0.8601737727140147
0.4397454605689405 0.2535073601321867 1.2542197073575156
0.6403177402752406 -0.5103975999260476 1.2028444789551367
0.2660622753832314 0.49241625234909625 0.7194630747462629
0.9818147056366677 -0.6518823303697096 0.8601737727140147
0.7730787939022739 0.2535073601321867 1.2542197073575156
0.973651073608574 -0.5103975999260476 1.2028444789551367
0.5993956087165647 0.49241625234909625 0.7194630747462629
0.315148038970001 -0.31854899703637624 0.8601737727140147
0.1064121272356072 0.58684069346552 1.2542197073575156
0.30698440694190726 -0.1770642665927143 1.2028444789551367
-0.06727105795010188 0.8257495856824295 0.7194630747462629
0.6484813723033344 -0.31854899703637624 0.8601737727140147
0.4397454605689405 0.58684069346552 1.2542197073575156
0.6403177402752406 -0.1770642665927143 1.2028444789551367
0.2660622753832314 0.8257495856824295 0.7194630747462629
0.9818147056366677 -0.31854899703637624 0.8601737727140147
0.7730787939022739 0.58684069346552 1.2542197073575156
0.973651073608574 -0.1770642665927143 1.2028444789551367
0.5993956087165647 0.8257495856824295 0.7194630747462629
0.315148038970001 0.014784336296957079 0.8601737727140147
0.1064121272356072 0.9201740267988534 1.2542197073575156
0.30698440694190726 0.15626906674061902 1.2028444789551367
-0.06727105795010188 1.1590829190157628 0.7194630747462629
0.6484813723033344 0.014784336296957079 0.8601737727140147
0.4397454605689405 0.9201740267988534 1.2542197073575156
0.6403177402752406 0.15626906674061902 1.2028444789551367
0.2660622753832314 1.1590829190157628 0.7194630747462629
0.9818147056366677 0.014784336296957079 0.8601737727140147
0.7730787939022739 0.9201740267988534 1.2542197073575156
0.973651073608574 0.15626906674061902 1.2028444789551367
0.5993956087165647 1.1590829190157628 0.7194630747462629
1.0887334072746049 0.08012473009745252 -0.07280653446661246
0.0008472451729025405 0.6864625349413523 -0.42639811292192165
0.6612531032418505 0.9748241635037542 0.5746860551363427
0.25663493495327633 0.07669385723244021 -0.1395763922110636
1.4220667406079381 0.08012473009745252 -0.07280653446661246
0.33418057850623584 0.6864625349413523 -0.42639811292192165
0.9945864365751838 0.9748241635037542 0.5746860551363427
0.5899682682866096 0.07669385723244021 -0.1395763922110636
1.7554000739412716 0.08012473009745252 -0.07280653446661246
0.6675139118395692 0.6864625349413523 -0.42639811292192165
1.327919769908517 0.9748241635037542 0.5746860551363427
0.9233016016199429 0.07669385723244021 -0.1395763922110636
1.0887334072746049 0.41345806343078584 -0.07280653446661246
0.0008472451729025405 1.0197958682746857 -0.42639811292192165
0.6612531032418505 1.3081574968370875 0.5746860551363427
0.25663493495327633 0.4100271905657735 -0.1395763922110636
1.4220667406079381 0.41345806343078584 -0.07280653446661246
0.33418057850623584 1.0197958682746857 -0.42639811292192165
0.9945864365751838 1.3081574968370875 0.5746860551363427
0.5899682682866096 0.4100271905657735 -0.1395763922110636
1.7554000739412716 0.41345806343078584 -0.07280653446661246
0.6675139118395692 1.0197958682746857 -0.42639811292192165
1.327919769908517 1.3081574968370875 0.5746860551363427
0.9233016016199429 0.4100271905657735 -0.1395763922110636
1.0887334072746049 0.7467913967641191 -0.07280653446661246
0.0008472451729025405 1.3531292016080188 -0.42639811292192165
0.6612531032418505 1.641490830170421 0.5746860551363427
0.25663493495327633 0.7433605238991069 -0.1395763922110636
1.4220667406079381 0.7467913967641191 -0.07280653446661246
0.33418057850623584 1.3531292016080188 -0.42639811292192165
0.9945864365751838 1.641490830170421 0.5746860551363427
0.5899682682866096 0.7433605238991069 -0.1395763922110636
1.7554000739412716 0.7467913967641191 -0.07280653446661246
0.6675139118395692 1.3531292016080188 -0.42639811292192165
1.327919769908517 1.641490830170421 0.5746860551363427
0.9233016016199429 0.7433605238991069 -0.1395763922110636
1.0887334072746049 0.08012473009745252 0.26052679886672087
0.0008472451729025405 0.6864625349413523 -0.0930647795885883
0.6612531032418505 0.9748241635037542 0.908019388469676
0.25663493495327633 0.07669385723244021 0.1937569411222697
1.4220667406079381 0.08012473009745252 0.26052679886672087
0.33418057850623584 0.6864625349413523 -0.0930647795885883
0.9945864365751838 0.9748241635037542 0.908019388469676
0.5899682682866096 0.07669385723244021 0.1937569411222697
1.7554000739412716 0.08012473009745252 0.26052679886672087
0.6675139118395692 0.6864625349413523 -0.0930647795885883
1.327919769908517 0.9748241635037542 0.908019388469676
0.9233016016199429 0.07669385723244021 0.1937569411222697
1.0887334072746049 0.41345806343078584 0.26052679886672087
0.0008472451729025405 1.0197958682746857 -0.0930647795885883
0.6612531032418505 1.3081574968370875 0.908019388469676
0.25663493495327633 0.4100271905657735 0.1937569411222697
1.4220667406079381 0.41345806343078584 0.26052679886672087
0.33418057850623584 1.0197958682746857 -0.0930647795885883
0.9945864365751838 1.3081574968370875 0.908019388469676
0.5899682682866096 0.4100271905657735 0.1937569411222697
1.7554000739412716 0.41345806343078584 0.26052679886672087
0.6675139118395692 1.0197958682746857 -0.0930647795885883
1.327919769908517 1.3081574968370875 0.908019388469676
0.9233016016199429 0.4100271905657735 0.1937569411222697
1.0887334072746049 0.7467913967641191 0.26052679886672087
0.0008472451729025405 1.3531292016080188 -0.0930647795885883
0.6612531032418505 1.641490830170421 0.908019388469676
0.25663493495327633 0.7433605238991069 0.1937569411222697
1.4220667406079381 0.7467913967641191 0.26052679886672087
0.33418057850623584 1.3531292016080188 -0.0930647795885883
0.9945864365751838 1.641490830170421 0.908019388469676
0.5899682682866096 0.7433605238991069 0.1937569411222697
1.7554000739412716 0.7467913967641191 0.26052679886672087
0.6675139118395692 1.3531292016080188 -0.0930647795885883
1.327919769908517 1.641490830170421 0.908019388469676
0.9233016016199429 0.7433605238991069 0.1937569411222697
1.0887334072746049 0.08012473009745252 0.5938601322000542
0.0008472451729025405 0.6864625349413523 0.240268553744745
0.6612531032418505 0.9748241635037542 1.2413527218030094
0.25663493495327633 0.07669385723244021 0.527090274455603
1.4220667406079381 0.08012473009745252 0.5938601322000542
0.33418057850623584 0.6864625349413523 0.240268553744745
0.9945864365751838 0.9748241635037542 1.2413527218030094
0.5899682682866096 0.07669385723244021 0.527090274455603
1.7554000739412716 0.08012473009745252 0.5938601322000542
0.6675139118395692 0.6864625349413523 0.240268553744745
1.327919769908517 0.9748241635037542 1.2413527218030094
0.9233016016199429 0.07669385723244021 0.527090274455603
1.0887334072746049 0.41345806343078584 0.5938601322000542
0.0008472451729025405 1.0197958682746857 0.240268553744745
0.6612531032418505 1.3081574968370875 1.2413527218030094
0.25663493495327633 0.4100271905657735 0.527090274455603
1.4220667406079381 0.41345806343078584 0.5938601322000542
0.33418057850623584 1.0197958682746857 0.240268553744745
0.9945864365751838 1.3081574968370875 1.2413527218030094
0.5899682682866096 0.4100271905657735 0.527090274455603
1.7554000739412716 0.41345806343078584 0.5938601322000542
0.6675139118395692 1.0197958682746857 0.240268553744745
1.327919769908517 1.3081574968370875 1.2413527218030094
0.9233016016199429 0.4100271905657735 0.527090274455603
1.0887334072746049 0.7467913967641191 0.5938601322000542
0.0008472451729025405 1.3531292016080188 0.240268553744745
0.6612531032418505 1.641490830170421 1.2413527218030094
0.25663493495327633 0.7433605238991069 0.527090274455603
1.4220667406079381 0.7467913967641191 0.5938601322000542
0.33418057850623584 1.3531292016080188 0.240268553744745
0.9945864365751838 1.641490830170421 1.2413527218030094
0.5899682682866096 0.7433605238991069 0.527090274455603
1.7554000739412716 0.7467913967641191 0.5938601322000542
0.6675139118395692 1.3531292016080188 0.240268553744745
1.327919769908517 1.641490830170421 1.2413527218030094
0.9233016016199429 0.7433605238991069 0.527090274455603
