FCC BaO
5.61604
3.0 0.0 0.0
0.0 3.0 0.0
0.0 0.0 3.0
Ba O 
108 108 
Direct
-0.03080939658604473 0.02813097482047438 0.06960384144699536
0.0665643252465678 0.15117020279779433 0.11797462890466234
0.20288492851802503 0.05571676583956031 0.20049985446187496
0.18502960447908162 0.11523761256648529 -0.03171899999096846
0.3025239367472886 0.02813097482047438 0.06960384144699536
0.3998976585799011 0.15117020279779433 0.11797462890466234
0.5362182618513583 0.05571676583956031 0.20049985446187496
0.5183629378124149 0.11523761256648529 -0.03171899999096846
0.6358572700806219 0.02813097482047438 0.06960384144699536
0.7332309919132345 0.15117020279779433 0.11797462890466234
0.8695515951846917 0.05571676583956031 0.20049985446187496
0.8516962711457483 0.11523761256648529 -0.03171899999096846
-0.03080939658604473 0.3614643081538077 0.06960384144699536
0.0665643252465678 0.4845035361311277 0.11797462890466234
0.20288492851802503 0.3890500991728936 0.20049985446187496
0.18502960447908162 0.4485709458998186 -0.03171899999096846
0.3025239367472886 0.3614643081538077 0.06960384144699536
0.3998976585799011 0.4845035361311277 0.11797462890466234
0.5362182618513583 0.3890500991728936 0.20049985446187496
0.5183629378124149 0.4485709458998186 -0.03171899999096846
0.6358572700806219 0.3614643081538077 0.06960384144699536
0.7332309919132345 0.4845035361311277 0.11797462890466234
0.8695515951846917 0.3890500991728936 0.20049985446187496
0.8516962711457483 0.4485709458998186 -0.03171899999096846
-0.03080939658604473 0.6947976414871411 0.06960384144699536
0.0665643252465678 0.8178368694644609 0.11797462890466234
0.20288492851802503 0.722383432506227 0.20049985446187496
0.18502960447908162 0.7819042792331519 -0.03171899999096846
0.3025239367472886 0.6947976414871411 0.06960384144699536
0.3998976585799011 0.8178368694644609 0.11797462890466234
0.5362182618513583 0.722383432506227 0.20049985446187496
0.5183629378124149 0.7819042792331519 -0.03171899999096846
0.6358572700806219 0.6947976414871411 0.06960384144699536
0.7332309919132345 0.8178368694644609 0.11797462890466234
0.8695515951846917 0.722383432506227 0.20049985446187496
0.8516962711457483 0.7819042792331519 -0.03171899999096846
-0.03080939658604473 0.02813097482047438 0.40293717478032864
0.0665643252465678 0.15117020279779433 0.4513079622379957
0.20288492851802503 0.05571676583956031 0.5338331877952083
0.18502960447908162 0.11523761256648529 0.30161433334236487
0.3025239367472886 0.02813097482047438 0.40293717478032864
0.3998976585799011 0.15117020279779433 0.4513079622379957
0.5362182618513583 0.05571676583956031 0.5338331877952083
0.5183629378124149 0.11523761256648529 0.30161433334236487
0.6358572700806219 0.02813097482047438 0.40293717478032864
0.7332309919132345 0.15117020279779433 0.4513079622379957
0.8695515951846917 0.05571676583956031 0.5338331877952083
0.8516962711457483 0.11523761256648529 0.30161433334236487
-0.03080939658604473 0.3614643081538077 0.40293717478032864
0.0665643252465678 0.4845035361311277 0.4513079622379957
0.20288492851802503 0.3890500991728936 0.5338331877952083
0.18502960447908162 0.4485709458998186 0.30161433334236487
0.3025239367472886 0.3614643081538077 0.40293717478032864
0.3998976585799011 0.4845035361311277 0.4513079622379957
0.5362182618513583 0.3890500991728936 0.5338331877952083
0.5183629378124149 0.4485709458998186 0.30161433334236487
0.6358572700806219 0.3614643081538077 0.40293717478032864
0.7332309919132345 0.4845035361311277 0.4513079622379957
0.8695515951846917 0.3890500991728936 0.5338331877952083
0.8516962711457483 0.4485709458998186 0.30161433334236487
-0.03080939658604473 0.6947976414871411 0.40293717478032864
0.0665643252465678 0.8178368694644609 0.4513079622379957
0.20288492851802503 0.722383432506227 0.5338331877952083
0.18502960447908162 0.7819042792331519 0.30161433334236487
0.3025239367472886 0.6947976414871411 0.40293717478032864
0.3998976585799011 0.8178368694644609 0.4513079622379957
0.5362182618513583 0.722383432506227 0.5338331877952083
0.5183629378124149 0.7819042792331519 0.30161433334236487
0.6358572700806219 0.6947976414871411 0.40293717478032864
0.7332309919132345 0.8178368694644609 0.4513079622379957
0.8695515951846917 0.722383432506227 0.5338331877952083
0.8516962711457483 0.7819042792331519 0.30161433334236487
-0.03080939658604473 0.02813097482047438 0.736270508113662
0.0665643252465678 0.15117020279779433 0.784641295571329
0.20288492851802503 0.05571676583956031 0.8671665211285415
0.18502960447908162 0.11523761256648529 0.6349476666756981
0.3025239367472886 0.02813097482047438 0.736270508113662
0.3998976585799011 0.15117020279779433 0.784641295571329
0.5362182618513583 0.05571676583956031 0.8671665211285415
0.5183629378124149 0.11523761256648529 0.6349476666756981
0.6358572700806219 0.02813097482047438 0.736270508113662
0.7332309919132345 0.15117020279779433 0.784641295571329
0.8695515951846917 0.05571676583956031 0.8671665211285415
0.8516962711457483 0.11523761256648529 0.6349476666756981
-0.03080939658604473 0.3614643081538077 0.736270508113662
0.0665643252465678 0.4845035361311277 0.784641295571329
0.20288492851802503 0.3890500991728936 0.8671665211285415
0.18502960447908162 0.4485709458998186 0.6349476666756981
0.3025239367472886 0.3614643081538077 0.736270508113662
0.3998976585799011 0.4845035361311277 0.784641295571329
0.5362182618513583 0.3890500991728936 0.8671665211285415
0.5183629378124149 0.4485709458998186 0.6349476666756981
0.6358572700806219 0.3614643081538077 0.736270508113662
0.7332309919132345 0.4845035361311277 0.784641295571329
0.8695515951846917 0.3890500991728936 0.8671665211285415
0.8516962711457483 0.4485709458998186 0.6349476666756981
-0.03080939658604473 0.6947976414871411 0.736270508113662
0.0665643252465678 0.8178368694644609 0.784641295571329
0.20288492851802503 0.722383432506227 0.8671665211285415
0.18502960447908162 0.7819042792331519 0.6349476666756981
0.3025239367472886 0.6947976414871411 0.736270508113662
0.3998976585799011 0.8178368694644609 0.784641295571329
0.5362182618513583 0.722383432506227 0.8671665211285415
0.5183629378124149 0.7819042792331519 0.6349476666756981
0.6358572700806219 0.6947976414871411 0.736270508113662
0.7332309919132345 0.8178368694644609 0.784641295571329
0.8695515951846917 0.722383432506227 0.8671665211285415
0.8516962711457483 0.7819042792331519 0.6349476666756981
0.1828458917090151 -0.03441144580978412 -0.07447625340012085
-0.07168984579232181 0.14121318369963412 0.007492127242031351
-0.0373327036814628 0.017037037630109917 0.22574227891416526
0.17137968826109956 0.12432881037724311 0.17611602824173245
0.5161792250423485 -0.03441144580978412 -0.07447625340012085
0.2616434875410115 0.14121318369963412 0.007492127242031351
0.2960006296518705 0.017037037630109917 0.22574227891416526
0.5047130215944329 0.12432881037724311 0.17611602824173245
0.8495125583756817 -0.03441144580978412 -0.07447625340012085
0.5949768208743449 0.14121318369963412 0.007492127242031351
0.6293339629852038 0.017037037630109917 0.22574227891416526
0.8380463549277662 0.12432881037724311 0.17611602824173245
0.1828458917090151 0.2989218875235492 -0.07447625340012085
-0.07168984579232181 0.47454651703296746 0.007492127242031351
-0.0373327036814628 0.3503703709634432 0.22574227891416526
0.17137968826109956 0.45766214371057645 0.17611602824173245
0.5161792250423485 0.2989218875235492 -0.07447625340012085
0.2616434875410115 0.47454651703296746 0.007492127242031351
0.2960006296518705 0.3503703709634432 0.22574227891416526
0.5047130215944329 0.45766214371057645 0.17611602824173245
0.8495125583756817 0.2989218875235492 -0.07447625340012085
0.5949768208743449 0.47454651703296746 0.007492127242031351
0.6293339629852038 0.3503703709634432 0.22574227891416526
0.8380463549277662 0.45766214371057645 0.17611602824173245
0.1828458917090151 0.6322552208568826 -0.07447625340012085
-0.07168984579232181 0.8078798503663007 0.007492127242031351
-0.0373327036814628 0.6837037042967765 0.22574227891416526
0.17137968826109956 0.7909954770439098 0.17611602824173245
0.5161792250423485 0.6322552208568826 -0.07447625340012085
0.2616434875410115 0.8078798503663007 0.007492127242031351
0.2960006296518705 0.6837037042967765 0.22574227891416526
0.5047130215944329 0.7909954770439098 0.17611602824173245
0.8495125583756817 0.6322552208568826 -0.07447625340012085
0.5949768208743449 0.8078798503663007 0.007492127242031351
0.6293339629852038 0.6837037042967765 0.22574227891416526
0.8380463549277662 0.7909954770439098 0.17611602824173245
0.1828458917090151 -0.03441144580978412 0.25885707993321244
-0.07168984579232181 0.14121318369963412 0.34082546057536467
-0.0373327036814628 0.017037037630109917 0.5590756122474986
0.17137968826109956 0.12432881037724311 0.5094493615750657
0.5161792250423485 -0.03441144580978412 0.25885707993321244
0.2616434875410115 0.14121318369963412 0.34082546057536467
0.2960006296518705 0.017037037630109917 0.5590756122474986
0.5047130215944329 0.12432881037724311 0.5094493615750657
0.8495125583756817 -0.03441144580978412 0.25885707993321244
0.5949768208743449 0.14121318369963412 0.34082546057536467
0.6293339629852038 0.017037037630109917 0.5590756122474986
0.8380463549277662 0.12432881037724311 0.5094493615750657
0.1828458917090151 0.2989218875235492 0.25885707993321244
-0.07168984579232181 0.47454651703296746 0.34082546057536467
-0.0373327036814628 0.3503703709634432 0.5590756122474986
0.17137968826109956 0.45766214371057645 0.5094493615750657
0.5161792250423485 0.2989218875235492 0.25885707993321244
0.2616434875410115 0.47454651703296746 0.34082546057536467
0.2960006296518705 0.3503703709634432 0.5590756122474986
0.5047130215944329 0.45766214371057645 0.5094493615750657
0.8495125583756817 0.2989218875235492 0.25885707993321244
0.5949768208743449 0.47454651703296746 0.34082546057536467
0.6293339629852038 0.3503703709634432 0.5590756122474986
0.8380463549277662 0.45766214371057645 0.5094493615750657
0.1828458917090151 0.6322552208568826 0.25885707993321244
-0.07168984579232181 0.8078798503663007 0.34082546057536467
-0.0373327036814628 0.6837037042967765 0.5590756122474986
0.17137968826109956 0.7909954770439098 0.5094493615750657
0.5161792250423485 0.6322552208568826 0.25885707993321244
0.2616434875410115 0.8078798503663007 0.34082546057536467
0.2960006296518705 0.6837037042967765 0.5590756122474986
0.5047130215944329 0.7909954770439098 0.5094493615750657
0.8495125583756817 0.6322552208568826 0.25885707993321244
0.5949768208743449 0.8078798503663007 0.34082546057536467
0.6293339629852038 0.6837037042967765 0.5590756122474986
0.8380463549277662 0.7909954770439098 0.5094493615750657
0.1828458917090151 -0.03441144580978412 0.5921904132665458
-0.07168984579232181 0.14121318369963412 0.6741587939086979
-0.0373327036814628 0.017037037630109917 0.892408945580832
0.17137968826109956 0.12432881037724311 0.8427826949083991
0.5161792250423485 -0.03441144580978412 0.5921904132665458
0.2616434875410115 0.14121318369963412 0.6741587939086979
0.2960006296518705 0.017037037630109917 0.892408945580832
0.5047130215944329 0.12432881037724311 0.8427826949083991
0.8495125583756817 -0.03441144580978412 0.5921904132665458
0.5949768208743449 0.14121318369963412 0.6741587939086979
0.6293339629852038 0.017037037630109917 0.892408945580832
0.8380463549277662 0.12432881037724311 0.8427826949083991
0.1828458917090151 0.2989218875235492 0.5921904132665458
-0.07168984579232181 0.47454651703296746 0.6741587939086979
-0.0373327036814628 0.3503703709634432 0.892408945580832
0.17137968826109956 0.45766214371057645 0.8427826949083991
0.5161792250423485 0.2989218875235492 0.5921904132665458
0.2616434875410115 0.47454651703296746 0.6741587939086979
0.2960006296518705 0.3503703709634432 0.892408945580832
0.5047130215944329 0.45766214371057645 0.8427826949083991
0.8495125583756817 0.2989218875235492 0.5921904132665458
0.5949768208743449 0.47454651703296746 0.6741587939086979
0.6293339629852038 0.3503703709634432 0.892408945580832
0.8380463549277662 0.45766214371057645 0.8427826949083991
0.1828458917090151 0.6322552208568826 0.5921904132665458
-0.07168984579232181 0.8078798503663007 0.6741587939086979
-0.0373327036814628 0.6837037042967765 0.892408945580832
0.17137968826109956 0.7909954770439098 0.8427826949083991
0.5161792250423485 0.6322552208568826 0.5921904132665458
0.2616434875410115 0.8078798503663007 0.6741587939086979
0.2960006296518705 0.6837037042967765 0.892408945580832
0.5047130215944329 0.7909954770439098 0.8427826949083991
0.8495125583756817 0.6322552208568826 0.5921904132665458
0.5949768208743449 0.8078798503663007 0.6741587939086979
0.6293339629852038 0.6837037042967765 0.892408945580832
0.8380463549277662 0.7909954770439098 0.8427826949083991
