FCC BaO
5.61604
3.0 0.0 0.0
0.0 3.0 0.0
0.0 0.0 3.0
Ba O 
108 108 
Direct
-0.23440701034784261 -0.019686006491622585 0.03515478198169339
0.01784586943758016 0.34483418620551276 0.29990792967543645
0.032229702906125625 0.09726924102795118 0.2714823682129674
0.3123123068056176 0.3117407539500883 -0.15278195499703726
0.09892632298549071 -0.019686006491622585 0.03515478198169339
0.3511792027709135 0.34483418620551276 0.29990792967543645
0.36556303623945896 0.09726924102795118 0.2714823682129674
0.645645640138951 0.3117407539500883 -0.15278195499703726
0.432259656318824 -0.019686006491622585 0.03515478198169339
0.6845125361042468 0.34483418620551276 0.29990792967543645
0.6988963695727923 0.09726924102795118 0.2714823682129674
0.9789789734722844 0.3117407539500883 -0.15278195499703726
-0.23440701034784261 0.3136473268417107 0.03515478198169339
0.01784586943758016 0.6781675195388461 0.29990792967543645
0.032229702906125625 0.4306025743612845 0.2714823682129674
0.3123123068056176 0.6450740872834216 -0.15278195499703726
0.09892632298549071 0.3136473268417107 0.03515478198169339
0.3511792027709135 0.6781675195388461 0.29990792967543645
0.36556303623945896 0.4306025743612845 0.2714823682129674
0.645645640138951 0.6450740872834216 -0.15278195499703726
0.432259656318824 0.3136473268417107 0.03515478198169339
0.6845125361042468 0.6781675195388461 0.29990792967543645
0.6988963695727923 0.4306025743612845 0.2714823682129674
0.9789789734722844 0.6450740872834216 -0.15278195499703726
-0.23440701034784261 0.6469806601750441 0.03515478198169339
0.01784586943758016 1.0115008528721794 0.29990792967543645
0.032229702906125625 0.7639359076946178 0.2714823682129674
0.3123123068056176 0.978407420616755 -0.15278195499703726
0.09892632298549071 0.6469806601750441 0.03515478198169339
0.3511792027709135 1.0115008528721794 0.29990792967543645
0.36556303623945896 0.7639359076946178 0.2714823682129674
0.645645640138951 0.978407420616755 -0.15278195499703726
0.432259656318824 0.6469806601750441 0.03515478198169339
0.6845125361042468 1.0115008528721794 0.29990792967543645
0.6988963695727923 0.7639359076946178 0.2714823682129674
0.9789789734722844 0.978407420616755 -0.15278195499703726
-0.23440701034784261 -0.019686006491622585 0.3684881153150267
0.01784586943758016 0.34483418620551276 0.6332412630087698
0.032229702906125625 0.09726924102795118 0.6048157015463007
0.3123123068056176 0.3117407539500883 0.18055137833629603
0.09892632298549071 -0.019686006491622585 0.3684881153150267
0.3511792027709135 0.34483418620551276 0.6332412630087698
0.36556303623945896 0.09726924102795118 0.6048157015463007
0.645645640138951 0.3117407539500883 0.18055137833629603
0.432259656318824 -0.019686006491622585 0.3684881153150267
0.6845125361042468 0.34483418620551276 0.6332412630087698
0.6988963695727923 0.09726924102795118 0.6048157015463007
0.9789789734722844 0.3117407539500883 0.18055137833629603
-0.23440701034784261 0.3136473268417107 0.3684881153150267
0.01784586943758016 0.6781675195388461 0.6332412630087698
0.032229702906125625 0.4306025743612845 0.6048157015463007
0.3123123068056176 0.6450740872834216 0.18055137833629603
0.09892632298549071 0.3136473268417107 0.3684881153150267
0.3511792027709135 0.6781675195388461 0.6332412630087698
0.36556303623945896 0.4306025743612845 0.6048157015463007
0.645645640138951 0.6450740872834216 0.18055137833629603
0.432259656318824 0.3136473268417107 0.3684881153150267
0.6845125361042468 0.6781675195388461 0.6332412630087698
0.6988963695727923 0.4306025743612845 0.6048157015463007
0.9789789734722844 0.6450740872834216 0.18055137833629603
-0.23440701034784261 0.6469806601750441 0.3684881153150267
0.01784586943758016 1.0115008528721794 0.6332412630087698
0.032229702906125625 0.7639359076946178 0.6048157015463007
0.3123123068056176 0.978407420616755 0.18055137833629603
0.09892632298549071 0.6469806601750441 0.3684881153150267
0.3511792027709135 1.0115008528721794 0.6332412630087698
0.36556303623945896 0.7639359076946178 0.6048157015463007
0.645645640138951 0.978407420616755 0.18055137833629603
0.432259656318824 0.6469806601750441 0.3684881153150267
0.6845125361042468 1.0115008528721794 0.6332412630087698
0.6988963695727923 0.7639359076946178 0.6048157015463007
0.9789789734722844 0.978407420616755 0.18055137833629603
-0.23440701034784261 -0.019686006491622585 0.70182144864836
0.01784586943758016 0.34483418620551276 0.9665745963421031
0.032229702906125625 0.09726924102795118 0.9381490348796341
0.3123123068056176 0.3117407539500883 0.5138847116696293
0.09892632298549071 -0.019686006491622585 0.70182144864836
0.3511792027709135 0.34483418620551276 0.9665745963421031
0.36556303623945896 0.09726924102795118 0.9381490348796341
0.645645640138951 0.3117407539500883 0.5138847116696293
0.432259656318824 -0.019686006491622585 0.70182144864836
0.6845125361042468 0.34483418620551276 0.9665745963421031
0.6988963695727923 0.09726924102795118 0.9381490348796341
0.9789789734722844 0.3117407539500883 0.5138847116696293
-0.23440701034784261 0.3136473268417107 0.70182144864836
0.01784586943758016 0.6781675195388461 0.9665745963421031
0.032229702906125625 0.4306025743612845 0.9381490348796341
0.3123123068056176 0.6450740872834216 0.5138847116696293
0.09892632298549071 0.3136473268417107 0.70182144864836
0.3511792027709135 0.6781675195388461 0.9665745963421031
0.36556303623945896 0.4306025743612845 0.9381490348796341
0.645645640138951 0.6450740872834216 0.5138847116696293
0.432259656318824 0.3136473268417107 0.70182144864836
0.6845125361042468 0.6781675195388461 0.9665745963421031
0.6988963695727923 0.4306025743612845 0.9381490348796341
0.9789789734722844 0.6450740872834216 0.5138847116696293
-0.23440701034784261 0.6469806601750441 0.70182144864836
0.01784586943758016 1.0115008528721794 0.9665745963421031
0.032229702906125625 0.7639359076946178 0.9381490348796341
0.3123123068056176 0.978407420616755 0.5138847116696293
0.09892632298549071 0.6469806601750441 0.70182144864836
0.3511792027709135 1.0115008528721794 0.9665745963421031
0.36556303623945896 0.7639359076946178 0.9381490348796341
0.645645640138951 0.978407420616755 0.5138847116696293
0.432259656318824 0.6469806601750441 0.70182144864836
0.6845125361042468 1.0115008528721794 0.9665745963421031
0.6988963695727923 0.7639359076946178 0.9381490348796341
0.9789789734722844 0.978407420616755 0.5138847116696293
0.24666899597579378 0.09196839359958527 -0.02149993830559325
0.026850362219700975 0.12925815468956633 -0.1299187357015364
-0.22660322204429187 0.11689661781460273 0.3607001886676384
0.15263929083179412 0.056487407137483805 0.057141020299299024
0.5800023293091271 0.09196839359958527 -0.02149993830559325
0.36018369555303426 0.12925815468956633 -0.1299187357015364
0.10673011128904145 0.11689661781460273 0.3607001886676384
0.48597262416512743 0.056487407137483805 0.057141020299299024
0.9133356626424605 0.09196839359958527 -0.02149993830559325
0.6935170288863676 0.12925815468956633 -0.1299187357015364
0.4400634446223748 0.11689661781460273 0.3607001886676384
0.8193059574984607 0.056487407137483805 0.057141020299299024
0.24666899597579378 0.42530172693291857 -0.02149993830559325
0.026850362219700975 0.4625914880228997 -0.1299187357015364
-0.22660322204429187 0.450229951147936 0.3607001886676384
0.15263929083179412 0.38982074047081716 0.057141020299299024
0.5800023293091271 0.42530172693291857 -0.02149993830559325
0.36018369555303426 0.4625914880228997 -0.1299187357015364
0.10673011128904145 0.450229951147936 0.3607001886676384
0.48597262416512743 0.38982074047081716 0.057141020299299024
0.9133356626424605 0.42530172693291857 -0.02149993830559325
0.6935170288863676 0.4625914880228997 -0.1299187357015364
0.4400634446223748 0.450229951147936 0.3607001886676384
0.8193059574984607 0.38982074047081716 0.057141020299299024
0.24666899597579378 0.7586350602662519 -0.02149993830559325
0.026850362219700975 0.7959248213562329 -0.1299187357015364
-0.22660322204429187 0.7835632844812693 0.3607001886676384
0.15263929083179412 0.7231540738041504 0.057141020299299024
0.5800023293091271 0.7586350602662519 -0.02149993830559325
0.36018369555303426 0.7959248213562329 -0.1299187357015364
0.10673011128904145 0.7835632844812693 0.3607001886676384
0.48597262416512743 0.7231540738041504 0.057141020299299024
0.9133356626424605 0.7586350602662519 -0.02149993830559325
0.6935170288863676 0.7959248213562329 -0.1299187357015364
0.4400634446223748 0.7835632844812693 0.3607001886676384
0.8193059574984607 0.7231540738041504 0.057141020299299024
0.24666899597579378 0.09196839359958527 0.3118333950277401
0.026850362219700975 0.12925815468956633 0.20341459763179692
-0.22660322204429187 0.11689661781460273 0.6940335220009717
0.15263929083179412 0.056487407137483805 0.39047435363263233
0.5800023293091271 0.09196839359958527 0.3118333950277401
0.36018369555303426 0.12925815468956633 0.20341459763179692
0.10673011128904145 0.11689661781460273 0.6940335220009717
0.48597262416512743 0.056487407137483805 0.39047435363263233
0.9133356626424605 0.09196839359958527 0.3118333950277401
0.6935170288863676 0.12925815468956633 0.20341459763179692
0.4400634446223748 0.11689661781460273 0.6940335220009717
0.8193059574984607 0.056487407137483805 0.39047435363263233
0.24666899597579378 0.42530172693291857 0.3118333950277401
0.026850362219700975 0.4625914880228997 0.20341459763179692
-0.22660322204429187 0.450229951147936 0.6940335220009717
0.15263929083179412 0.38982074047081716 0.39047435363263233
0.5800023293091271 0.42530172693291857 0.3118333950277401
0.36018369555303426 0.4625914880228997 0.20341459763179692
0.10673011128904145 0.450229951147936 0.6940335220009717
0.48597262416512743 0.38982074047081716 0.39047435363263233
0.9133356626424605 0.42530172693291857 0.3118333950277401
0.6935170288863676 0.4625914880228997 0.20341459763179692
0.4400634446223748 0.450229951147936 0.6940335220009717
0.8193059574984607 0.38982074047081716 0.39047435363263233
0.24666899597579378 0.7586350602662519 0.3118333950277401
0.026850362219700975 0.7959248213562329 0.20341459763179692
-0.22660322204429187 0.7835632844812693 0.6940335220009717
0.15263929083179412 0.7231540738041504 0.39047435363263233
0.5800023293091271 0.7586350602662519 0.3118333950277401
0.36018369555303426 0.7959248213562329 0.20341459763179692
0.10673011128904145 0.7835632844812693 0.6940335220009717
0.48597262416512743 0.7231540738041504 0.39047435363263233
0.9133356626424605 0.7586350602662519 0.3118333950277401
0.6935170288863676 0.7959248213562329 0.20341459763179692
0.4400634446223748 0.7835632844812693 0.6940335220009717
0.8193059574984607 0.7231540738041504 0.39047435363263233
0.24666899597579378 0.09196839359958527 0.6451667283610734
0.026850362219700975 0.12925815468956633 0.5367479309651302
-0.22660322204429187 0.11689661781460273 1.027366855334305
0.15263929083179412 0.056487407137483805 0.7238076869659658
0.5800023293091271 0.09196839359958527 0.6451667283610734
0.36018369555303426 0.12925815468956633 0.5367479309651302
0.10673011128904145 0.11689661781460273 1.027366855334305
0.48597262416512743 0.056487407137483805 0.7238076869659658
0.9133356626424605 0.09196839359958527 0.6451667283610734
0.6935170288863676 0.12925815468956633 0.5367479309651302
0.4400634446223748 0.11689661781460273 1.027366855334305
0.8193059574984607 0.056487407137483805 0.7238076869659658
0.24666899597579378 0.42530172693291857 0.6451667283610734
0.026850362219700975 0.4625914880228997 0.5367479309651302
-0.22660322204429187 0.450229951147936 1.027366855334305
0.15263929083179412 0.38982074047081716 0.7238076869659658
0.5800023293091271 0.42530172693291857 0.6451667283610734
0.36018369555303426 0.4625914880228997 0.5367479309651302
0.10673011128904145 0.450229951147936 1.027366855334305
0.48597262416512743 0.38982074047081716 0.7238076869659658
0.9133356626424605 0.42530172693291857 0.6451667283610734
0.6935170288863676 0.4625914880228997 0.5367479309651302
0.4400634446223748 0.450229951147936 1.027366855334305
0.8193059574984607 0.38982074047081716 0.7238076869659658
0.24666899597579378 0.7586350602662519 0.6451667283610734
0.026850362219700975 0.7959248213562329 0.5367479309651302
-0.22660322204429187 0.7835632844812693 1.027366855334305
0.15263929083179412 0.7231540738041504 0.7238076869659658
0.5800023293091271 0.7586350602662519 0.6451667283610734
0.36018369555303426 0.7959248213562329 0.5367479309651302
0.10673011128904145 0.7835632844812693 1.027366855334305
0.48597262416512743 0.7231540738041504 0.7238076869659658
0.9133356626424605 0.7586350602662519 0.6451667283610734
0.6935170288863676 0.7959248213562329 0.5367479309651302
0.4400634446223748 0.7835632844812693 1.027366855334305
0.8193059574984607 0.7231540738041504 0.7238076869659658
