FCC BaO
3.971
5.0 0.0 0.0
0.0 5.0 0.0
0.0 0.0 5.0
Ba O 
500 500 
Direct
-0.017287227228052156 0.013603670979498474 0.026644853249040264
0.002895366709500047 0.09475095430550302 0.11234187081069025
0.12444522444672308 -0.01262451974969903 0.11987180148795328
0.11078751762882305 0.09128860143906294 0.023490921241521575
0.18271277277194786 0.013603670979498474 0.026644853249040264
0.20289536670950006 0.09475095430550302 0.11234187081069025
0.3244452244467231 -0.01262451974969903 0.11987180148795328
0.31078751762882306 0.09128860143906294 0.023490921241521575
0.3827127727719479 0.013603670979498474 0.026644853249040264
0.40289536670950005 0.09475095430550302 0.11234187081069025
0.5244452244467231 -0.01262451974969903 0.11987180148795328
0.510787517628823 0.09128860143906294 0.023490921241521575
0.5827127727719479 0.013603670979498474 0.026644853249040264
0.6028953667095001 0.09475095430550302 0.11234187081069025
0.7244452244467232 -0.01262451974969903 0.11987180148795328
0.7107875176288231 0.09128860143906294 0.023490921241521575
0.7827127727719478 0.013603670979498474 0.026644853249040264
0.8028953667095001 0.09475095430550302 0.11234187081069025
0.9244452244467232 -0.01262451974969903 0.11987180148795328
0.910787517628823 0.09128860143906294 0.023490921241521575
-0.017287227228052156 0.2136036709794985 0.026644853249040264
0.002895366709500047 0.2947509543055031 0.11234187081069025
0.12444522444672308 0.18737548025030099 0.11987180148795328
0.11078751762882305 0.29128860143906293 0.023490921241521575
0.18271277277194786 0.2136036709794985 0.026644853249040264
0.20289536670950006 0.2947509543055031 0.11234187081069025
0.3244452244467231 0.18737548025030099 0.11987180148795328
0.31078751762882306 0.29128860143906293 0.023490921241521575
0.3827127727719479 0.2136036709794985 0.026644853249040264
0.40289536670950005 0.2947509543055031 0.11234187081069025
0.5244452244467231 0.18737548025030099 0.11987180148795328
0.510787517628823 0.29128860143906293 0.023490921241521575
0.5827127727719479 0.2136036709794985 0.026644853249040264
0.6028953667095001 0.2947509543055031 0.11234187081069025
0.7244452244467232 0.18737548025030099 0.11987180148795328
0.7107875176288231 0.29128860143906293 0.023490921241521575
0.7827127727719478 0.2136036709794985 0.026644853249040264
0.8028953667095001 0.2947509543055031 0.11234187081069025
0.9244452244467232 0.18737548025030099 0.11987180148795328
0.910787517628823 0.29128860143906293 0.023490921241521575
-0.017287227228052156 0.41360367097949846 0.026644853249040264
0.002895366709500047 0.4947509543055031 0.11234187081069025
0.12444522444672308 0.387375480250301 0.11987180148795328
0.11078751762882305 0.49128860143906294 0.023490921241521575
0.18271277277194786 0.41360367097949846 0.026644853249040264
0.20289536670950006 0.4947509543055031 0.11234187081069025
0.3244452244467231 0.387375480250301 0.11987180148795328
0.31078751762882306 0.49128860143906294 0.023490921241521575
0.3827127727719479 0.41360367097949846 0.026644853249040264
0.40289536670950005 0.4947509543055031 0.11234187081069025
0.5244452244467231 0.387375480250301 0.11987180148795328
0.510787517628823 0.49128860143906294 0.023490921241521575
0.5827127727719479 0.41360367097949846 0.026644853249040264
0.6028953667095001 0.4947509543055031 0.11234187081069025
0.7244452244467232 0.387375480250301 0.11987180148795328
0.7107875176288231 0.49128860143906294 0.023490921241521575
0.7827127727719478 0.41360367097949846 0.026644853249040264
0.8028953667095001 0.4947509543055031 0.11234187081069025
0.9244452244467232 0.387375480250301 0.11987180148795328
0.910787517628823 0.49128860143906294 0.023490921241521575
-0.017287227228052156 0.6136036709794985 0.026644853249040264
0.002895366709500047 0.694750954305503 0.11234187081069025
0.12444522444672308 0.587375480250301 0.11987180148795328
0.11078751762882305 0.691288601439063 0.023490921241521575
0.18271277277194786 0.6136036709794985 0.026644853249040264
0.20289536670950006 0.694750954305503 0.11234187081069025
0.3244452244467231 0.587375480250301 0.11987180148795328
0.31078751762882306 0.691288601439063 0.023490921241521575
0.3827127727719479 0.6136036709794985 0.026644853249040264
0.40289536670950005 0.694750954305503 0.11234187081069025
0.5244452244467231 0.587375480250301 0.11987180148795328
0.510787517628823 0.691288601439063 0.023490921241521575
0.5827127727719479 0.6136036709794985 0.026644853249040264
0.6028953667095001 0.694750954305503 0.11234187081069025
0.7244452244467232 0.587375480250301 0.11987180148795328
0.7107875176288231 0.691288601439063 0.023490921241521575
0.7827127727719478 0.6136036709794985 0.026644853249040264
0.8028953667095001 0.694750954305503 0.11234187081069025
0.9244452244467232 0.587375480250301 0.11987180148795328
0.910787517628823 0.691288601439063 0.023490921241521575
-0.017287227228052156 0.8136036709794985 0.026644853249040264
0.002895366709500047 0.8947509543055031 0.11234187081069025
0.12444522444672308 0.787375480250301 0.11987180148795328
0.11078751762882305 0.891288601439063 0.023490921241521575
0.18271277277194786 0.8136036709794985 0.026644853249040264
0.20289536670950006 0.8947509543055031 0.11234187081069025
0.3244452244467231 0.787375480250301 0.11987180148795328
0.31078751762882306 0.891288601439063 0.023490921241521575
0.3827127727719479 0.8136036709794985 0.026644853249040264
0.40289536670950005 0.8947509543055031 0.11234187081069025
0.5244452244467231 0.787375480250301 0.11987180148795328
0.510787517628823 0.891288601439063 0.023490921241521575
0.5827127727719479 0.8136036709794985 0.026644853249040264
0.6028953667095001 0.8947509543055031 0.11234187081069025
0.7244452244467232 0.787375480250301 0.11987180148795328
0.7107875176288231 0.891288601439063 0.023490921241521575
0.7827127727719478 0.8136036709794985 0.026644853249040264
0.8028953667095001 0.8947509543055031 0.11234187081069025
0.9244452244467232 0.787375480250301 0.11987180148795328
0.910787517628823 0.891288601439063 0.023490921241521575
-0.017287227228052156 0.013603670979498474 0.22664485324904027
0.002895366709500047 0.09475095430550302 0.31234187081069026
0.12444522444672308 -0.01262451974969903 0.3198718014879533
0.11078751762882305 0.09128860143906294 0.2234909212415216
0.18271277277194786 0.013603670979498474 0.22664485324904027
0.20289536670950006 0.09475095430550302 0.31234187081069026
0.3244452244467231 -0.01262451974969903 0.3198718014879533
0.31078751762882306 0.09128860143906294 0.2234909212415216
0.3827127727719479 0.013603670979498474 0.22664485324904027
0.40289536670950005 0.09475095430550302 0.31234187081069026
0.5244452244467231 -0.01262451974969903 0.3198718014879533
0.510787517628823 0.09128860143906294 0.2234909212415216
0.5827127727719479 0.013603670979498474 0.22664485324904027
0.6028953667095001 0.09475095430550302 0.31234187081069026
0.7244452244467232 -0.01262451974969903 0.3198718014879533
0.7107875176288231 0.09128860143906294 0.2234909212415216
0.7827127727719478 0.013603670979498474 0.22664485324904027
0.8028953667095001 0.09475095430550302 0.31234187081069026
0.9244452244467232 -0.01262451974969903 0.3198718014879533
0.910787517628823 0.09128860143906294 0.2234909212415216
-0.017287227228052156 0.2136036709794985 0.22664485324904027
0.002895366709500047 0.2947509543055031 0.31234187081069026
0.12444522444672308 0.18737548025030099 0.3198718014879533
0.11078751762882305 0.29128860143906293 0.2234909212415216
0.18271277277194786 0.2136036709794985 0.22664485324904027
0.20289536670950006 0.2947509543055031 0.31234187081069026
0.3244452244467231 0.18737548025030099 0.3198718014879533
0.31078751762882306 0.29128860143906293 0.2234909212415216
0.3827127727719479 0.2136036709794985 0.22664485324904027
0.40289536670950005 0.2947509543055031 0.31234187081069026
0.5244452244467231 0.18737548025030099 0.3198718014879533
0.510787517628823 0.29128860143906293 0.2234909212415216
0.5827127727719479 0.2136036709794985 0.22664485324904027
0.6028953667095001 0.2947509543055031 0.31234187081069026
0.7244452244467232 0.18737548025030099 0.3198718014879533
0.7107875176288231 0.29128860143906293 0.2234909212415216
0.7827127727719478 0.2136036709794985 0.22664485324904027
0.8028953667095001 0.2947509543055031 0.31234187081069026
0.9244452244467232 0.18737548025030099 0.3198718014879533
0.910787517628823 0.29128860143906293 0.2234909212415216
-0.017287227228052156 0.41360367097949846 0.22664485324904027
0.002895366709500047 0.4947509543055031 0.31234187081069026
0.12444522444672308 0.387375480250301 0.3198718014879533
0.11078751762882305 0.49128860143906294 0.2234909212415216
0.18271277277194786 0.41360367097949846 0.22664485324904027
0.20289536670950006 0.4947509543055031 0.31234187081069026
0.3244452244467231 0.387375480250301 0.3198718014879533
0.31078751762882306 0.49128860143906294 0.2234909212415216
0.3827127727719479 0.41360367097949846 0.22664485324904027
0.40289536670950005 0.4947509543055031 0.31234187081069026
0.5244452244467231 0.387375480250301 0.3198718014879533
0.510787517628823 0.49128860143906294 0.2234909212415216
0.5827127727719479 0.41360367097949846 0.22664485324904027
0.6028953667095001 0.4947509543055031 0.31234187081069026
0.7244452244467232 0.387375480250301 0.3198718014879533
0.7107875176288231 0.49128860143906294 0.2234909212415216
0.7827127727719478 0.41360367097949846 0.22664485324904027
0.8028953667095001 0.4947509543055031 0.31234187081069026
0.9244452244467232 0.387375480250301 0.3198718014879533
0.910787517628823 0.49128860143906294 0.2234909212415216
-0.017287227228052156 0.6136036709794985 0.22664485324904027
0.002895366709500047 0.694750954305503 0.31234187081069026
0.12444522444672308 0.587375480250301 0.3198718014879533
0.11078751762882305 0.691288601439063 0.2234909212415216
0.18271277277194786 0.6136036709794985 0.22664485324904027
0.20289536670950006 0.694750954305503 0.31234187081069026
0.3244452244467231 0.587375480250301 0.3198718014879533
0.31078751762882306 0.691288601439063 0.2234909212415216
0.3827127727719479 0.6136036709794985 0.22664485324904027
0.40289536670950005 0.694750954305503 0.31234187081069026
0.5244452244467231 0.587375480250301 0.3198718014879533
0.510787517628823 0.691288601439063 0.2234909212415216
0.5827127727719479 0.6136036709794985 0.22664485324904027
0.6028953667095001 0.694750954305503 0.31234187081069026
0.7244452244467232 0.587375480250301 0.3198718014879533
0.7107875176288231 0.691288601439063 0.2234909212415216
0.7827127727719478 0.6136036709794985 0.22664485324904027
0.8028953667095001 0.694750954305503 0.31234187081069026
0.9244452244467232 0.587375480250301 0.3198718014879533
0.910787517628823 0.691288601439063 0.2234909212415216
-0.017287227228052156 0.8136036709794985 0.22664485324904027
0.002895366709500047 0.8947509543055031 0.31234187081069026
0.12444522444672308 0.787375480250301 0.3198718014879533
0.11078751762882305 0.891288601439063 0.2234909212415216
0.18271277277194786 0.8136036709794985 0.22664485324904027
0.20289536670950006 0.8947509543055031 0.31234187081069026
0.3244452244467231 0.787375480250301 0.3198718014879533
0.31078751762882306 0.891288601439063 0.2234909212415216
0.3827127727719479 0.8136036709794985 0.22664485324904027
0.40289536670950005 0.8947509543055031 0.31234187081069026
0.5244452244467231 0.787375480250301 0.3198718014879533
0.510787517628823 0.891288601439063 0.2234909212415216
0.5827127727719479 0.8136036709794985 0.22664485324904027
0.6028953667095001 0.8947509543055031 0.31234187081069026
0.7244452244467232 0.787375480250301 0.3198718014879533
0.7107875176288231 0.891288601439063 0.2234909212415216
0.7827127727719478 0.8136036709794985 0.22664485324904027
0.8028953667095001 0.8947509543055031 0.31234187081069026
0.9244452244467232 0.787375480250301 0.3198718014879533
0.910787517628823 0.891288601439063 0.2234909212415216
-0.017287227228052156 0.013603670979498474 0.4266448532490403
0.002895366709500047 0.09475095430550302 0.5123418708106903
0.12444522444672308 -0.01262451974969903 0.5198718014879533
0.11078751762882305 0.09128860143906294 0.42349092124152166
0.18271277277194786 0.013603670979498474 0.4266448532490403
0.20289536670950006 0.09475095430550302 0.5123418708106903
0.3244452244467231 -0.01262451974969903 0.5198718014879533
0.31078751762882306 0.09128860143906294 0.42349092124152166
0.3827127727719479 0.013603670979498474 0.4266448532490403
0.40289536670950005 0.09475095430550302 0.5123418708106903
0.5244452244467231 -0.01262451974969903 0.5198718014879533
0.510787517628823 0.09128860143906294 0.42349092124152166
0.5827127727719479 0.013603670979498474 0.4266448532490403
0.6028953667095001 0.09475095430550302 0.5123418708106903
0.7244452244467232 -0.01262451974969903 0.5198718014879533
0.7107875176288231 0.09128860143906294 0.42349092124152166
0.7827127727719478 0.013603670979498474 0.4266448532490403
0.8028953667095001 0.09475095430550302 0.5123418708106903
0.9244452244467232 -0.01262451974969903 0.5198718014879533
0.910787517628823 0.09128860143906294 0.42349092124152166
-0.017287227228052156 0.2136036709794985 0.4266448532490403
0.002895366709500047 0.2947509543055031 0.5123418708106903
0.12444522444672308 0.18737548025030099 0.5198718014879533
0.11078751762882305 0.29128860143906293 0.42349092124152166
0.18271277277194786 0.2136036709794985 0.4266448532490403
0.20289536670950006 0.2947509543055031 0.5123418708106903
0.3244452244467231 0.18737548025030099 0.5198718014879533
0.31078751762882306 0.29128860143906293 0.42349092124152166
0.3827127727719479 0.2136036709794985 0.4266448532490403
0.40289536670950005 0.2947509543055031 0.5123418708106903
0.5244452244467231 0.18737548025030099 0.5198718014879533
0.510787517628823 0.29128860143906293 0.42349092124152166
0.5827127727719479 0.2136036709794985 0.4266448532490403
0.6028953667095001 0.2947509543055031 0.5123418708106903
0.7244452244467232 0.18737548025030099 0.5198718014879533
0.7107875176288231 0.29128860143906293 0.42349092124152166
0.7827127727719478 0.2136036709794985 0.4266448532490403
0.8028953667095001 0.2947509543055031 0.5123418708106903
0.9244452244467232 0.18737548025030099 0.5198718014879533
0.910787517628823 0.29128860143906293 0.42349092124152166
-0.017287227228052156 0.41360367097949846 0.4266448532490403
0.002895366709500047 0.4947509543055031 0.5123418708106903
0.12444522444672308 0.387375480250301 0.5198718014879533
0.11078751762882305 0.49128860143906294 0.42349092124152166
0.18271277277194786 0.41360367097949846 0.4266448532490403
0.20289536670950006 0.4947509543055031 0.5123418708106903
0.3244452244467231 0.387375480250301 0.5198718014879533
0.31078751762882306 0.49128860143906294 0.42349092124152166
0.3827127727719479 0.41360367097949846 0.4266448532490403
0.40289536670950005 0.4947509543055031 0.5123418708106903
0.5244452244467231 0.387375480250301 0.5198718014879533
0.510787517628823 0.49128860143906294 0.42349092124152166
0.5827127727719479 0.41360367097949846 0.4266448532490403
0.6028953667095001 0.4947509543055031 0.5123418708106903
0.7244452244467232 0.387375480250301 0.5198718014879533
0.7107875176288231 0.49128860143906294 0.42349092124152166
0.7827127727719478 0.41360367097949846 0.4266448532490403
0.8028953667095001 0.4947509543055031 0.5123418708106903
0.9244452244467232 0.387375480250301 0.5198718014879533
0.910787517628823 0.49128860143906294 0.42349092124152166
-0.017287227228052156 0.6136036709794985 0.4266448532490403
0.002895366709500047 0.694750954305503 0.5123418708106903
0.12444522444672308 0.587375480250301 0.5198718014879533
0.11078751762882305 0.691288601439063 0.42349092124152166
0.18271277277194786 0.6136036709794985 0.4266448532490403
0.20289536670950006 0.694750954305503 0.5123418708106903
0.3244452244467231 0.587375480250301 0.5198718014879533
0.31078751762882306 0.691288601439063 0.42349092124152166
0.3827127727719479 0.6136036709794985 0.4266448532490403
0.40289536670950005 0.694750954305503 0.5123418708106903
0.5244452244467231 0.587375480250301 0.5198718014879533
0.510787517628823 0.691288601439063 0.42349092124152166
0.5827127727719479 0.6136036709794985 0.4266448532490403
0.6028953667095001 0.694750954305503 0.5123418708106903
0.7244452244467232 0.587375480250301 0.5198718014879533
0.7107875176288231 0.691288601439063 0.42349092124152166
0.7827127727719478 0.6136036709794985 0.4266448532490403
0.8028953667095001 0.694750954305503 0.5123418708106903
0.9244452244467232 0.587375480250301 0.5198718014879533
0.910787517628823 0.691288601439063 0.42349092124152166
-0.017287227228052156 0.8136036709794985 0.4266448532490403
0.002895366709500047 0.8947509543055031 0.5123418708106903
0.12444522444672308 0.787375480250301 0.5198718014879533
0.11078751762882305 0.891288601439063 0.42349092124152166
0.18271277277194786 0.8136036709794985 0.4266448532490403
0.20289536670950006 0.8947509543055031 0.5123418708106903
0.3244452244467231 0.787375480250301 0.5198718014879533
0.31078751762882306 0.891288601439063 0.42349092124152166
0.3827127727719479 0.8136036709794985 0.4266448532490403
0.40289536670950005 0.8947509543055031 0.5123418708106903
0.5244452244467231 0.787375480250301 0.5198718014879533
0.510787517628823 0.891288601439063 0.42349092124152166
0.5827127727719479 0.8136036709794985 0.4266448532490403
0.6028953667095001 0.8947509543055031 0.5123418708106903
0.7244452244467232 0.787375480250301 0.5198718014879533
0.7107875176288231 0.891288601439063 0.42349092124152166
0.7827127727719478 0.8136036709794985 0.4266448532490403
0.8028953667095001 0.8947509543055031 0.5123418708106903
0.9244452244467232 0.787375480250301 0.5198718014879533
0.910787517628823 0.891288601439063 0.42349092124152166
-0.017287227228052156 0.013603670979498474 0.6266448532490403
0.002895366709500047 0.09475095430550302 0.7123418708106902
0.12444522444672308 -0.01262451974969903 0.7198718014879533
0.11078751762882305 0.09128860143906294 0.6234909212415216
0.18271277277194786 0.013603670979498474 0.6266448532490403
0.20289536670950006 0.09475095430550302 0.7123418708106902
0.3244452244467231 -0.01262451974969903 0.7198718014879533
0.31078751762882306 0.09128860143906294 0.6234909212415216
0.3827127727719479 0.013603670979498474 0.6266448532490403
0.40289536670950005 0.09475095430550302 0.7123418708106902
0.5244452244467231 -0.01262451974969903 0.7198718014879533
0.510787517628823 0.09128860143906294 0.6234909212415216
0.5827127727719479 0.013603670979498474 0.6266448532490403
0.6028953667095001 0.09475095430550302 0.7123418708106902
0.7244452244467232 -0.01262451974969903 0.7198718014879533
0.7107875176288231 0.09128860143906294 0.6234909212415216
0.7827127727719478 0.013603670979498474 0.6266448532490403
0.8028953667095001 0.09475095430550302 0.7123418708106902
0.9244452244467232 -0.01262451974969903 0.7198718014879533
0.910787517628823 0.09128860143906294 0.6234909212415216
-0.017287227228052156 0.2136036709794985 0.6266448532490403
0.002895366709500047 0.2947509543055031 0.7123418708106902
0.12444522444672308 0.18737548025030099 0.7198718014879533
0.11078751762882305 0.29128860143906293 0.6234909212415216
0.18271277277194786 0.2136036709794985 0.6266448532490403
0.20289536670950006 0.2947509543055031 0.7123418708106902
0.3244452244467231 0.18737548025030099 0.7198718014879533
0.31078751762882306 0.29128860143906293 0.6234909212415216
0.3827127727719479 0.2136036709794985 0.6266448532490403
0.40289536670950005 0.2947509543055031 0.7123418708106902
0.5244452244467231 0.18737548025030099 0.7198718014879533
0.510787517628823 0.29128860143906293 0.6234909212415216
0.5827127727719479 0.2136036709794985 0.6266448532490403
0.6028953667095001 0.2947509543055031 0.7123418708106902
0.7244452244467232 0.18737548025030099 0.7198718014879533
0.7107875176288231 0.29128860143906293 0.6234909212415216
0.7827127727719478 0.2136036709794985 0.6266448532490403
0.8028953667095001 0.2947509543055031 0.7123418708106902
0.9244452244467232 0.18737548025030099 0.7198718014879533
0.910787517628823 0.29128860143906293 0.6234909212415216
-0.017287227228052156 0.41360367097949846 0.6266448532490403
0.002895366709500047 0.4947509543055031 0.7123418708106902
0.12444522444672308 0.387375480250301 0.7198718014879533
0.11078751762882305 0.49128860143906294 0.6234909212415216
0.18271277277194786 0.41360367097949846 0.6266448532490403
0.20289536670950006 0.4947509543055031 0.7123418708106902
0.3244452244467231 0.387375480250301 0.7198718014879533
0.31078751762882306 0.49128860143906294 0.6234909212415216
0.3827127727719479 0.41360367097949846 0.6266448532490403
0.40289536670950005 0.4947509543055031 0.7123418708106902
0.5244452244467231 0.387375480250301 0.7198718014879533
0.510787517628823 0.49128860143906294 0.6234909212415216
0.5827127727719479 0.41360367097949846 0.6266448532490403
0.6028953667095001 0.4947509543055031 0.7123418708106902
0.7244452244467232 0.387375480250301 0.7198718014879533
0.7107875176288231 0.49128860143906294 0.6234909212415216
0.7827127727719478 0.41360367097949846 0.6266448532490403
0.8028953667095001 0.4947509543055031 0.7123418708106902
0.9244452244467232 0.387375480250301 0.7198718014879533
0.910787517628823 0.49128860143906294 0.6234909212415216
-0.017287227228052156 0.6136036709794985 0.6266448532490403
0.002895366709500047 0.694750954305503 0.7123418708106902
0.12444522444672308 0.587375480250301 0.7198718014879533
0.11078751762882305 0.691288601439063 0.6234909212415216
0.18271277277194786 0.6136036709794985 0.6266448532490403
0.20289536670950006 0.694750954305503 0.7123418708106902
0.3244452244467231 0.587375480250301 0.7198718014879533
0.31078751762882306 0.691288601439063 0.6234909212415216
0.3827127727719479 0.6136036709794985 0.6266448532490403
0.40289536670950005 0.694750954305503 0.7123418708106902
0.5244452244467231 0.587375480250301 0.7198718014879533
0.510787517628823 0.691288601439063 0.6234909212415216
0.5827127727719479 0.6136036709794985 0.6266448532490403
0.6028953667095001 0.694750954305503 0.7123418708106902
0.7244452244467232 0.587375480250301 0.7198718014879533
0.7107875176288231 0.691288601439063 0.6234909212415216
0.7827127727719478 0.6136036709794985 0.6266448532490403
0.8028953667095001 0.694750954305503 0.7123418708106902
0.9244452244467232 0.587375480250301 0.7198718014879533
0.910787517628823 0.691288601439063 0.6234909212415216
-0.017287227228052156 0.8136036709794985 0.6266448532490403
0.002895366709500047 0.8947509543055031 0.7123418708106902
0.12444522444672308 0.787375480250301 0.7198718014879533
0.11078751762882305 0.891288601439063 0.6234909212415216
0.18271277277194786 0.8136036709794985 0.6266448532490403
0.20289536670950006 0.8947509543055031 0.7123418708106902
0.3244452244467231 0.787375480250301 0.7198718014879533
0.31078751762882306 0.891288601439063 0.6234909212415216
0.3827127727719479 0.8136036709794985 0.6266448532490403
0.40289536670950005 0.8947509543055031 0.7123418708106902
0.5244452244467231 0.787375480250301 0.7198718014879533
0.510787517628823 0.891288601439063 0.6234909212415216
0.5827127727719479 0.8136036709794985 0.6266448532490403
0.6028953667095001 0.8947509543055031 0.7123418708106902
0.7244452244467232 0.787375480250301 0.7198718014879533
0.7107875176288231 0.891288601439063 0.6234909212415216
0.7827127727719478 0.8136036709794985 0.6266448532490403
0.8028953667095001 0.8947509543055031 0.7123418708106902
0.9244452244467232 0.787375480250301 0.7198718014879533
0.910787517628823 0.891288601439063 0.6234909212415216
-0.017287227228052156 0.013603670979498474 0.8266448532490402
0.002895366709500047 0.09475095430550302 0.9123418708106903
0.12444522444672308 -0.01262451974969903 0.9198718014879532
0.11078751762882305 0.09128860143906294 0.8234909212415217
0.18271277277194786 0.013603670979498474 0.8266448532490402
0.20289536670950006 0.09475095430550302 0.9123418708106903
0.3244452244467231 -0.01262451974969903 0.9198718014879532
0.31078751762882306 0.09128860143906294 0.8234909212415217
0.3827127727719479 0.013603670979498474 0.8266448532490402
0.40289536670950005 0.09475095430550302 0.9123418708106903
0.5244452244467231 -0.01262451974969903 0.9198718014879532
0.510787517628823 0.09128860143906294 0.8234909212415217
0.5827127727719479 0.013603670979498474 0.8266448532490402
0.6028953667095001 0.09475095430550302 0.9123418708106903
0.7244452244467232 -0.01262451974969903 0.9198718014879532
0.7107875176288231 0.09128860143906294 0.8234909212415217
0.7827127727719478 0.013603670979498474 0.8266448532490402
0.8028953667095001 0.09475095430550302 0.9123418708106903
0.9244452244467232 -0.01262451974969903 0.9198718014879532
0.910787517628823 0.09128860143906294 0.8234909212415217
-0.017287227228052156 0.2136036709794985 0.8266448532490402
0.002895366709500047 0.2947509543055031 0.9123418708106903
0.12444522444672308 0.18737548025030099 0.9198718014879532
0.11078751762882305 0.29128860143906293 0.8234909212415217
0.18271277277194786 0.2136036709794985 0.8266448532490402
0.20289536670950006 0.2947509543055031 0.9123418708106903
0.3244452244467231 0.18737548025030099 0.9198718014879532
0.31078751762882306 0.29128860143906293 0.8234909212415217
0.3827127727719479 0.2136036709794985 0.8266448532490402
0.40289536670950005 0.2947509543055031 0.9123418708106903
0.5244452244467231 0.18737548025030099 0.9198718014879532
0.510787517628823 0.29128860143906293 0.8234909212415217
0.5827127727719479 0.2136036709794985 0.8266448532490402
0.6028953667095001 0.2947509543055031 0.9123418708106903
0.7244452244467232 0.18737548025030099 0.9198718014879532
0.7107875176288231 0.29128860143906293 0.8234909212415217
0.7827127727719478 0.2136036709794985 0.8266448532490402
0.8028953667095001 0.2947509543055031 0.9123418708106903
0.9244452244467232 0.18737548025030099 0.9198718014879532
0.910787517628823 0.29128860143906293 0.8234909212415217
-0.017287227228052156 0.41360367097949846 0.8266448532490402
0.002895366709500047 0.4947509543055031 0.9123418708106903
0.12444522444672308 0.387375480250301 0.9198718014879532
0.11078751762882305 0.49128860143906294 0.8234909212415217
0.18271277277194786 0.41360367097949846 0.8266448532490402
0.20289536670950006 0.4947509543055031 0.9123418708106903
0.3244452244467231 0.387375480250301 0.9198718014879532
0.31078751762882306 0.49128860143906294 0.8234909212415217
0.3827127727719479 0.41360367097949846 0.8266448532490402
0.40289536670950005 0.4947509543055031 0.9123418708106903
0.5244452244467231 0.387375480250301 0.9198718014879532
0.510787517628823 0.49128860143906294 0.8234909212415217
0.5827127727719479 0.41360367097949846 0.8266448532490402
0.6028953667095001 0.4947509543055031 0.9123418708106903
0.7244452244467232 0.387375480250301 0.9198718014879532
0.7107875176288231 0.49128860143906294 0.8234909212415217
0.7827127727719478 0.41360367097949846 0.8266448532490402
0.8028953667095001 0.4947509543055031 0.9123418708106903
0.9244452244467232 0.387375480250301 0.9198718014879532
0.910787517628823 0.49128860143906294 0.8234909212415217
-0.017287227228052156 0.6136036709794985 0.8266448532490402
0.002895366709500047 0.694750954305503 0.9123418708106903
0.12444522444672308 0.587375480250301 0.9198718014879532
0.11078751762882305 0.691288601439063 0.8234909212415217
0.18271277277194786 0.6136036709794985 0.8266448532490402
0.20289536670950006 0.694750954305503 0.9123418708106903
0.3244452244467231 0.587375480250301 0.9198718014879532
0.31078751762882306 0.691288601439063 0.8234909212415217
0.3827127727719479 0.6136036709794985 0.8266448532490402
0.40289536670950005 0.694750954305503 0.9123418708106903
0.5244452244467231 0.587375480250301 0.9198718014879532
0.510787517628823 0.691288601439063 0.8234909212415217
0.5827127727719479 0.6136036709794985 0.8266448532490402
0.6028953667095001 0.694750954305503 0.9123418708106903
0.7244452244467232 0.587375480250301 0.9198718014879532
0.7107875176288231 0.691288601439063 0.8234909212415217
0.7827127727719478 0.6136036709794985 0.8266448532490402
0.8028953667095001 0.694750954305503 0.9123418708106903
0.9244452244467232 0.587375480250301 0.9198718014879532
0.910787517628823 0.691288601439063 0.8234909212415217
-0.017287227228052156 0.8136036709794985 0.8266448532490402
0.002895366709500047 0.8947509543055031 0.9123418708106903
0.12444522444672308 0.787375480250301 0.9198718014879532
0.11078751762882305 0.891288601439063 0.8234909212415217
0.18271277277194786 0.8136036709794985 0.8266448532490402
0.20289536670950006 0.8947509543055031 0.9123418708106903
0.3244452244467231 0.787375480250301 0.9198718014879532
0.31078751762882306 0.891288601439063 0.8234909212415217
0.3827127727719479 0.8136036709794985 0.8266448532490402
0.40289536670950005 0.8947509543055031 0.9123418708106903
0.5244452244467231 0.787375480250301 0.9198718014879532
0.510787517628823 0.891288601439063 0.8234909212415217
0.5827127727719479 0.8136036709794985 0.8266448532490402
0.6028953667095001 0.8947509543055031 0.9123418708106903
0.7244452244467232 0.787375480250301 0.9198718014879532
0.7107875176288231 0.891288601439063 0.8234909212415217
0.7827127727719478 0.8136036709794985 0.8266448532490402
0.8028953667095001 0.8947509543055031 0.9123418708106903
0.9244452244467232 0.787375480250301 0.9198718014879532
0.910787517628823 0.891288601439063 0.8234909212415217
0.09094804344708209 -0.01417743139873378 0.008780162350020992
0.027740151502576162 0.11673355717523126 0.02129921046393641
-0.02026508121728446 0.00035541545405619156 0.10059354110756409
0.11827154179566667 0.0781594067019859 0.1267620741771184
0.2909480434470821 -0.01417743139873378 0.008780162350020992
0.2277401515025762 0.11673355717523126 0.02129921046393641
0.17973491878271555 0.00035541545405619156 0.10059354110756409
0.3182715417956667 0.0781594067019859 0.1267620741771184
0.4909480434470821 -0.01417743139873378 0.008780162350020992
0.4277401515025762 0.11673355717523126 0.02129921046393641
0.37973491878271554 0.00035541545405619156 0.10059354110756409
0.5182715417956667 0.0781594067019859 0.1267620741771184
0.690948043447082 -0.01417743139873378 0.008780162350020992
0.6277401515025762 0.11673355717523126 0.02129921046393641
0.5797349187827155 0.00035541545405619156 0.10059354110756409
0.7182715417956667 0.0781594067019859 0.1267620741771184
0.8909480434470821 -0.01417743139873378 0.008780162350020992
0.8277401515025762 0.11673355717523126 0.02129921046393641
0.7797349187827156 0.00035541545405619156 0.10059354110756409
0.9182715417956667 0.0781594067019859 0.1267620741771184
0.09094804344708209 0.18582256860126622 0.008780162350020992
0.027740151502576162 0.3167335571752313 0.02129921046393641
-0.02026508121728446 0.20035541545405622 0.10059354110756409
0.11827154179566667 0.2781594067019859 0.1267620741771184
0.2909480434470821 0.18582256860126622 0.008780162350020992
0.2277401515025762 0.3167335571752313 0.02129921046393641
0.17973491878271555 0.20035541545405622 0.10059354110756409
0.3182715417956667 0.2781594067019859 0.1267620741771184
0.4909480434470821 0.18582256860126622 0.008780162350020992
0.4277401515025762 0.3167335571752313 0.02129921046393641
0.37973491878271554 0.20035541545405622 0.10059354110756409
0.5182715417956667 0.2781594067019859 0.1267620741771184
0.690948043447082 0.18582256860126622 0.008780162350020992
0.6277401515025762 0.3167335571752313 0.02129921046393641
0.5797349187827155 0.20035541545405622 0.10059354110756409
0.7182715417956667 0.2781594067019859 0.1267620741771184
0.8909480434470821 0.18582256860126622 0.008780162350020992
0.8277401515025762 0.3167335571752313 0.02129921046393641
0.7797349187827156 0.20035541545405622 0.10059354110756409
0.9182715417956667 0.2781594067019859 0.1267620741771184
0.09094804344708209 0.38582256860126624 0.008780162350020992
0.027740151502576162 0.5167335571752313 0.02129921046393641
-0.02026508121728446 0.40035541545405623 0.10059354110756409
0.11827154179566667 0.4781594067019859 0.1267620741771184
0.2909480434470821 0.38582256860126624 0.008780162350020992
0.2277401515025762 0.5167335571752313 0.02129921046393641
0.17973491878271555 0.40035541545405623 0.10059354110756409
0.3182715417956667 0.4781594067019859 0.1267620741771184
0.4909480434470821 0.38582256860126624 0.008780162350020992
0.4277401515025762 0.5167335571752313 0.02129921046393641
0.37973491878271554 0.40035541545405623 0.10059354110756409
0.5182715417956667 0.4781594067019859 0.1267620741771184
0.690948043447082 0.38582256860126624 0.008780162350020992
0.6277401515025762 0.5167335571752313 0.02129921046393641
0.5797349187827155 0.40035541545405623 0.10059354110756409
0.7182715417956667 0.4781594067019859 0.1267620741771184
0.8909480434470821 0.38582256860126624 0.008780162350020992
0.8277401515025762 0.5167335571752313 0.02129921046393641
0.7797349187827156 0.40035541545405623 0.10059354110756409
0.9182715417956667 0.4781594067019859 0.1267620741771184
0.09094804344708209 0.5858225686012662 0.008780162350020992
0.027740151502576162 0.7167335571752314 0.02129921046393641
-0.02026508121728446 0.6003554154540562 0.10059354110756409
0.11827154179566667 0.6781594067019859 0.1267620741771184
0.2909480434470821 0.5858225686012662 0.008780162350020992
0.2277401515025762 0.7167335571752314 0.02129921046393641
0.17973491878271555 0.6003554154540562 0.10059354110756409
0.3182715417956667 0.6781594067019859 0.1267620741771184
0.4909480434470821 0.5858225686012662 0.008780162350020992
0.4277401515025762 0.7167335571752314 0.02129921046393641
0.37973491878271554 0.6003554154540562 0.10059354110756409
0.5182715417956667 0.6781594067019859 0.1267620741771184
0.690948043447082 0.5858225686012662 0.008780162350020992
0.6277401515025762 0.7167335571752314 0.02129921046393641
0.5797349187827155 0.6003554154540562 0.10059354110756409
0.7182715417956667 0.6781594067019859 0.1267620741771184
0.8909480434470821 0.5858225686012662 0.008780162350020992
0.8277401515025762 0.7167335571752314 0.02129921046393641
0.7797349187827156 0.6003554154540562 0.10059354110756409
0.9182715417956667 0.6781594067019859 0.1267620741771184
0.09094804344708209 0.7858225686012662 0.008780162350020992
0.027740151502576162 0.9167335571752313 0.02129921046393641
-0.02026508121728446 0.8003554154540562 0.10059354110756409
0.11827154179566667 0.8781594067019859 0.1267620741771184
0.2909480434470821 0.7858225686012662 0.008780162350020992
0.2277401515025762 0.9167335571752313 0.02129921046393641
0.17973491878271555 0.8003554154540562 0.10059354110756409
0.3182715417956667 0.8781594067019859 0.1267620741771184
0.4909480434470821 0.7858225686012662 0.008780162350020992
0.4277401515025762 0.9167335571752313 0.02129921046393641
0.37973491878271554 0.8003554154540562 0.10059354110756409
0.5182715417956667 0.8781594067019859 0.1267620741771184
0.690948043447082 0.7858225686012662 0.008780162350020992
0.6277401515025762 0.9167335571752313 0.02129921046393641
0.5797349187827155 0.8003554154540562 0.10059354110756409
0.7182715417956667 0.8781594067019859 0.1267620741771184
0.8909480434470821 0.7858225686012662 0.008780162350020992
0.8277401515025762 0.9167335571752313 0.02129921046393641
0.7797349187827156 0.8003554154540562 0.10059354110756409
0.9182715417956667 0.8781594067019859 0.1267620741771184
0.09094804344708209 -0.01417743139873378 0.208780162350021
0.027740151502576162 0.11673355717523126 0.2212992104639364
-0.02026508121728446 0.00035541545405619156 0.30059354110756414
0.11827154179566667 0.0781594067019859 0.32676207417711844
0.2909480434470821 -0.01417743139873378 0.208780162350021
0.2277401515025762 0.11673355717523126 0.2212992104639364
0.17973491878271555 0.00035541545405619156 0.30059354110756414
0.3182715417956667 0.0781594067019859 0.32676207417711844
0.4909480434470821 -0.01417743139873378 0.208780162350021
0.4277401515025762 0.11673355717523126 0.2212992104639364
0.37973491878271554 0.00035541545405619156 0.30059354110756414
0.5182715417956667 0.0781594067019859 0.32676207417711844
0.690948043447082 -0.01417743139873378 0.208780162350021
0.6277401515025762 0.11673355717523126 0.2212992104639364
0.5797349187827155 0.00035541545405619156 0.30059354110756414
0.7182715417956667 0.0781594067019859 0.32676207417711844
0.8909480434470821 -0.01417743139873378 0.208780162350021
0.8277401515025762 0.11673355717523126 0.2212992104639364
0.7797349187827156 0.00035541545405619156 0.30059354110756414
0.9182715417956667 0.0781594067019859 0.32676207417711844
0.09094804344708209 0.18582256860126622 0.208780162350021
0.027740151502576162 0.3167335571752313 0.2212992104639364
-0.02026508121728446 0.20035541545405622 0.30059354110756414
0.11827154179566667 0.2781594067019859 0.32676207417711844
0.2909480434470821 0.18582256860126622 0.208780162350021
0.2277401515025762 0.3167335571752313 0.2212992104639364
0.17973491878271555 0.20035541545405622 0.30059354110756414
0.3182715417956667 0.2781594067019859 0.32676207417711844
0.4909480434470821 0.18582256860126622 0.208780162350021
0.4277401515025762 0.3167335571752313 0.2212992104639364
0.37973491878271554 0.20035541545405622 0.30059354110756414
0.5182715417956667 0.2781594067019859 0.32676207417711844
0.690948043447082 0.18582256860126622 0.208780162350021
0.6277401515025762 0.3167335571752313 0.2212992104639364
0.5797349187827155 0.20035541545405622 0.30059354110756414
0.7182715417956667 0.2781594067019859 0.32676207417711844
0.8909480434470821 0.18582256860126622 0.208780162350021
0.8277401515025762 0.3167335571752313 0.2212992104639364
0.7797349187827156 0.20035541545405622 0.30059354110756414
0.9182715417956667 0.2781594067019859 0.32676207417711844
0.09094804344708209 0.38582256860126624 0.208780162350021
0.027740151502576162 0.5167335571752313 0.2212992104639364
-0.02026508121728446 0.40035541545405623 0.30059354110756414
0.11827154179566667 0.4781594067019859 0.32676207417711844
0.2909480434470821 0.38582256860126624 0.208780162350021
0.2277401515025762 0.5167335571752313 0.2212992104639364
0.17973491878271555 0.40035541545405623 0.30059354110756414
0.3182715417956667 0.4781594067019859 0.32676207417711844
0.4909480434470821 0.38582256860126624 0.208780162350021
0.4277401515025762 0.5167335571752313 0.2212992104639364
0.37973491878271554 0.40035541545405623 0.30059354110756414
0.5182715417956667 0.4781594067019859 0.32676207417711844
0.690948043447082 0.38582256860126624 0.208780162350021
0.6277401515025762 0.5167335571752313 0.2212992104639364
0.5797349187827155 0.40035541545405623 0.30059354110756414
0.7182715417956667 0.4781594067019859 0.32676207417711844
0.8909480434470821 0.38582256860126624 0.208780162350021
0.8277401515025762 0.5167335571752313 0.2212992104639364
0.7797349187827156 0.40035541545405623 0.30059354110756414
0.9182715417956667 0.4781594067019859 0.32676207417711844
0.09094804344708209 0.5858225686012662 0.208780162350021
0.027740151502576162 0.7167335571752314 0.2212992104639364
-0.02026508121728446 0.6003554154540562 0.30059354110756414
0.11827154179566667 0.6781594067019859 0.32676207417711844
0.2909480434470821 0.5858225686012662 0.208780162350021
0.2277401515025762 0.7167335571752314 0.2212992104639364
0.17973491878271555 0.6003554154540562 0.30059354110756414
0.3182715417956667 0.6781594067019859 0.32676207417711844
0.4909480434470821 0.5858225686012662 0.208780162350021
0.4277401515025762 0.7167335571752314 0.2212992104639364
0.37973491878271554 0.6003554154540562 0.30059354110756414
0.5182715417956667 0.6781594067019859 0.32676207417711844
0.690948043447082 0.5858225686012662 0.208780162350021
0.6277401515025762 0.7167335571752314 0.2212992104639364
0.5797349187827155 0.6003554154540562 0.30059354110756414
0.7182715417956667 0.6781594067019859 0.32676207417711844
0.8909480434470821 0.5858225686012662 0.208780162350021
0.8277401515025762 0.7167335571752314 0.2212992104639364
0.7797349187827156 0.6003554154540562 0.30059354110756414
0.9182715417956667 0.6781594067019859 0.32676207417711844
0.09094804344708209 0.7858225686012662 0.208780162350021
0.027740151502576162 0.9167335571752313 0.2212992104639364
-0.02026508121728446 0.8003554154540562 0.30059354110756414
0.11827154179566667 0.8781594067019859 0.32676207417711844
0.2909480434470821 0.7858225686012662 0.208780162350021
0.2277401515025762 0.9167335571752313 0.2212992104639364
0.17973491878271555 0.8003554154540562 0.30059354110756414
0.3182715417956667 0.8781594067019859 0.32676207417711844
0.4909480434470821 0.7858225686012662 0.208780162350021
0.4277401515025762 0.9167335571752313 0.2212992104639364
0.37973491878271554 0.8003554154540562 0.30059354110756414
0.5182715417956667 0.8781594067019859 0.32676207417711844
0.690948043447082 0.7858225686012662 0.208780162350021
0.6277401515025762 0.9167335571752313 0.2212992104639364
0.5797349187827155 0.8003554154540562 0.30059354110756414
0.7182715417956667 0.8781594067019859 0.32676207417711844
0.8909480434470821 0.7858225686012662 0.208780162350021
0.8277401515025762 0.9167335571752313 0.2212992104639364
0.7797349187827156 0.8003554154540562 0.30059354110756414
0.9182715417956667 0.8781594067019859 0.32676207417711844
0.09094804344708209 -0.01417743139873378 0.40878016235002107
0.027740151502576162 0.11673355717523126 0.42129921046393637
-0.02026508121728446 0.00035541545405619156 0.5005935411075642
0.11827154179566667 0.0781594067019859 0.5267620741771184
0.2909480434470821 -0.01417743139873378 0.40878016235002107
0.2277401515025762 0.11673355717523126 0.42129921046393637
0.17973491878271555 0.00035541545405619156 0.5005935411075642
0.3182715417956667 0.0781594067019859 0.5267620741771184
0.4909480434470821 -0.01417743139873378 0.40878016235002107
0.4277401515025762 0.11673355717523126 0.42129921046393637
0.37973491878271554 0.00035541545405619156 0.5005935411075642
0.5182715417956667 0.0781594067019859 0.5267620741771184
0.690948043447082 -0.01417743139873378 0.40878016235002107
0.6277401515025762 0.11673355717523126 0.42129921046393637
0.5797349187827155 0.00035541545405619156 0.5005935411075642
0.7182715417956667 0.0781594067019859 0.5267620741771184
0.8909480434470821 -0.01417743139873378 0.40878016235002107
0.8277401515025762 0.11673355717523126 0.42129921046393637
0.7797349187827156 0.00035541545405619156 0.5005935411075642
0.9182715417956667 0.0781594067019859 0.5267620741771184
0.09094804344708209 0.18582256860126622 0.40878016235002107
0.027740151502576162 0.3167335571752313 0.42129921046393637
-0.02026508121728446 0.20035541545405622 0.5005935411075642
0.11827154179566667 0.2781594067019859 0.5267620741771184
0.2909480434470821 0.18582256860126622 0.40878016235002107
0.2277401515025762 0.3167335571752313 0.42129921046393637
0.17973491878271555 0.20035541545405622 0.5005935411075642
0.3182715417956667 0.2781594067019859 0.5267620741771184
0.4909480434470821 0.18582256860126622 0.40878016235002107
0.4277401515025762 0.3167335571752313 0.42129921046393637
0.37973491878271554 0.20035541545405622 0.5005935411075642
0.5182715417956667 0.2781594067019859 0.5267620741771184
0.690948043447082 0.18582256860126622 0.40878016235002107
0.6277401515025762 0.3167335571752313 0.42129921046393637
0.5797349187827155 0.20035541545405622 0.5005935411075642
0.7182715417956667 0.2781594067019859 0.5267620741771184
0.8909480434470821 0.18582256860126622 0.40878016235002107
0.8277401515025762 0.3167335571752313 0.42129921046393637
0.7797349187827156 0.20035541545405622 0.5005935411075642
0.9182715417956667 0.2781594067019859 0.5267620741771184
0.09094804344708209 0.38582256860126624 0.40878016235002107
0.027740151502576162 0.5167335571752313 0.42129921046393637
-0.02026508121728446 0.40035541545405623 0.5005935411075642
0.11827154179566667 0.4781594067019859 0.5267620741771184
0.2909480434470821 0.38582256860126624 0.40878016235002107
0.2277401515025762 0.5167335571752313 0.42129921046393637
0.17973491878271555 0.40035541545405623 0.5005935411075642
0.3182715417956667 0.4781594067019859 0.5267620741771184
0.4909480434470821 0.38582256860126624 0.40878016235002107
0.4277401515025762 0.5167335571752313 0.42129921046393637
0.37973491878271554 0.40035541545405623 0.5005935411075642
0.5182715417956667 0.4781594067019859 0.5267620741771184
0.690948043447082 0.38582256860126624 0.40878016235002107
0.6277401515025762 0.5167335571752313 0.42129921046393637
0.5797349187827155 0.40035541545405623 0.5005935411075642
0.7182715417956667 0.4781594067019859 0.5267620741771184
0.8909480434470821 0.38582256860126624 0.40878016235002107
0.8277401515025762 0.5167335571752313 0.42129921046393637
0.7797349187827156 0.40035541545405623 0.5005935411075642
0.9182715417956667 0.4781594067019859 0.5267620741771184
0.09094804344708209 0.5858225686012662 0.40878016235002107
0.027740151502576162 0.7167335571752314 0.42129921046393637
-0.02026508121728446 0.6003554154540562 0.5005935411075642
0.11827154179566667 0.6781594067019859 0.5267620741771184
0.2909480434470821 0.5858225686012662 0.40878016235002107
0.2277401515025762 0.7167335571752314 0.42129921046393637
0.17973491878271555 0.6003554154540562 0.5005935411075642
0.3182715417956667 0.6781594067019859 0.5267620741771184
0.4909480434470821 0.5858225686012662 0.40878016235002107
0.4277401515025762 0.7167335571752314 0.42129921046393637
0.37973491878271554 0.6003554154540562 0.5005935411075642
0.5182715417956667 0.6781594067019859 0.5267620741771184
0.690948043447082 0.5858225686012662 0.40878016235002107
0.6277401515025762 0.7167335571752314 0.42129921046393637
0.5797349187827155 0.6003554154540562 0.5005935411075642
0.7182715417956667 0.6781594067019859 0.5267620741771184
0.8909480434470821 0.5858225686012662 0.40878016235002107
0.8277401515025762 0.7167335571752314 0.42129921046393637
0.7797349187827156 0.6003554154540562 0.5005935411075642
0.9182715417956667 0.6781594067019859 0.5267620741771184
0.09094804344708209 0.7858225686012662 0.40878016235002107
0.027740151502576162 0.9167335571752313 0.42129921046393637
-0.02026508121728446 0.8003554154540562 0.5005935411075642
0.11827154179566667 0.8781594067019859 0.5267620741771184
0.2909480434470821 0.7858225686012662 0.40878016235002107
0.2277401515025762 0.9167335571752313 0.42129921046393637
0.17973491878271555 0.8003554154540562 0.5005935411075642
0.3182715417956667 0.8781594067019859 0.5267620741771184
0.4909480434470821 0.7858225686012662 0.40878016235002107
0.4277401515025762 0.9167335571752313 0.42129921046393637
0.37973491878271554 0.8003554154540562 0.5005935411075642
0.5182715417956667 0.8781594067019859 0.5267620741771184
0.690948043447082 0.7858225686012662 0.40878016235002107
0.6277401515025762 0.9167335571752313 0.42129921046393637
0.5797349187827155 0.8003554154540562 0.5005935411075642
0.7182715417956667 0.8781594067019859 0.5267620741771184
0.8909480434470821 0.7858225686012662 0.40878016235002107
0.8277401515025762 0.9167335571752313 0.42129921046393637
0.7797349187827156 0.8003554154540562 0.5005935411075642
0.9182715417956667 0.8781594067019859 0.5267620741771184
0.09094804344708209 -0.01417743139873378 0.6087801623500211
0.027740151502576162 0.11673355717523126 0.6212992104639364
-0.02026508121728446 0.00035541545405619156 0.7005935411075641
0.11827154179566667 0.0781594067019859 0.7267620741771185
0.2909480434470821 -0.01417743139873378 0.6087801623500211
0.2277401515025762 0.11673355717523126 0.6212992104639364
0.17973491878271555 0.00035541545405619156 0.7005935411075641
0.3182715417956667 0.0781594067019859 0.7267620741771185
0.4909480434470821 -0.01417743139873378 0.6087801623500211
0.4277401515025762 0.11673355717523126 0.6212992104639364
0.37973491878271554 0.00035541545405619156 0.7005935411075641
0.5182715417956667 0.0781594067019859 0.7267620741771185
0.690948043447082 -0.01417743139873378 0.6087801623500211
0.6277401515025762 0.11673355717523126 0.6212992104639364
0.5797349187827155 0.00035541545405619156 0.7005935411075641
0.7182715417956667 0.0781594067019859 0.7267620741771185
0.8909480434470821 -0.01417743139873378 0.6087801623500211
0.8277401515025762 0.11673355717523126 0.6212992104639364
0.7797349187827156 0.00035541545405619156 0.7005935411075641
0.9182715417956667 0.0781594067019859 0.7267620741771185
0.09094804344708209 0.18582256860126622 0.6087801623500211
0.027740151502576162 0.3167335571752313 0.6212992104639364
-0.02026508121728446 0.20035541545405622 0.7005935411075641
0.11827154179566667 0.2781594067019859 0.7267620741771185
0.2909480434470821 0.18582256860126622 0.6087801623500211
0.2277401515025762 0.3167335571752313 0.6212992104639364
0.17973491878271555 0.20035541545405622 0.7005935411075641
0.3182715417956667 0.2781594067019859 0.7267620741771185
0.4909480434470821 0.18582256860126622 0.6087801623500211
0.4277401515025762 0.3167335571752313 0.6212992104639364
0.37973491878271554 0.20035541545405622 0.7005935411075641
0.5182715417956667 0.2781594067019859 0.7267620741771185
0.690948043447082 0.18582256860126622 0.6087801623500211
0.6277401515025762 0.3167335571752313 0.6212992104639364
0.5797349187827155 0.20035541545405622 0.7005935411075641
0.7182715417956667 0.2781594067019859 0.7267620741771185
0.8909480434470821 0.18582256860126622 0.6087801623500211
0.8277401515025762 0.3167335571752313 0.6212992104639364
0.7797349187827156 0.20035541545405622 0.7005935411075641
0.9182715417956667 0.2781594067019859 0.7267620741771185
0.09094804344708209 0.38582256860126624 0.6087801623500211
0.027740151502576162 0.5167335571752313 0.6212992104639364
-0.02026508121728446 0.40035541545405623 0.7005935411075641
0.11827154179566667 0.4781594067019859 0.7267620741771185
0.2909480434470821 0.38582256860126624 0.6087801623500211
0.2277401515025762 0.5167335571752313 0.6212992104639364
0.17973491878271555 0.40035541545405623 0.7005935411075641
0.3182715417956667 0.4781594067019859 0.7267620741771185
0.4909480434470821 0.38582256860126624 0.6087801623500211
0.4277401515025762 0.5167335571752313 0.6212992104639364
0.37973491878271554 0.40035541545405623 0.7005935411075641
0.5182715417956667 0.4781594067019859 0.7267620741771185
0.690948043447082 0.38582256860126624 0.6087801623500211
0.6277401515025762 0.5167335571752313 0.6212992104639364
0.5797349187827155 0.40035541545405623 0.7005935411075641
0.7182715417956667 0.4781594067019859 0.7267620741771185
0.8909480434470821 0.38582256860126624 0.6087801623500211
0.8277401515025762 0.5167335571752313 0.6212992104639364
0.7797349187827156 0.40035541545405623 0.7005935411075641
0.9182715417956667 0.4781594067019859 0.7267620741771185
0.09094804344708209 0.5858225686012662 0.6087801623500211
0.027740151502576162 0.7167335571752314 0.6212992104639364
-0.02026508121728446 0.6003554154540562 0.7005935411075641
0.11827154179566667 0.6781594067019859 0.7267620741771185
0.2909480434470821 0.5858225686012662 0.6087801623500211
0.2277401515025762 0.7167335571752314 0.6212992104639364
0.17973491878271555 0.6003554154540562 0.7005935411075641
0.3182715417956667 0.6781594067019859 0.7267620741771185
0.4909480434470821 0.5858225686012662 0.6087801623500211
0.4277401515025762 0.7167335571752314 0.6212992104639364
0.37973491878271554 0.6003554154540562 0.7005935411075641
0.5182715417956667 0.6781594067019859 0.7267620741771185
0.690948043447082 0.5858225686012662 0.6087801623500211
0.6277401515025762 0.7167335571752314 0.6212992104639364
0.5797349187827155 0.6003554154540562 0.7005935411075641
0.7182715417956667 0.6781594067019859 0.7267620741771185
0.8909480434470821 0.5858225686012662 0.6087801623500211
0.8277401515025762 0.7167335571752314 0.6212992104639364
0.7797349187827156 0.6003554154540562 0.7005935411075641
0.9182715417956667 0.6781594067019859 0.7267620741771185
0.09094804344708209 0.7858225686012662 0.6087801623500211
0.027740151502576162 0.9167335571752313 0.6212992104639364
-0.02026508121728446 0.8003554154540562 0.7005935411075641
0.11827154179566667 0.8781594067019859 0.7267620741771185
0.2909480434470821 0.7858225686012662 0.6087801623500211
0.2277401515025762 0.9167335571752313 0.6212992104639364
0.17973491878271555 0.8003554154540562 0.7005935411075641
0.3182715417956667 0.8781594067019859 0.7267620741771185
0.4909480434470821 0.7858225686012662 0.6087801623500211
0.4277401515025762 0.9167335571752313 0.6212992104639364
0.37973491878271554 0.8003554154540562 0.7005935411075641
0.5182715417956667 0.8781594067019859 0.7267620741771185
0.690948043447082 0.7858225686012662 0.6087801623500211
0.6277401515025762 0.9167335571752313 0.6212992104639364
0.5797349187827155 0.8003554154540562 0.7005935411075641
0.7182715417956667 0.8781594067019859 0.7267620741771185
0.8909480434470821 0.7858225686012662 0.6087801623500211
0.8277401515025762 0.9167335571752313 0.6212992104639364
0.7797349187827156 0.8003554154540562 0.7005935411075641
0.9182715417956667 0.8781594067019859 0.7267620741771185
0.09094804344708209 -0.01417743139873378 0.808780162350021
0.027740151502576162 0.11673355717523126 0.8212992104639364
-0.02026508121728446 0.00035541545405619156 0.9005935411075641
0.11827154179566667 0.0781594067019859 0.9267620741771184
0.2909480434470821 -0.01417743139873378 0.808780162350021
0.2277401515025762 0.11673355717523126 0.8212992104639364
0.17973491878271555 0.00035541545405619156 0.9005935411075641
0.3182715417956667 0.0781594067019859 0.9267620741771184
0.4909480434470821 -0.01417743139873378 0.808780162350021
0.4277401515025762 0.11673355717523126 0.8212992104639364
0.37973491878271554 0.00035541545405619156 0.9005935411075641
0.5182715417956667 0.0781594067019859 0.9267620741771184
0.690948043447082 -0.01417743139873378 0.808780162350021
0.6277401515025762 0.11673355717523126 0.8212992104639364
0.5797349187827155 0.00035541545405619156 0.9005935411075641
0.7182715417956667 0.0781594067019859 0.9267620741771184
0.8909480434470821 -0.01417743139873378 0.808780162350021
0.8277401515025762 0.11673355717523126 0.8212992104639364
0.7797349187827156 0.00035541545405619156 0.9005935411075641
0.9182715417956667 0.0781594067019859 0.9267620741771184
0.09094804344708209 0.18582256860126622 0.808780162350021
0.027740151502576162 0.3167335571752313 0.8212992104639364
-0.02026508121728446 0.20035541545405622 0.9005935411075641
0.11827154179566667 0.2781594067019859 0.9267620741771184
0.2909480434470821 0.18582256860126622 0.808780162350021
0.2277401515025762 0.3167335571752313 0.8212992104639364
0.17973491878271555 0.20035541545405622 0.9005935411075641
0.3182715417956667 0.2781594067019859 0.9267620741771184
0.4909480434470821 0.18582256860126622 0.808780162350021
0.4277401515025762 0.3167335571752313 0.8212992104639364
0.37973491878271554 0.20035541545405622 0.9005935411075641
0.5182715417956667 0.2781594067019859 0.9267620741771184
0.690948043447082 0.18582256860126622 0.808780162350021
0.6277401515025762 0.3167335571752313 0.8212992104639364
0.5797349187827155 0.20035541545405622 0.9005935411075641
0.7182715417956667 0.2781594067019859 0.9267620741771184
0.8909480434470821 0.18582256860126622 0.808780162350021
0.8277401515025762 0.3167335571752313 0.8212992104639364
0.7797349187827156 0.20035541545405622 0.9005935411075641
0.9182715417956667 0.2781594067019859 0.9267620741771184
0.09094804344708209 0.38582256860126624 0.808780162350021
0.027740151502576162 0.5167335571752313 0.8212992104639364
-0.02026508121728446 0.40035541545405623 0.9005935411075641
0.11827154179566667 0.4781594067019859 0.9267620741771184
0.2909480434470821 0.38582256860126624 0.808780162350021
0.2277401515025762 0.5167335571752313 0.8212992104639364
0.17973491878271555 0.40035541545405623 0.9005935411075641
0.3182715417956667 0.4781594067019859 0.9267620741771184
0.4909480434470821 0.38582256860126624 0.808780162350021
0.4277401515025762 0.5167335571752313 0.8212992104639364
0.37973491878271554 0.40035541545405623 0.9005935411075641
0.5182715417956667 0.4781594067019859 0.9267620741771184
0.690948043447082 0.38582256860126624 0.808780162350021
0.6277401515025762 0.5167335571752313 0.8212992104639364
0.5797349187827155 0.40035541545405623 0.9005935411075641
0.7182715417956667 0.4781594067019859 0.9267620741771184
0.8909480434470821 0.38582256860126624 0.808780162350021
0.8277401515025762 0.5167335571752313 0.8212992104639364
0.7797349187827156 0.40035541545405623 0.9005935411075641
0.9182715417956667 0.4781594067019859 0.9267620741771184
0.09094804344708209 0.5858225686012662 0.808780162350021
0.027740151502576162 0.7167335571752314 0.8212992104639364
-0.02026508121728446 0.6003554154540562 0.9005935411075641
0.11827154179566667 0.6781594067019859 0.9267620741771184
0.2909480434470821 0.5858225686012662 0.808780162350021
0.2277401515025762 0.7167335571752314 0.8212992104639364
0.17973491878271555 0.6003554154540562 0.9005935411075641
0.3182715417956667 0.6781594067019859 0.9267620741771184
0.4909480434470821 0.5858225686012662 0.808780162350021
0.4277401515025762 0.7167335571752314 0.8212992104639364
0.37973491878271554 0.6003554154540562 0.9005935411075641
0.5182715417956667 0.6781594067019859 0.9267620741771184
0.690948043447082 0.5858225686012662 0.808780162350021
0.6277401515025762 0.7167335571752314 0.8212992104639364
0.5797349187827155 0.6003554154540562 0.9005935411075641
0.7182715417956667 0.6781594067019859 0.9267620741771184
0.8909480434470821 0.5858225686012662 0.808780162350021
0.8277401515025762 0.7167335571752314 0.8212992104639364
0.7797349187827156 0.6003554154540562 0.9005935411075641
0.9182715417956667 0.6781594067019859 0.9267620741771184
0.09094804344708209 0.7858225686012662 0.808780162350021
0.027740151502576162 0.9167335571752313 0.8212992104639364
-0.02026508121728446 0.8003554154540562 0.9005935411075641
0.11827154179566667 0.8781594067019859 0.9267620741771184
0.2909480434470821 0.7858225686012662 0.808780162350021
0.2277401515025762 0.9167335571752313 0.8212992104639364
0.17973491878271555 0.8003554154540562 0.9005935411075641
0.3182715417956667 0.8781594067019859 0.9267620741771184
0.4909480434470821 0.7858225686012662 0.808780162350021
0.4277401515025762 0.9167335571752313 0.8212992104639364
0.37973491878271554 0.8003554154540562 0.9005935411075641
0.5182715417956667 0.8781594067019859 0.9267620741771184
0.690948043447082 0.7858225686012662 0.808780162350021
0.6277401515025762 0.9167335571752313 0.8212992104639364
0.5797349187827155 0.8003554154540562 0.9005935411075641
0.7182715417956667 0.8781594067019859 0.9267620741771184
0.8909480434470821 0.7858225686012662 0.808780162350021
0.8277401515025762 0.9167335571752313 0.8212992104639364
0.7797349187827156 0.8003554154540562 0.9005935411075641
0.9182715417956667 0.8781594067019859 0.9267620741771184
