FCC BaO
5.61604
3.0 0.0 0.0
0.0 3.0 0.0
0.0 0.0 3.0
Ba O 
108 108 
Direct
-0.5093876819634072 0.44287622741222626 -0.612840742746593
-0.1860422593307596 -0.23953808665334692 -0.4188037111013855
-0.6555584387212856 0.3990057300890123 -0.6989907780379109
-0.25166118179021746 -0.8088349886482656 0.13055983479015393
-0.1760543486300739 0.44287622741222626 -0.612840742746593
0.1472910740025737 -0.23953808665334692 -0.4188037111013855
-0.32222510538795224 0.3990057300890123 -0.6989907780379109
0.08167215154311587 -0.8088349886482656 0.13055983479015393
0.1572789847032594 0.44287622741222626 -0.612840742746593
0.48062440733590706 -0.23953808665334692 -0.4188037111013855
0.011108227945381058 0.3990057300890123 -0.6989907780379109
0.41500548487644917 -0.8088349886482656 0.13055983479015393
-0.5093876819634072 0.7762095607455596 -0.612840742746593
-0.1860422593307596 0.0937952466799864 -0.4188037111013855
-0.6555584387212856 0.7323390634223457 -0.6989907780379109
-0.25166118179021746 -0.4755016553149323 0.13055983479015393
-0.1760543486300739 0.7762095607455596 -0.612840742746593
0.1472910740025737 0.0937952466799864 -0.4188037111013855
-0.32222510538795224 0.7323390634223457 -0.6989907780379109
0.08167215154311587 -0.4755016553149323 0.13055983479015393
0.1572789847032594 0.7762095607455596 -0.612840742746593
0.48062440733590706 0.0937952466799864 -0.4188037111013855
0.011108227945381058 0.7323390634223457 -0.6989907780379109
0.41500548487644917 -0.4755016553149323 0.13055983479015393
-0.5093876819634072 1.109542894078893 -0.612840742746593
-0.1860422593307596 0.42712858001331977 -0.4188037111013855
-0.6555584387212856 1.065672396755679 -0.6989907780379109
-0.25166118179021746 -0.142168321981599 0.13055983479015393
-0.1760543486300739 1.109542894078893 -0.612840742746593
0.1472910740025737 0.42712858001331977 -0.4188037111013855
-0.32222510538795224 1.065672396755679 -0.6989907780379109
0.08167215154311587 -0.142168321981599 0.13055983479015393
0.1572789847032594 1.109542894078893 -0.612840742746593
0.48062440733590706 0.42712858001331977 -0.4188037111013855
0.011108227945381058 1.065672396755679 -0.6989907780379109
0.41500548487644917 -0.142168321981599 0.13055983479015393
-0.5093876819634072 0.44287622741222626 -0.2795074094132597
-0.1860422593307596 -0.23953808665334692 -0.08547037776805218
-0.6555584387212856 0.3990057300890123 -0.36565744470457756
-0.25166118179021746 -0.8088349886482656 0.46389316812348724
-0.1760543486300739 0.44287622741222626 -0.2795074094132597
0.1472910740025737 -0.23953808665334692 -0.08547037776805218
-0.32222510538795224 0.3990057300890123 -0.36565744470457756
0.08167215154311587 -0.8088349886482656 0.46389316812348724
0.1572789847032594 0.44287622741222626 -0.2795074094132597
0.48062440733590706 -0.23953808665334692 -0.08547037776805218
0.011108227945381058 0.3990057300890123 -0.36565744470457756
0.41500548487644917 -0.8088349886482656 0.46389316812348724
-0.5093876819634072 0.7762095607455596 -0.2795074094132597
-0.1860422593307596 0.0937952466799864 -0.08547037776805218
-0.6555584387212856 0.7323390634223457 -0.36565744470457756
-0.25166118179021746 -0.4755016553149323 0.46389316812348724
-0.1760543486300739 0.7762095607455596 -0.2795074094132597
0.1472910740025737 0.0937952466799864 -0.08547037776805218
-0.32222510538795224 0.7323390634223457 -0.36565744470457756
0.08167215154311587 -0.4755016553149323 0.46389316812348724
0.1572789847032594 0.7762095607455596 -0.2795074094132597
0.48062440733590706 0.0937952466799864 -0.08547037776805218
0.011108227945381058 0.7323390634223457 -0.36565744470457756
0.41500548487644917 -0.4755016553149323 0.46389316812348724
-0.5093876819634072 1.109542894078893 -0.2795074094132597
-0.1860422593307596 0.42712858001331977 -0.08547037776805218
-0.6555584387212856 1.065672396755679 -0.36565744470457756
-0.25166118179021746 -0.142168321981599 0.46389316812348724
-0.1760543486300739 1.109542894078893 -0.2795074094132597
0.1472910740025737 0.42712858001331977 -0.08547037776805218
-0.32222510538795224 1.065672396755679 -0.36565744470457756
0.08167215154311587 -0.142168321981599 0.46389316812348724
0.1572789847032594 1.109542894078893 -0.2795074094132597
0.48062440733590706 0.42712858001331977 -0.08547037776805218
0.011108227945381058 1.065672396755679 -0.36565744470457756
0.41500548487644917 -0.142168321981599 0.46389316812348724
-0.5093876819634072 0.44287622741222626 0.05382592392007364
-0.1860422593307596 -0.23953808665334692 0.24786295556528115
-0.6555584387212856 0.3990057300890123 -0.032324111371244246
-0.25166118179021746 -0.8088349886482656 0.7972265014568205
-0.1760543486300739 0.44287622741222626 0.05382592392007364
0.1472910740025737 -0.23953808665334692 0.24786295556528115
-0.32222510538795224 0.3990057300890123 -0.032324111371244246
0.08167215154311587 -0.8088349886482656 0.7972265014568205
0.1572789847032594 0.44287622741222626 0.05382592392007364
0.48062440733590706 -0.23953808665334692 0.24786295556528115
0.011108227945381058 0.3990057300890123 -0.032324111371244246
0.41500548487644917 -0.8088349886482656 0.7972265014568205
-0.5093876819634072 0.7762095607455596 0.05382592392007364
-0.1860422593307596 0.0937952466799864 0.24786295556528115
-0.6555584387212856 0.7323390634223457 -0.032324111371244246
-0.25166118179021746 -0.4755016553149323 0.7972265014568205
-0.1760543486300739 0.7762095607455596 0.05382592392007364
0.1472910740025737 0.0937952466799864 0.24786295556528115
-0.32222510538795224 0.7323390634223457 -0.032324111371244246
0.08167215154311587 -0.4755016553149323 0.7972265014568205
0.1572789847032594 0.7762095607455596 0.05382592392007364
0.48062440733590706 0.0937952466799864 0.24786295556528115
0.011108227945381058 0.7323390634223457 -0.032324111371244246
0.41500548487644917 -0.4755016553149323 0.7972265014568205
-0.5093876819634072 1.109542894078893 0.05382592392007364
-0.1860422593307596 0.42712858001331977 0.24786295556528115
-0.6555584387212856 1.065672396755679 -0.032324111371244246
-0.25166118179021746 -0.142168321981599 0.7972265014568205
-0.1760543486300739 1.109542894078893 0.05382592392007364
0.1472910740025737 0.42712858001331977 0.24786295556528115
-0.32222510538795224 1.065672396755679 -0.032324111371244246
0.08167215154311587 -0.142168321981599 0.7972265014568205
0.1572789847032594 1.109542894078893 0.05382592392007364
0.48062440733590706 0.42712858001331977 0.24786295556528115
0.011108227945381058 1.065672396755679 -0.032324111371244246
0.41500548487644917 -0.142168321981599 0.7972265014568205
0.20712938708928447 -0.273704291929729 0.42874906765844767
0.3555740742372862 -0.3921966094976884 -0.337300795994465
-0.03585711041556111 0.5053131602536991 0.8318231401417268
0.17267225740241537 0.2662934863122522 0.2998394136837653
0.5404627204226178 -0.273704291929729 0.42874906765844767
0.6889074075706195 -0.3921966094976884 -0.337300795994465
0.2974762229177722 0.5053131602536991 0.8318231401417268
0.5060055907357487 0.2662934863122522 0.2998394136837653
0.873796053755951 -0.273704291929729 0.42874906765844767
1.022240740903953 -0.3921966094976884 -0.337300795994465
0.6308095562511056 0.5053131602536991 0.8318231401417268
0.839338924069082 0.2662934863122522 0.2998394136837653
0.20712938708928447 0.05962904140360429 0.42874906765844767
0.3555740742372862 -0.05886327616435512 -0.337300795994465
-0.03585711041556111 0.8386464935870325 0.8318231401417268
0.17267225740241537 0.5996268196455855 0.2998394136837653
0.5404627204226178 0.05962904140360429 0.42874906765844767
0.6889074075706195 -0.05886327616435512 -0.337300795994465
0.2974762229177722 0.8386464935870325 0.8318231401417268
0.5060055907357487 0.5996268196455855 0.2998394136837653
0.873796053755951 0.05962904140360429 0.42874906765844767
1.022240740903953 -0.05886327616435512 -0.337300795994465
0.6308095562511056 0.8386464935870325 0.8318231401417268
0.839338924069082 0.5996268196455855 0.2998394136837653
0.20712938708928447 0.39296237473693757 0.42874906765844767
0.3555740742372862 0.2744700571689782 -0.337300795994465
-0.03585711041556111 1.1719798269203658 0.8318231401417268
0.17267225740241537 0.9329601529789189 0.2998394136837653
0.5404627204226178 0.39296237473693757 0.42874906765844767
0.6889074075706195 0.2744700571689782 -0.337300795994465
0.2974762229177722 1.1719798269203658 0.8318231401417268
0.5060055907357487 0.9329601529789189 0.2998394136837653
0.873796053755951 0.39296237473693757 0.42874906765844767
1.022240740903953 0.2744700571689782 -0.337300795994465
0.6308095562511056 1.1719798269203658 0.8318231401417268
0.839338924069082 0.9329601529789189 0.2998394136837653
0.20712938708928447 -0.273704291929729 0.762082400991781
0.3555740742372862 -0.3921966094976884 -0.003967462661131682
-0.03585711041556111 0.5053131602536991 1.1651564734750601
0.17267225740241537 0.2662934863122522 0.6331727470170987
0.5404627204226178 -0.273704291929729 0.762082400991781
0.6889074075706195 -0.3921966094976884 -0.003967462661131682
0.2974762229177722 0.5053131602536991 1.1651564734750601
0.5060055907357487 0.2662934863122522 0.6331727470170987
0.873796053755951 -0.273704291929729 0.762082400991781
1.022240740903953 -0.3921966094976884 -0.003967462661131682
0.6308095562511056 0.5053131602536991 1.1651564734750601
0.839338924069082 0.2662934863122522 0.6331727470170987
0.20712938708928447 0.05962904140360429 0.762082400991781
0.3555740742372862 -0.05886327616435512 -0.003967462661131682
-0.03585711041556111 0.8386464935870325 1.1651564734750601
0.17267225740241537 0.5996268196455855 0.6331727470170987
0.5404627204226178 0.05962904140360429 0.762082400991781
0.6889074075706195 -0.05886327616435512 -0.003967462661131682
0.2974762229177722 0.8386464935870325 1.1651564734750601
0.5060055907357487 0.5996268196455855 0.6331727470170987
0.873796053755951 0.05962904140360429 0.762082400991781
1.022240740903953 -0.05886327616435512 -0.003967462661131682
0.6308095562511056 0.8386464935870325 1.1651564734750601
0.839338924069082 0.5996268196455855 0.6331727470170987
0.20712938708928447 0.39296237473693757 0.762082400991781
0.3555740742372862 0.2744700571689782 -0.003967462661131682
-0.03585711041556111 1.1719798269203658 1.1651564734750601
0.17267225740241537 0.9329601529789189 0.6331727470170987
0.5404627204226178 0.39296237473693757 0.762082400991781
0.6889074075706195 0.2744700571689782 -0.003967462661131682
0.2974762229177722 1.1719798269203658 1.1651564734750601
0.5060055907357487 0.9329601529789189 0.6331727470170987
0.873796053755951 0.39296237473693757 0.762082400991781
1.022240740903953 0.2744700571689782 -0.003967462661131682
0.6308095562511056 1.1719798269203658 1.1651564734750601
0.839338924069082 0.9329601529789189 0.6331727470170987
0.20712938708928447 -0.273704291929729 1.0954157343251143
0.3555740742372862 -0.3921966094976884 0.32936587067220163
-0.03585711041556111 0.5053131602536991 1.4984898068083936
0.17267225740241537 0.2662934863122522 0.966506080350432
0.5404627204226178 -0.273704291929729 1.0954157343251143
0.6889074075706195 -0.3921966094976884 0.32936587067220163
0.2974762229177722 0.5053131602536991 1.4984898068083936
0.5060055907357487 0.2662934863122522 0.966506080350432
0.873796053755951 -0.273704291929729 1.0954157343251143
1.022240740903953 -0.3921966094976884 0.32936587067220163
0.6308095562511056 0.5053131602536991 1.4984898068083936
0.839338924069082 0.2662934863122522 0.966506080350432
0.20712938708928447 0.05962904140360429 1.0954157343251143
0.3555740742372862 -0.05886327616435512 0.32936587067220163
-0.03585711041556111 0.8386464935870325 1.4984898068083936
0.17267225740241537 0.5996268196455855 0.966506080350432
0.5404627204226178 0.05962904140360429 1.0954157343251143
0.6889074075706195 -0.05886327616435512 0.32936587067220163
0.2974762229177722 0.8386464935870325 1.4984898068083936
0.5060055907357487 0.5996268196455855 0.966506080350432
0.873796053755951 0.05962904140360429 1.0954157343251143
1.022240740903953 -0.05886327616435512 0.32936587067220163
0.6308095562511056 0.8386464935870325 1.4984898068083936
0.839338924069082 0.5996268196455855 0.966506080350432
0.20712938708928447 0.39296237473693757 1.0954157343251143
0.3555740742372862 0.2744700571689782 0.32936587067220163
-0.03585711041556111 1.1719798269203658 1.4984898068083936
0.17267225740241537 0.9329601529789189 0.966506080350432
0.5404627204226178 0.39296237473693757 1.0954157343251143
0.6889074075706195 0.2744700571689782 0.32936587067220163
0.2974762229177722 1.1719798269203658 1.4984898068083936
0.5060055907357487 0.9329601529789189 0.966506080350432
0.873796053755951 0.39296237473693757 1.0954157343251143
1.022240740903953 0.2744700571689782 0.32936587067220163
0.6308095562511056 1.1719798269203658 1.4984898068083936
0.839338924069082 0.9329601529789189 0.966506080350432
