FCC BaO
3.971
5.0 0.0 0.0
0.0 5.0 0.0
0.0 0.0 5.0
Ba O 
500 500 
Direct
-0.013853421022194385 -0.02392054733122976 -0.020262923592355014
0.020175411607867292 0.07546756470441503 0.07784542631106796
0.07825471466214944 -0.005527687134809223 0.10977824267526992
0.10967348172075693 0.10007439273566246 0.004989008454447289
0.18614657897780562 -0.02392054733122976 -0.020262923592355014
0.22017541160786733 0.07546756470441503 0.07784542631106796
0.2782547146621494 -0.005527687134809223 0.10977824267526992
0.3096734817207569 0.10007439273566246 0.004989008454447289
0.38614657897780563 -0.02392054733122976 -0.020262923592355014
0.4201754116078673 0.07546756470441503 0.07784542631106796
0.47825471466214947 -0.005527687134809223 0.10977824267526992
0.5096734817207569 0.10007439273566246 0.004989008454447289
0.5861465789778056 -0.02392054733122976 -0.020262923592355014
0.6201754116078674 0.07546756470441503 0.07784542631106796
0.6782547146621495 -0.005527687134809223 0.10977824267526992
0.709673481720757 0.10007439273566246 0.004989008454447289
0.7861465789778057 -0.02392054733122976 -0.020262923592355014
0.8201754116078673 0.07546756470441503 0.07784542631106796
0.8782547146621495 -0.005527687134809223 0.10977824267526992
0.9096734817207569 0.10007439273566246 0.004989008454447289
-0.013853421022194385 0.17607945266877026 -0.020262923592355014
0.020175411607867292 0.2754675647044151 0.07784542631106796
0.07825471466214944 0.1944723128651908 0.10977824267526992
0.10967348172075693 0.30007439273566244 0.004989008454447289
0.18614657897780562 0.17607945266877026 -0.020262923592355014
0.22017541160786733 0.2754675647044151 0.07784542631106796
0.2782547146621494 0.1944723128651908 0.10977824267526992
0.3096734817207569 0.30007439273566244 0.004989008454447289
0.38614657897780563 0.17607945266877026 -0.020262923592355014
0.4201754116078673 0.2754675647044151 0.07784542631106796
0.47825471466214947 0.1944723128651908 0.10977824267526992
0.5096734817207569 0.30007439273566244 0.004989008454447289
0.5861465789778056 0.17607945266877026 -0.020262923592355014
0.6201754116078674 0.2754675647044151 0.07784542631106796
0.6782547146621495 0.1944723128651908 0.10977824267526992
0.709673481720757 0.30007439273566244 0.004989008454447289
0.7861465789778057 0.17607945266877026 -0.020262923592355014
0.8201754116078673 0.2754675647044151 0.07784542631106796
0.8782547146621495 0.1944723128651908 0.10977824267526992
0.9096734817207569 0.30007439273566244 0.004989008454447289
-0.013853421022194385 0.3760794526687703 -0.020262923592355014
0.020175411607867292 0.4754675647044151 0.07784542631106796
0.07825471466214944 0.3944723128651908 0.10977824267526992
0.10967348172075693 0.5000743927356625 0.004989008454447289
0.18614657897780562 0.3760794526687703 -0.020262923592355014
0.22017541160786733 0.4754675647044151 0.07784542631106796
0.2782547146621494 0.3944723128651908 0.10977824267526992
0.3096734817207569 0.5000743927356625 0.004989008454447289
0.38614657897780563 0.3760794526687703 -0.020262923592355014
0.4201754116078673 0.4754675647044151 0.07784542631106796
0.47825471466214947 0.3944723128651908 0.10977824267526992
0.5096734817207569 0.5000743927356625 0.004989008454447289
0.5861465789778056 0.3760794526687703 -0.020262923592355014
0.6201754116078674 0.4754675647044151 0.07784542631106796
0.6782547146621495 0.3944723128651908 0.10977824267526992
0.709673481720757 0.5000743927356625 0.004989008454447289
0.7861465789778057 0.3760794526687703 -0.020262923592355014
0.8201754116078673 0.4754675647044151 0.07784542631106796
0.8782547146621495 0.3944723128651908 0.10977824267526992
0.9096734817207569 0.5000743927356625 0.004989008454447289
-0.013853421022194385 0.5760794526687703 -0.020262923592355014
0.020175411607867292 0.675467564704415 0.07784542631106796
0.07825471466214944 0.5944723128651908 0.10977824267526992
0.10967348172075693 0.7000743927356625 0.004989008454447289
0.18614657897780562 0.5760794526687703 -0.020262923592355014
0.22017541160786733 0.675467564704415 0.07784542631106796
0.2782547146621494 0.5944723128651908 0.10977824267526992
0.3096734817207569 0.7000743927356625 0.004989008454447289
0.38614657897780563 0.5760794526687703 -0.020262923592355014
0.4201754116078673 0.675467564704415 0.07784542631106796
0.47825471466214947 0.5944723128651908 0.10977824267526992
0.5096734817207569 0.7000743927356625 0.004989008454447289
0.5861465789778056 0.5760794526687703 -0.020262923592355014
0.6201754116078674 0.675467564704415 0.07784542631106796
0.6782547146621495 0.5944723128651908 0.10977824267526992
0.709673481720757 0.7000743927356625 0.004989008454447289
0.7861465789778057 0.5760794526687703 -0.020262923592355014
0.8201754116078673 0.675467564704415 0.07784542631106796
0.8782547146621495 0.5944723128651908 0.10977824267526992
0.9096734817207569 0.7000743927356625 0.004989008454447289
-0.013853421022194385 0.7760794526687702 -0.020262923592355014
0.020175411607867292 0.8754675647044151 0.07784542631106796
0.07825471466214944 0.7944723128651908 0.10977824267526992
0.10967348172075693 0.9000743927356626 0.004989008454447289
0.18614657897780562 0.7760794526687702 -0.020262923592355014
0.22017541160786733 0.8754675647044151 0.07784542631106796
0.2782547146621494 0.7944723128651908 0.10977824267526992
0.3096734817207569 0.9000743927356626 0.004989008454447289
0.38614657897780563 0.7760794526687702 -0.020262923592355014
0.4201754116078673 0.8754675647044151 0.07784542631106796
0.47825471466214947 0.7944723128651908 0.10977824267526992
0.5096734817207569 0.9000743927356626 0.004989008454447289
0.5861465789778056 0.7760794526687702 -0.020262923592355014
0.6201754116078674 0.8754675647044151 0.07784542631106796
0.6782547146621495 0.7944723128651908 0.10977824267526992
0.709673481720757 0.9000743927356626 0.004989008454447289
0.7861465789778057 0.7760794526687702 -0.020262923592355014
0.8201754116078673 0.8754675647044151 0.07784542631106796
0.8782547146621495 0.7944723128651908 0.10977824267526992
0.9096734817207569 0.9000743927356626 0.004989008454447289
-0.013853421022194385 -0.02392054733122976 0.179737076407645
0.020175411607867292 0.07546756470441503 0.27784542631106796
0.07825471466214944 -0.005527687134809223 0.30977824267527
0.10967348172075693 0.10007439273566246 0.20498900845444729
0.18614657897780562 -0.02392054733122976 0.179737076407645
0.22017541160786733 0.07546756470441503 0.27784542631106796
0.2782547146621494 -0.005527687134809223 0.30977824267527
0.3096734817207569 0.10007439273566246 0.20498900845444729
0.38614657897780563 -0.02392054733122976 0.179737076407645
0.4201754116078673 0.07546756470441503 0.27784542631106796
0.47825471466214947 -0.005527687134809223 0.30977824267527
0.5096734817207569 0.10007439273566246 0.20498900845444729
0.5861465789778056 -0.02392054733122976 0.179737076407645
0.6201754116078674 0.07546756470441503 0.27784542631106796
0.6782547146621495 -0.005527687134809223 0.30977824267527
0.709673481720757 0.10007439273566246 0.20498900845444729
0.7861465789778057 -0.02392054733122976 0.179737076407645
0.8201754116078673 0.07546756470441503 0.27784542631106796
0.8782547146621495 -0.005527687134809223 0.30977824267527
0.9096734817207569 0.10007439273566246 0.20498900845444729
-0.013853421022194385 0.17607945266877026 0.179737076407645
0.020175411607867292 0.2754675647044151 0.27784542631106796
0.07825471466214944 0.1944723128651908 0.30977824267527
0.10967348172075693 0.30007439273566244 0.20498900845444729
0.18614657897780562 0.17607945266877026 0.179737076407645
0.22017541160786733 0.2754675647044151 0.27784542631106796
0.2782547146621494 0.1944723128651908 0.30977824267527
0.3096734817207569 0.30007439273566244 0.20498900845444729
0.38614657897780563 0.17607945266877026 0.179737076407645
0.4201754116078673 0.2754675647044151 0.27784542631106796
0.47825471466214947 0.1944723128651908 0.30977824267527
0.5096734817207569 0.30007439273566244 0.20498900845444729
0.5861465789778056 0.17607945266877026 0.179737076407645
0.6201754116078674 0.2754675647044151 0.27784542631106796
0.6782547146621495 0.1944723128651908 0.30977824267527
0.709673481720757 0.30007439273566244 0.20498900845444729
0.7861465789778057 0.17607945266877026 0.179737076407645
0.8201754116078673 0.2754675647044151 0.27784542631106796
0.8782547146621495 0.1944723128651908 0.30977824267527
0.9096734817207569 0.30007439273566244 0.20498900845444729
-0.013853421022194385 0.3760794526687703 0.179737076407645
0.020175411607867292 0.4754675647044151 0.27784542631106796
0.07825471466214944 0.3944723128651908 0.30977824267527
0.10967348172075693 0.5000743927356625 0.20498900845444729
0.18614657897780562 0.3760794526687703 0.179737076407645
0.22017541160786733 0.4754675647044151 0.27784542631106796
0.2782547146621494 0.3944723128651908 0.30977824267527
0.3096734817207569 0.5000743927356625 0.20498900845444729
0.38614657897780563 0.3760794526687703 0.179737076407645
0.4201754116078673 0.4754675647044151 0.27784542631106796
0.47825471466214947 0.3944723128651908 0.30977824267527
0.5096734817207569 0.5000743927356625 0.20498900845444729
0.5861465789778056 0.3760794526687703 0.179737076407645
0.6201754116078674 0.4754675647044151 0.27784542631106796
0.6782547146621495 0.3944723128651908 0.30977824267527
0.709673481720757 0.5000743927356625 0.20498900845444729
0.7861465789778057 0.3760794526687703 0.179737076407645
0.8201754116078673 0.4754675647044151 0.27784542631106796
0.8782547146621495 0.3944723128651908 0.30977824267527
0.9096734817207569 0.5000743927356625 0.20498900845444729
-0.013853421022194385 0.5760794526687703 0.179737076407645
0.020175411607867292 0.675467564704415 0.27784542631106796
0.07825471466214944 0.5944723128651908 0.30977824267527
0.10967348172075693 0.7000743927356625 0.20498900845444729
0.18614657897780562 0.5760794526687703 0.179737076407645
0.22017541160786733 0.675467564704415 0.27784542631106796
0.2782547146621494 0.5944723128651908 0.30977824267527
0.3096734817207569 0.7000743927356625 0.20498900845444729
0.38614657897780563 0.5760794526687703 0.179737076407645
0.4201754116078673 0.675467564704415 0.27784542631106796
0.47825471466214947 0.5944723128651908 0.30977824267527
0.5096734817207569 0.7000743927356625 0.20498900845444729
0.5861465789778056 0.5760794526687703 0.179737076407645
0.6201754116078674 0.675467564704415 0.27784542631106796
0.6782547146621495 0.5944723128651908 0.30977824267527
0.709673481720757 0.7000743927356625 0.20498900845444729
0.7861465789778057 0.5760794526687703 0.179737076407645
0.8201754116078673 0.675467564704415 0.27784542631106796
0.8782547146621495 0.5944723128651908 0.30977824267527
0.9096734817207569 0.7000743927356625 0.20498900845444729
-0.013853421022194385 0.7760794526687702 0.179737076407645
0.020175411607867292 0.8754675647044151 0.27784542631106796
0.07825471466214944 0.7944723128651908 0.30977824267527
0.10967348172075693 0.9000743927356626 0.20498900845444729
0.18614657897780562 0.7760794526687702 0.179737076407645
0.22017541160786733 0.8754675647044151 0.27784542631106796
0.2782547146621494 0.7944723128651908 0.30977824267527
0.3096734817207569 0.9000743927356626 0.20498900845444729
0.38614657897780563 0.7760794526687702 0.179737076407645
0.4201754116078673 0.8754675647044151 0.27784542631106796
0.47825471466214947 0.7944723128651908 0.30977824267527
0.5096734817207569 0.9000743927356626 0.20498900845444729
0.5861465789778056 0.7760794526687702 0.179737076407645
0.6201754116078674 0.8754675647044151 0.27784542631106796
0.6782547146621495 0.7944723128651908 0.30977824267527
0.709673481720757 0.9000743927356626 0.20498900845444729
0.7861465789778057 0.7760794526687702 0.179737076407645
0.8201754116078673 0.8754675647044151 0.27784542631106796
0.8782547146621495 0.7944723128651908 0.30977824267527
0.9096734817207569 0.9000743927356626 0.20498900845444729
-0.013853421022194385 -0.02392054733122976 0.37973707640764504
0.020175411607867292 0.07546756470441503 0.477845426311068
0.07825471466214944 -0.005527687134809223 0.5097782426752699
0.10967348172075693 0.10007439273566246 0.40498900845444735
0.18614657897780562 -0.02392054733122976 0.37973707640764504
0.22017541160786733 0.07546756470441503 0.477845426311068
0.2782547146621494 -0.005527687134809223 0.5097782426752699
0.3096734817207569 0.10007439273566246 0.40498900845444735
0.38614657897780563 -0.02392054733122976 0.37973707640764504
0.4201754116078673 0.07546756470441503 0.477845426311068
0.47825471466214947 -0.005527687134809223 0.5097782426752699
0.5096734817207569 0.10007439273566246 0.40498900845444735
0.5861465789778056 -0.02392054733122976 0.37973707640764504
0.6201754116078674 0.07546756470441503 0.477845426311068
0.6782547146621495 -0.005527687134809223 0.5097782426752699
0.709673481720757 0.10007439273566246 0.40498900845444735
0.7861465789778057 -0.02392054733122976 0.37973707640764504
0.8201754116078673 0.07546756470441503 0.477845426311068
0.8782547146621495 -0.005527687134809223 0.5097782426752699
0.9096734817207569 0.10007439273566246 0.40498900845444735
-0.013853421022194385 0.17607945266877026 0.37973707640764504
0.020175411607867292 0.2754675647044151 0.477845426311068
0.07825471466214944 0.1944723128651908 0.5097782426752699
0.10967348172075693 0.30007439273566244 0.40498900845444735
0.18614657897780562 0.17607945266877026 0.37973707640764504
0.22017541160786733 0.2754675647044151 0.477845426311068
0.2782547146621494 0.1944723128651908 0.5097782426752699
0.3096734817207569 0.30007439273566244 0.40498900845444735
0.38614657897780563 0.17607945266877026 0.37973707640764504
0.4201754116078673 0.2754675647044151 0.477845426311068
0.47825471466214947 0.1944723128651908 0.5097782426752699
0.5096734817207569 0.30007439273566244 0.40498900845444735
0.5861465789778056 0.17607945266877026 0.37973707640764504
0.6201754116078674 0.2754675647044151 0.477845426311068
0.6782547146621495 0.1944723128651908 0.5097782426752699
0.709673481720757 0.30007439273566244 0.40498900845444735
0.7861465789778057 0.17607945266877026 0.37973707640764504
0.8201754116078673 0.2754675647044151 0.477845426311068
0.8782547146621495 0.1944723128651908 0.5097782426752699
0.9096734817207569 0.30007439273566244 0.40498900845444735
-0.013853421022194385 0.3760794526687703 0.37973707640764504
0.020175411607867292 0.4754675647044151 0.477845426311068
0.07825471466214944 0.3944723128651908 0.5097782426752699
0.10967348172075693 0.5000743927356625 0.40498900845444735
0.18614657897780562 0.3760794526687703 0.37973707640764504
0.22017541160786733 0.4754675647044151 0.477845426311068
0.2782547146621494 0.3944723128651908 0.5097782426752699
0.3096734817207569 0.5000743927356625 0.40498900845444735
0.38614657897780563 0.3760794526687703 0.37973707640764504
0.4201754116078673 0.4754675647044151 0.477845426311068
0.47825471466214947 0.3944723128651908 0.5097782426752699
0.5096734817207569 0.5000743927356625 0.40498900845444735
0.5861465789778056 0.3760794526687703 0.37973707640764504
0.6201754116078674 0.4754675647044151 0.477845426311068
0.6782547146621495 0.3944723128651908 0.5097782426752699
0.709673481720757 0.5000743927356625 0.40498900845444735
0.7861465789778057 0.3760794526687703 0.37973707640764504
0.8201754116078673 0.4754675647044151 0.477845426311068
0.8782547146621495 0.3944723128651908 0.5097782426752699
0.9096734817207569 0.5000743927356625 0.40498900845444735
-0.013853421022194385 0.5760794526687703 0.37973707640764504
0.020175411607867292 0.675467564704415 0.477845426311068
0.07825471466214944 0.5944723128651908 0.5097782426752699
0.10967348172075693 0.7000743927356625 0.40498900845444735
0.18614657897780562 0.5760794526687703 0.37973707640764504
0.22017541160786733 0.675467564704415 0.477845426311068
0.2782547146621494 0.5944723128651908 0.5097782426752699
0.3096734817207569 0.7000743927356625 0.40498900845444735
0.38614657897780563 0.5760794526687703 0.37973707640764504
0.4201754116078673 0.675467564704415 0.477845426311068
0.47825471466214947 0.5944723128651908 0.5097782426752699
0.5096734817207569 0.7000743927356625 0.40498900845444735
0.5861465789778056 0.5760794526687703 0.37973707640764504
0.6201754116078674 0.675467564704415 0.477845426311068
0.6782547146621495 0.5944723128651908 0.5097782426752699
0.709673481720757 0.7000743927356625 0.40498900845444735
0.7861465789778057 0.5760794526687703 0.37973707640764504
0.8201754116078673 0.675467564704415 0.477845426311068
0.8782547146621495 0.5944723128651908 0.5097782426752699
0.9096734817207569 0.7000743927356625 0.40498900845444735
-0.013853421022194385 0.7760794526687702 0.37973707640764504
0.020175411607867292 0.8754675647044151 0.477845426311068
0.07825471466214944 0.7944723128651908 0.5097782426752699
0.10967348172075693 0.9000743927356626 0.40498900845444735
0.18614657897780562 0.7760794526687702 0.37973707640764504
0.22017541160786733 0.8754675647044151 0.477845426311068
0.2782547146621494 0.7944723128651908 0.5097782426752699
0.3096734817207569 0.9000743927356626 0.40498900845444735
0.38614657897780563 0.7760794526687702 0.37973707640764504
0.4201754116078673 0.8754675647044151 0.477845426311068
0.47825471466214947 0.7944723128651908 0.5097782426752699
0.5096734817207569 0.9000743927356626 0.40498900845444735
0.5861465789778056 0.7760794526687702 0.37973707640764504
0.6201754116078674 0.8754675647044151 0.477845426311068
0.6782547146621495 0.7944723128651908 0.5097782426752699
0.709673481720757 0.9000743927356626 0.40498900845444735
0.7861465789778057 0.7760794526687702 0.37973707640764504
0.8201754116078673 0.8754675647044151 0.477845426311068
0.8782547146621495 0.7944723128651908 0.5097782426752699
0.9096734817207569 0.9000743927356626 0.40498900845444735
-0.013853421022194385 -0.02392054733122976 0.579737076407645
0.020175411607867292 0.07546756470441503 0.677845426311068
0.07825471466214944 -0.005527687134809223 0.70977824267527
0.10967348172075693 0.10007439273566246 0.6049890084544474
0.18614657897780562 -0.02392054733122976 0.579737076407645
0.22017541160786733 0.07546756470441503 0.677845426311068
0.2782547146621494 -0.005527687134809223 0.70977824267527
0.3096734817207569 0.10007439273566246 0.6049890084544474
0.38614657897780563 -0.02392054733122976 0.579737076407645
0.4201754116078673 0.07546756470441503 0.677845426311068
0.47825471466214947 -0.005527687134809223 0.70977824267527
0.5096734817207569 0.10007439273566246 0.6049890084544474
0.5861465789778056 -0.02392054733122976 0.579737076407645
0.6201754116078674 0.07546756470441503 0.677845426311068
0.6782547146621495 -0.005527687134809223 0.70977824267527
0.709673481720757 0.10007439273566246 0.6049890084544474
0.7861465789778057 -0.02392054733122976 0.579737076407645
0.8201754116078673 0.07546756470441503 0.677845426311068
0.8782547146621495 -0.005527687134809223 0.70977824267527
0.9096734817207569 0.10007439273566246 0.6049890084544474
-0.013853421022194385 0.17607945266877026 0.579737076407645
0.020175411607867292 0.2754675647044151 0.677845426311068
0.07825471466214944 0.1944723128651908 0.70977824267527
0.10967348172075693 0.30007439273566244 0.6049890084544474
0.18614657897780562 0.17607945266877026 0.579737076407645
0.22017541160786733 0.2754675647044151 0.677845426311068
0.2782547146621494 0.1944723128651908 0.70977824267527
0.3096734817207569 0.30007439273566244 0.6049890084544474
0.38614657897780563 0.17607945266877026 0.579737076407645
0.4201754116078673 0.2754675647044151 0.677845426311068
0.47825471466214947 0.1944723128651908 0.70977824267527
0.5096734817207569 0.30007439273566244 0.6049890084544474
0.5861465789778056 0.17607945266877026 0.579737076407645
0.6201754116078674 0.2754675647044151 0.677845426311068
0.6782547146621495 0.1944723128651908 0.70977824267527
0.709673481720757 0.30007439273566244 0.6049890084544474
0.7861465789778057 0.17607945266877026 0.579737076407645
0.8201754116078673 0.2754675647044151 0.677845426311068
0.8782547146621495 0.1944723128651908 0.70977824267527
0.9096734817207569 0.30007439273566244 0.6049890084544474
-0.013853421022194385 0.3760794526687703 0.579737076407645
0.020175411607867292 0.4754675647044151 0.677845426311068
0.07825471466214944 0.3944723128651908 0.70977824267527
0.10967348172075693 0.5000743927356625 0.6049890084544474
0.18614657897780562 0.3760794526687703 0.579737076407645
0.22017541160786733 0.4754675647044151 0.677845426311068
0.2782547146621494 0.3944723128651908 0.70977824267527
0.3096734817207569 0.5000743927356625 0.6049890084544474
0.38614657897780563 0.3760794526687703 0.579737076407645
0.4201754116078673 0.4754675647044151 0.677845426311068
0.47825471466214947 0.3944723128651908 0.70977824267527
0.5096734817207569 0.5000743927356625 0.6049890084544474
0.5861465789778056 0.3760794526687703 0.579737076407645
0.6201754116078674 0.4754675647044151 0.677845426311068
0.6782547146621495 0.3944723128651908 0.70977824267527
0.709673481720757 0.5000743927356625 0.6049890084544474
0.7861465789778057 0.3760794526687703 0.579737076407645
0.8201754116078673 0.4754675647044151 0.677845426311068
0.8782547146621495 0.3944723128651908 0.70977824267527
0.9096734817207569 0.5000743927356625 0.6049890084544474
-0.013853421022194385 0.5760794526687703 0.579737076407645
0.020175411607867292 0.675467564704415 0.677845426311068
0.07825471466214944 0.5944723128651908 0.70977824267527
0.10967348172075693 0.7000743927356625 0.6049890084544474
0.18614657897780562 0.5760794526687703 0.579737076407645
0.22017541160786733 0.675467564704415 0.677845426311068
0.2782547146621494 0.5944723128651908 0.70977824267527
0.3096734817207569 0.7000743927356625 0.6049890084544474
0.38614657897780563 0.5760794526687703 0.579737076407645
0.4201754116078673 0.675467564704415 0.677845426311068
0.47825471466214947 0.5944723128651908 0.70977824267527
0.5096734817207569 0.7000743927356625 0.6049890084544474
0.5861465789778056 0.5760794526687703 0.579737076407645
0.6201754116078674 0.675467564704415 0.677845426311068
0.6782547146621495 0.5944723128651908 0.70977824267527
0.709673481720757 0.7000743927356625 0.6049890084544474
0.7861465789778057 0.5760794526687703 0.579737076407645
0.8201754116078673 0.675467564704415 0.677845426311068
0.8782547146621495 0.5944723128651908 0.70977824267527
0.9096734817207569 0.7000743927356625 0.6049890084544474
-0.013853421022194385 0.7760794526687702 0.579737076407645
0.020175411607867292 0.8754675647044151 0.677845426311068
0.07825471466214944 0.7944723128651908 0.70977824267527
0.10967348172075693 0.9000743927356626 0.6049890084544474
0.18614657897780562 0.7760794526687702 0.579737076407645
0.22017541160786733 0.8754675647044151 0.677845426311068
0.2782547146621494 0.7944723128651908 0.70977824267527
0.3096734817207569 0.9000743927356626 0.6049890084544474
0.38614657897780563 0.7760794526687702 0.579737076407645
0.4201754116078673 0.8754675647044151 0.677845426311068
0.47825471466214947 0.7944723128651908 0.70977824267527
0.5096734817207569 0.9000743927356626 0.6049890084544474
0.5861465789778056 0.7760794526687702 0.579737076407645
0.6201754116078674 0.8754675647044151 0.677845426311068
0.6782547146621495 0.7944723128651908 0.70977824267527
0.709673481720757 0.9000743927356626 0.6049890084544474
0.7861465789778057 0.7760794526687702 0.579737076407645
0.8201754116078673 0.8754675647044151 0.677845426311068
0.8782547146621495 0.7944723128651908 0.70977824267527
0.9096734817207569 0.9000743927356626 0.6049890084544474
-0.013853421022194385 -0.02392054733122976 0.779737076407645
0.020175411607867292 0.07546756470441503 0.877845426311068
0.07825471466214944 -0.005527687134809223 0.90977824267527
0.10967348172075693 0.10007439273566246 0.8049890084544473
0.18614657897780562 -0.02392054733122976 0.779737076407645
0.22017541160786733 0.07546756470441503 0.877845426311068
0.2782547146621494 -0.005527687134809223 0.90977824267527
0.3096734817207569 0.10007439273566246 0.8049890084544473
0.38614657897780563 -0.02392054733122976 0.779737076407645
0.4201754116078673 0.07546756470441503 0.877845426311068
0.47825471466214947 -0.005527687134809223 0.90977824267527
0.5096734817207569 0.10007439273566246 0.8049890084544473
0.5861465789778056 -0.02392054733122976 0.779737076407645
0.6201754116078674 0.07546756470441503 0.877845426311068
0.6782547146621495 -0.005527687134809223 0.90977824267527
0.709673481720757 0.10007439273566246 0.8049890084544473
0.7861465789778057 -0.02392054733122976 0.779737076407645
0.8201754116078673 0.07546756470441503 0.877845426311068
0.8782547146621495 -0.005527687134809223 0.90977824267527
0.9096734817207569 0.10007439273566246 0.8049890084544473
-0.013853421022194385 0.17607945266877026 0.779737076407645
0.020175411607867292 0.2754675647044151 0.877845426311068
0.07825471466214944 0.1944723128651908 0.90977824267527
0.10967348172075693 0.30007439273566244 0.8049890084544473
0.18614657897780562 0.17607945266877026 0.779737076407645
0.22017541160786733 0.2754675647044151 0.877845426311068
0.2782547146621494 0.1944723128651908 0.90977824267527
0.3096734817207569 0.30007439273566244 0.8049890084544473
0.38614657897780563 0.17607945266877026 0.779737076407645
0.4201754116078673 0.2754675647044151 0.877845426311068
0.47825471466214947 0.1944723128651908 0.90977824267527
0.5096734817207569 0.30007439273566244 0.8049890084544473
0.5861465789778056 0.17607945266877026 0.779737076407645
0.6201754116078674 0.2754675647044151 0.877845426311068
0.6782547146621495 0.1944723128651908 0.90977824267527
0.709673481720757 0.30007439273566244 0.8049890084544473
0.7861465789778057 0.17607945266877026 0.779737076407645
0.8201754116078673 0.2754675647044151 0.877845426311068
0.8782547146621495 0.1944723128651908 0.90977824267527
0.9096734817207569 0.30007439273566244 0.8049890084544473
-0.013853421022194385 0.3760794526687703 0.779737076407645
0.020175411607867292 0.4754675647044151 0.877845426311068
0.07825471466214944 0.3944723128651908 0.90977824267527
0.10967348172075693 0.5000743927356625 0.8049890084544473
0.18614657897780562 0.3760794526687703 0.779737076407645
0.22017541160786733 0.4754675647044151 0.877845426311068
0.2782547146621494 0.3944723128651908 0.90977824267527
0.3096734817207569 0.5000743927356625 0.8049890084544473
0.38614657897780563 0.3760794526687703 0.779737076407645
0.4201754116078673 0.4754675647044151 0.877845426311068
0.47825471466214947 0.3944723128651908 0.90977824267527
0.5096734817207569 0.5000743927356625 0.8049890084544473
0.5861465789778056 0.3760794526687703 0.779737076407645
0.6201754116078674 0.4754675647044151 0.877845426311068
0.6782547146621495 0.3944723128651908 0.90977824267527
0.709673481720757 0.5000743927356625 0.8049890084544473
0.7861465789778057 0.3760794526687703 0.779737076407645
0.8201754116078673 0.4754675647044151 0.877845426311068
0.8782547146621495 0.3944723128651908 0.90977824267527
0.9096734817207569 0.5000743927356625 0.8049890084544473
-0.013853421022194385 0.5760794526687703 0.779737076407645
0.020175411607867292 0.675467564704415 0.877845426311068
0.07825471466214944 0.5944723128651908 0.90977824267527
0.10967348172075693 0.7000743927356625 0.8049890084544473
0.18614657897780562 0.5760794526687703 0.779737076407645
0.22017541160786733 0.675467564704415 0.877845426311068
0.2782547146621494 0.5944723128651908 0.90977824267527
0.3096734817207569 0.7000743927356625 0.8049890084544473
0.38614657897780563 0.5760794526687703 0.779737076407645
0.4201754116078673 0.675467564704415 0.877845426311068
0.47825471466214947 0.5944723128651908 0.90977824267527
0.5096734817207569 0.7000743927356625 0.8049890084544473
0.5861465789778056 0.5760794526687703 0.779737076407645
0.6201754116078674 0.675467564704415 0.877845426311068
0.6782547146621495 0.5944723128651908 0.90977824267527
0.709673481720757 0.7000743927356625 0.8049890084544473
0.7861465789778057 0.5760794526687703 0.779737076407645
0.8201754116078673 0.675467564704415 0.877845426311068
0.8782547146621495 0.5944723128651908 0.90977824267527
0.9096734817207569 0.7000743927356625 0.8049890084544473
-0.013853421022194385 0.7760794526687702 0.779737076407645
0.020175411607867292 0.8754675647044151 0.877845426311068
0.07825471466214944 0.7944723128651908 0.90977824267527
0.10967348172075693 0.9000743927356626 0.8049890084544473
0.18614657897780562 0.7760794526687702 0.779737076407645
0.22017541160786733 0.8754675647044151 0.877845426311068
0.2782547146621494 0.7944723128651908 0.90977824267527
0.3096734817207569 0.9000743927356626 0.8049890084544473
0.38614657897780563 0.7760794526687702 0.779737076407645
0.4201754116078673 0.8754675647044151 0.877845426311068
0.47825471466214947 0.7944723128651908 0.90977824267527
0.5096734817207569 0.9000743927356626 0.8049890084544473
0.5861465789778056 0.7760794526687702 0.779737076407645
0.6201754116078674 0.8754675647044151 0.877845426311068
0.6782547146621495 0.7944723128651908 0.90977824267527
0.709673481720757 0.9000743927356626 0.8049890084544473
0.7861465789778057 0.7760794526687702 0.779737076407645
0.8201754116078673 0.8754675647044151 0.877845426311068
0.8782547146621495 0.7944723128651908 0.90977824267527
0.9096734817207569 0.9000743927356626 0.8049890084544473
0.08398306357344115 0.016986358637494866 -0.0011109147464869185
-0.01408441106149521 0.11635366543504047 -0.02604217483904322
0.010781031383814709 -0.006439930625099086 0.0752564360751251
0.1225142344922558 0.1274312335819376 0.07694683909655534
0.28398306357344116 0.016986358637494866 -0.0011109147464869185
0.1859155889385048 0.11635366543504047 -0.02604217483904322
0.21078103138381474 -0.006439930625099086 0.0752564360751251
0.3225142344922558 0.1274312335819376 0.07694683909655534
0.48398306357344123 0.016986358637494866 -0.0011109147464869185
0.3859155889385048 0.11635366543504047 -0.02604217483904322
0.4107810313838147 -0.006439930625099086 0.0752564360751251
0.5225142344922559 0.1274312335819376 0.07694683909655534
0.6839830635734412 0.016986358637494866 -0.0011109147464869185
0.5859155889385048 0.11635366543504047 -0.02604217483904322
0.6107810313838148 -0.006439930625099086 0.0752564360751251
0.7225142344922558 0.1274312335819376 0.07694683909655534
0.8839830635734413 0.016986358637494866 -0.0011109147464869185
0.7859155889385048 0.11635366543504047 -0.02604217483904322
0.8107810313838147 -0.006439930625099086 0.0752564360751251
0.9225142344922559 0.1274312335819376 0.07694683909655534
0.08398306357344115 0.21698635863749485 -0.0011109147464869185
-0.01408441106149521 0.3163536654350405 -0.02604217483904322
0.010781031383814709 0.19356006937490092 0.0752564360751251
0.1225142344922558 0.3274312335819376 0.07694683909655534
0.28398306357344116 0.21698635863749485 -0.0011109147464869185
0.1859155889385048 0.3163536654350405 -0.02604217483904322
0.21078103138381474 0.19356006937490092 0.0752564360751251
0.3225142344922558 0.3274312335819376 0.07694683909655534
0.48398306357344123 0.21698635863749485 -0.0011109147464869185
0.3859155889385048 0.3163536654350405 -0.02604217483904322
0.4107810313838147 0.19356006937490092 0.0752564360751251
0.5225142344922559 0.3274312335819376 0.07694683909655534
0.6839830635734412 0.21698635863749485 -0.0011109147464869185
0.5859155889385048 0.3163536654350405 -0.02604217483904322
0.6107810313838148 0.19356006937490092 0.0752564360751251
0.7225142344922558 0.3274312335819376 0.07694683909655534
0.8839830635734413 0.21698635863749485 -0.0011109147464869185
0.7859155889385048 0.3163536654350405 -0.02604217483904322
0.8107810313838147 0.19356006937490092 0.0752564360751251
0.9225142344922559 0.3274312335819376 0.07694683909655534
0.08398306357344115 0.4169863586374949 -0.0011109147464869185
-0.01408441106149521 0.5163536654350405 -0.02604217483904322
0.010781031383814709 0.39356006937490096 0.0752564360751251
0.1225142344922558 0.5274312335819377 0.07694683909655534
0.28398306357344116 0.4169863586374949 -0.0011109147464869185
0.1859155889385048 0.5163536654350405 -0.02604217483904322
0.21078103138381474 0.39356006937490096 0.0752564360751251
0.3225142344922558 0.5274312335819377 0.07694683909655534
0.48398306357344123 0.4169863586374949 -0.0011109147464869185
0.3859155889385048 0.5163536654350405 -0.02604217483904322
0.4107810313838147 0.39356006937490096 0.0752564360751251
0.5225142344922559 0.5274312335819377 0.07694683909655534
0.6839830635734412 0.4169863586374949 -0.0011109147464869185
0.5859155889385048 0.5163536654350405 -0.02604217483904322
0.6107810313838148 0.39356006937490096 0.0752564360751251
0.7225142344922558 0.5274312335819377 0.07694683909655534
0.8839830635734413 0.4169863586374949 -0.0011109147464869185
0.7859155889385048 0.5163536654350405 -0.02604217483904322
0.8107810313838147 0.39356006937490096 0.0752564360751251
0.9225142344922559 0.5274312335819377 0.07694683909655534
0.08398306357344115 0.616986358637495 -0.0011109147464869185
-0.01408441106149521 0.7163536654350405 -0.02604217483904322
0.010781031383814709 0.5935600693749009 0.0752564360751251
0.1225142344922558 0.7274312335819376 0.07694683909655534
0.28398306357344116 0.616986358637495 -0.0011109147464869185
0.1859155889385048 0.7163536654350405 -0.02604217483904322
0.21078103138381474 0.5935600693749009 0.0752564360751251
0.3225142344922558 0.7274312335819376 0.07694683909655534
0.48398306357344123 0.616986358637495 -0.0011109147464869185
0.3859155889385048 0.7163536654350405 -0.02604217483904322
0.4107810313838147 0.5935600693749009 0.0752564360751251
0.5225142344922559 0.7274312335819376 0.07694683909655534
0.6839830635734412 0.616986358637495 -0.0011109147464869185
0.5859155889385048 0.7163536654350405 -0.02604217483904322
0.6107810313838148 0.5935600693749009 0.0752564360751251
0.7225142344922558 0.7274312335819376 0.07694683909655534
0.8839830635734413 0.616986358637495 -0.0011109147464869185
0.7859155889385048 0.7163536654350405 -0.02604217483904322
0.8107810313838147 0.5935600693749009 0.0752564360751251
0.9225142344922559 0.7274312335819376 0.07694683909655534
0.08398306357344115 0.8169863586374948 -0.0011109147464869185
-0.01408441106149521 0.9163536654350406 -0.02604217483904322
0.010781031383814709 0.793560069374901 0.0752564360751251
0.1225142344922558 0.9274312335819377 0.07694683909655534
0.28398306357344116 0.8169863586374948 -0.0011109147464869185
0.1859155889385048 0.9163536654350406 -0.02604217483904322
0.21078103138381474 0.793560069374901 0.0752564360751251
0.3225142344922558 0.9274312335819377 0.07694683909655534
0.48398306357344123 0.8169863586374948 -0.0011109147464869185
0.3859155889385048 0.9163536654350406 -0.02604217483904322
0.4107810313838147 0.793560069374901 0.0752564360751251
0.5225142344922559 0.9274312335819377 0.07694683909655534
0.6839830635734412 0.8169863586374948 -0.0011109147464869185
0.5859155889385048 0.9163536654350406 -0.02604217483904322
0.6107810313838148 0.793560069374901 0.0752564360751251
0.7225142344922558 0.9274312335819377 0.07694683909655534
0.8839830635734413 0.8169863586374948 -0.0011109147464869185
0.7859155889385048 0.9163536654350406 -0.02604217483904322
0.8107810313838147 0.793560069374901 0.0752564360751251
0.9225142344922559 0.9274312335819377 0.07694683909655534
0.08398306357344115 0.016986358637494866 0.1988890852535131
-0.01408441106149521 0.11635366543504047 0.17395782516095679
0.010781031383814709 -0.006439930625099086 0.27525643607512507
0.1225142344922558 0.1274312335819376 0.2769468390965553
0.28398306357344116 0.016986358637494866 0.1988890852535131
0.1859155889385048 0.11635366543504047 0.17395782516095679
0.21078103138381474 -0.006439930625099086 0.27525643607512507
0.3225142344922558 0.1274312335819376 0.2769468390965553
0.48398306357344123 0.016986358637494866 0.1988890852535131
0.3859155889385048 0.11635366543504047 0.17395782516095679
0.4107810313838147 -0.006439930625099086 0.27525643607512507
0.5225142344922559 0.1274312335819376 0.2769468390965553
0.6839830635734412 0.016986358637494866 0.1988890852535131
0.5859155889385048 0.11635366543504047 0.17395782516095679
0.6107810313838148 -0.006439930625099086 0.27525643607512507
0.7225142344922558 0.1274312335819376 0.2769468390965553
0.8839830635734413 0.016986358637494866 0.1988890852535131
0.7859155889385048 0.11635366543504047 0.17395782516095679
0.8107810313838147 -0.006439930625099086 0.27525643607512507
0.9225142344922559 0.1274312335819376 0.2769468390965553
0.08398306357344115 0.21698635863749485 0.1988890852535131
-0.01408441106149521 0.3163536654350405 0.17395782516095679
0.010781031383814709 0.19356006937490092 0.27525643607512507
0.1225142344922558 0.3274312335819376 0.2769468390965553
0.28398306357344116 0.21698635863749485 0.1988890852535131
0.1859155889385048 0.3163536654350405 0.17395782516095679
0.21078103138381474 0.19356006937490092 0.27525643607512507
0.3225142344922558 0.3274312335819376 0.2769468390965553
0.48398306357344123 0.21698635863749485 0.1988890852535131
0.3859155889385048 0.3163536654350405 0.17395782516095679
0.4107810313838147 0.19356006937490092 0.27525643607512507
0.5225142344922559 0.3274312335819376 0.2769468390965553
0.6839830635734412 0.21698635863749485 0.1988890852535131
0.5859155889385048 0.3163536654350405 0.17395782516095679
0.6107810313838148 0.19356006937490092 0.27525643607512507
0.7225142344922558 0.3274312335819376 0.2769468390965553
0.8839830635734413 0.21698635863749485 0.1988890852535131
0.7859155889385048 0.3163536654350405 0.17395782516095679
0.8107810313838147 0.19356006937490092 0.27525643607512507
0.9225142344922559 0.3274312335819376 0.2769468390965553
0.08398306357344115 0.4169863586374949 0.1988890852535131
-0.01408441106149521 0.5163536654350405 0.17395782516095679
0.010781031383814709 0.39356006937490096 0.27525643607512507
0.1225142344922558 0.5274312335819377 0.2769468390965553
0.28398306357344116 0.4169863586374949 0.1988890852535131
0.1859155889385048 0.5163536654350405 0.17395782516095679
0.21078103138381474 0.39356006937490096 0.27525643607512507
0.3225142344922558 0.5274312335819377 0.2769468390965553
0.48398306357344123 0.4169863586374949 0.1988890852535131
0.3859155889385048 0.5163536654350405 0.17395782516095679
0.4107810313838147 0.39356006937490096 0.27525643607512507
0.5225142344922559 0.5274312335819377 0.2769468390965553
0.6839830635734412 0.4169863586374949 0.1988890852535131
0.5859155889385048 0.5163536654350405 0.17395782516095679
0.6107810313838148 0.39356006937490096 0.27525643607512507
0.7225142344922558 0.5274312335819377 0.2769468390965553
0.8839830635734413 0.4169863586374949 0.1988890852535131
0.7859155889385048 0.5163536654350405 0.17395782516095679
0.8107810313838147 0.39356006937490096 0.27525643607512507
0.9225142344922559 0.5274312335819377 0.2769468390965553
0.08398306357344115 0.616986358637495 0.1988890852535131
-0.01408441106149521 0.7163536654350405 0.17395782516095679
0.010781031383814709 0.5935600693749009 0.27525643607512507
0.1225142344922558 0.7274312335819376 0.2769468390965553
0.28398306357344116 0.616986358637495 0.1988890852535131
0.1859155889385048 0.7163536654350405 0.17395782516095679
0.21078103138381474 0.5935600693749009 0.27525643607512507
0.3225142344922558 0.7274312335819376 0.2769468390965553
0.48398306357344123 0.616986358637495 0.1988890852535131
0.3859155889385048 0.7163536654350405 0.17395782516095679
0.4107810313838147 0.5935600693749009 0.27525643607512507
0.5225142344922559 0.7274312335819376 0.2769468390965553
0.6839830635734412 0.616986358637495 0.1988890852535131
0.5859155889385048 0.7163536654350405 0.17395782516095679
0.6107810313838148 0.5935600693749009 0.27525643607512507
0.7225142344922558 0.7274312335819376 0.2769468390965553
0.8839830635734413 0.616986358637495 0.1988890852535131
0.7859155889385048 0.7163536654350405 0.17395782516095679
0.8107810313838147 0.5935600693749009 0.27525643607512507
0.9225142344922559 0.7274312335819376 0.2769468390965553
0.08398306357344115 0.8169863586374948 0.1988890852535131
-0.01408441106149521 0.9163536654350406 0.17395782516095679
0.010781031383814709 0.793560069374901 0.27525643607512507
0.1225142344922558 0.9274312335819377 0.2769468390965553
0.28398306357344116 0.8169863586374948 0.1988890852535131
0.1859155889385048 0.9163536654350406 0.17395782516095679
0.21078103138381474 0.793560069374901 0.27525643607512507
0.3225142344922558 0.9274312335819377 0.2769468390965553
0.48398306357344123 0.8169863586374948 0.1988890852535131
0.3859155889385048 0.9163536654350406 0.17395782516095679
0.4107810313838147 0.793560069374901 0.27525643607512507
0.5225142344922559 0.9274312335819377 0.2769468390965553
0.6839830635734412 0.8169863586374948 0.1988890852535131
0.5859155889385048 0.9163536654350406 0.17395782516095679
0.6107810313838148 0.793560069374901 0.27525643607512507
0.7225142344922558 0.9274312335819377 0.2769468390965553
0.8839830635734413 0.8169863586374948 0.1988890852535131
0.7859155889385048 0.9163536654350406 0.17395782516095679
0.8107810313838147 0.793560069374901 0.27525643607512507
0.9225142344922559 0.9274312335819377 0.2769468390965553
0.08398306357344115 0.016986358637494866 0.39888908525351313
-0.01408441106149521 0.11635366543504047 0.37395782516095677
0.010781031383814709 -0.006439930625099086 0.4752564360751251
0.1225142344922558 0.1274312335819376 0.47694683909655533
0.28398306357344116 0.016986358637494866 0.39888908525351313
0.1859155889385048 0.11635366543504047 0.37395782516095677
0.21078103138381474 -0.006439930625099086 0.4752564360751251
0.3225142344922558 0.1274312335819376 0.47694683909655533
0.48398306357344123 0.016986358637494866 0.39888908525351313
0.3859155889385048 0.11635366543504047 0.37395782516095677
0.4107810313838147 -0.006439930625099086 0.4752564360751251
0.5225142344922559 0.1274312335819376 0.47694683909655533
0.6839830635734412 0.016986358637494866 0.39888908525351313
0.5859155889385048 0.11635366543504047 0.37395782516095677
0.6107810313838148 -0.006439930625099086 0.4752564360751251
0.7225142344922558 0.1274312335819376 0.47694683909655533
0.8839830635734413 0.016986358637494866 0.39888908525351313
0.7859155889385048 0.11635366543504047 0.37395782516095677
0.8107810313838147 -0.006439930625099086 0.4752564360751251
0.9225142344922559 0.1274312335819376 0.47694683909655533
0.08398306357344115 0.21698635863749485 0.39888908525351313
-0.01408441106149521 0.3163536654350405 0.37395782516095677
0.010781031383814709 0.19356006937490092 0.4752564360751251
0.1225142344922558 0.3274312335819376 0.47694683909655533
0.28398306357344116 0.21698635863749485 0.39888908525351313
0.1859155889385048 0.3163536654350405 0.37395782516095677
0.21078103138381474 0.19356006937490092 0.4752564360751251
0.3225142344922558 0.3274312335819376 0.47694683909655533
0.48398306357344123 0.21698635863749485 0.39888908525351313
0.3859155889385048 0.3163536654350405 0.37395782516095677
0.4107810313838147 0.19356006937490092 0.4752564360751251
0.5225142344922559 0.3274312335819376 0.47694683909655533
0.6839830635734412 0.21698635863749485 0.39888908525351313
0.5859155889385048 0.3163536654350405 0.37395782516095677
0.6107810313838148 0.19356006937490092 0.4752564360751251
0.7225142344922558 0.3274312335819376 0.47694683909655533
0.8839830635734413 0.21698635863749485 0.39888908525351313
0.7859155889385048 0.3163536654350405 0.37395782516095677
0.8107810313838147 0.19356006937490092 0.4752564360751251
0.9225142344922559 0.3274312335819376 0.47694683909655533
0.08398306357344115 0.4169863586374949 0.39888908525351313
-0.01408441106149521 0.5163536654350405 0.37395782516095677
0.010781031383814709 0.39356006937490096 0.4752564360751251
0.1225142344922558 0.5274312335819377 0.47694683909655533
0.28398306357344116 0.4169863586374949 0.39888908525351313
0.1859155889385048 0.5163536654350405 0.37395782516095677
0.21078103138381474 0.39356006937490096 0.4752564360751251
0.3225142344922558 0.5274312335819377 0.47694683909655533
0.48398306357344123 0.4169863586374949 0.39888908525351313
0.3859155889385048 0.5163536654350405 0.37395782516095677
0.4107810313838147 0.39356006937490096 0.4752564360751251
0.5225142344922559 0.5274312335819377 0.47694683909655533
0.6839830635734412 0.4169863586374949 0.39888908525351313
0.5859155889385048 0.5163536654350405 0.37395782516095677
0.6107810313838148 0.39356006937490096 0.4752564360751251
0.7225142344922558 0.5274312335819377 0.47694683909655533
0.8839830635734413 0.4169863586374949 0.39888908525351313
0.7859155889385048 0.5163536654350405 0.37395782516095677
0.8107810313838147 0.39356006937490096 0.4752564360751251
0.9225142344922559 0.5274312335819377 0.47694683909655533
0.08398306357344115 0.616986358637495 0.39888908525351313
-0.01408441106149521 0.7163536654350405 0.37395782516095677
0.010781031383814709 0.5935600693749009 0.4752564360751251
0.1225142344922558 0.7274312335819376 0.47694683909655533
0.28398306357344116 0.616986358637495 0.39888908525351313
0.1859155889385048 0.7163536654350405 0.37395782516095677
0.21078103138381474 0.5935600693749009 0.4752564360751251
0.3225142344922558 0.7274312335819376 0.47694683909655533
0.48398306357344123 0.616986358637495 0.39888908525351313
0.3859155889385048 0.7163536654350405 0.37395782516095677
0.4107810313838147 0.5935600693749009 0.4752564360751251
0.5225142344922559 0.7274312335819376 0.47694683909655533
0.6839830635734412 0.616986358637495 0.39888908525351313
0.5859155889385048 0.7163536654350405 0.37395782516095677
0.6107810313838148 0.5935600693749009 0.4752564360751251
0.7225142344922558 0.7274312335819376 0.47694683909655533
0.8839830635734413 0.616986358637495 0.39888908525351313
0.7859155889385048 0.7163536654350405 0.37395782516095677
0.8107810313838147 0.5935600693749009 0.4752564360751251
0.9225142344922559 0.7274312335819376 0.47694683909655533
0.08398306357344115 0.8169863586374948 0.39888908525351313
-0.01408441106149521 0.9163536654350406 0.37395782516095677
0.010781031383814709 0.793560069374901 0.4752564360751251
0.1225142344922558 0.9274312335819377 0.47694683909655533
0.28398306357344116 0.8169863586374948 0.39888908525351313
0.1859155889385048 0.9163536654350406 0.37395782516095677
0.21078103138381474 0.793560069374901 0.4752564360751251
0.3225142344922558 0.9274312335819377 0.47694683909655533
0.48398306357344123 0.8169863586374948 0.39888908525351313
0.3859155889385048 0.9163536654350406 0.37395782516095677
0.4107810313838147 0.793560069374901 0.4752564360751251
0.5225142344922559 0.9274312335819377 0.47694683909655533
0.6839830635734412 0.8169863586374948 0.39888908525351313
0.5859155889385048 0.9163536654350406 0.37395782516095677
0.6107810313838148 0.793560069374901 0.4752564360751251
0.7225142344922558 0.9274312335819377 0.47694683909655533
0.8839830635734413 0.8169863586374948 0.39888908525351313
0.7859155889385048 0.9163536654350406 0.37395782516095677
0.8107810313838147 0.793560069374901 0.4752564360751251
0.9225142344922559 0.9274312335819377 0.47694683909655533
0.08398306357344115 0.016986358637494866 0.5988890852535131
-0.01408441106149521 0.11635366543504047 0.5739578251609568
0.010781031383814709 -0.006439930625099086 0.6752564360751251
0.1225142344922558 0.1274312335819376 0.6769468390965554
0.28398306357344116 0.016986358637494866 0.5988890852535131
0.1859155889385048 0.11635366543504047 0.5739578251609568
0.21078103138381474 -0.006439930625099086 0.6752564360751251
0.3225142344922558 0.1274312335819376 0.6769468390965554
0.48398306357344123 0.016986358637494866 0.5988890852535131
0.3859155889385048 0.11635366543504047 0.5739578251609568
0.4107810313838147 -0.006439930625099086 0.6752564360751251
0.5225142344922559 0.1274312335819376 0.6769468390965554
0.6839830635734412 0.016986358637494866 0.5988890852535131
0.5859155889385048 0.11635366543504047 0.5739578251609568
0.6107810313838148 -0.006439930625099086 0.6752564360751251
0.7225142344922558 0.1274312335819376 0.6769468390965554
0.8839830635734413 0.016986358637494866 0.5988890852535131
0.7859155889385048 0.11635366543504047 0.5739578251609568
0.8107810313838147 -0.006439930625099086 0.6752564360751251
0.9225142344922559 0.1274312335819376 0.6769468390965554
0.08398306357344115 0.21698635863749485 0.5988890852535131
-0.01408441106149521 0.3163536654350405 0.5739578251609568
0.010781031383814709 0.19356006937490092 0.6752564360751251
0.1225142344922558 0.3274312335819376 0.6769468390965554
0.28398306357344116 0.21698635863749485 0.5988890852535131
0.1859155889385048 0.3163536654350405 0.5739578251609568
0.21078103138381474 0.19356006937490092 0.6752564360751251
0.3225142344922558 0.3274312335819376 0.6769468390965554
0.48398306357344123 0.21698635863749485 0.5988890852535131
0.3859155889385048 0.3163536654350405 0.5739578251609568
0.4107810313838147 0.19356006937490092 0.6752564360751251
0.5225142344922559 0.3274312335819376 0.6769468390965554
0.6839830635734412 0.21698635863749485 0.5988890852535131
0.5859155889385048 0.3163536654350405 0.5739578251609568
0.6107810313838148 0.19356006937490092 0.6752564360751251
0.7225142344922558 0.3274312335819376 0.6769468390965554
0.8839830635734413 0.21698635863749485 0.5988890852535131
0.7859155889385048 0.3163536654350405 0.5739578251609568
0.8107810313838147 0.19356006937490092 0.6752564360751251
0.9225142344922559 0.3274312335819376 0.6769468390965554
0.08398306357344115 0.4169863586374949 0.5988890852535131
-0.01408441106149521 0.5163536654350405 0.5739578251609568
0.010781031383814709 0.39356006937490096 0.6752564360751251
0.1225142344922558 0.5274312335819377 0.6769468390965554
0.28398306357344116 0.4169863586374949 0.5988890852535131
0.1859155889385048 0.5163536654350405 0.5739578251609568
0.21078103138381474 0.39356006937490096 0.6752564360751251
0.3225142344922558 0.5274312335819377 0.6769468390965554
0.48398306357344123 0.4169863586374949 0.5988890852535131
0.3859155889385048 0.5163536654350405 0.5739578251609568
0.4107810313838147 0.39356006937490096 0.6752564360751251
0.5225142344922559 0.5274312335819377 0.6769468390965554
0.6839830635734412 0.4169863586374949 0.5988890852535131
0.5859155889385048 0.5163536654350405 0.5739578251609568
0.6107810313838148 0.39356006937490096 0.6752564360751251
0.7225142344922558 0.5274312335819377 0.6769468390965554
0.8839830635734413 0.4169863586374949 0.5988890852535131
0.7859155889385048 0.5163536654350405 0.5739578251609568
0.8107810313838147 0.39356006937490096 0.6752564360751251
0.9225142344922559 0.5274312335819377 0.6769468390965554
0.08398306357344115 0.616986358637495 0.5988890852535131
-0.01408441106149521 0.7163536654350405 0.5739578251609568
0.010781031383814709 0.5935600693749009 0.6752564360751251
0.1225142344922558 0.7274312335819376 0.6769468390965554
0.28398306357344116 0.616986358637495 0.5988890852535131
0.1859155889385048 0.7163536654350405 0.5739578251609568
0.21078103138381474 0.5935600693749009 0.6752564360751251
0.3225142344922558 0.7274312335819376 0.6769468390965554
0.48398306357344123 0.616986358637495 0.5988890852535131
0.3859155889385048 0.7163536654350405 0.5739578251609568
0.4107810313838147 0.5935600693749009 0.6752564360751251
0.5225142344922559 0.7274312335819376 0.6769468390965554
0.6839830635734412 0.616986358637495 0.5988890852535131
0.5859155889385048 0.7163536654350405 0.5739578251609568
0.6107810313838148 0.5935600693749009 0.6752564360751251
0.7225142344922558 0.7274312335819376 0.6769468390965554
0.8839830635734413 0.616986358637495 0.5988890852535131
0.7859155889385048 0.7163536654350405 0.5739578251609568
0.8107810313838147 0.5935600693749009 0.6752564360751251
0.9225142344922559 0.7274312335819376 0.6769468390965554
0.08398306357344115 0.8169863586374948 0.5988890852535131
-0.01408441106149521 0.9163536654350406 0.5739578251609568
0.010781031383814709 0.793560069374901 0.6752564360751251
0.1225142344922558 0.9274312335819377 0.6769468390965554
0.28398306357344116 0.8169863586374948 0.5988890852535131
0.1859155889385048 0.9163536654350406 0.5739578251609568
0.21078103138381474 0.793560069374901 0.6752564360751251
0.3225142344922558 0.9274312335819377 0.6769468390965554
0.48398306357344123 0.8169863586374948 0.5988890852535131
0.3859155889385048 0.9163536654350406 0.5739578251609568
0.4107810313838147 0.793560069374901 0.6752564360751251
0.5225142344922559 0.9274312335819377 0.6769468390965554
0.6839830635734412 0.8169863586374948 0.5988890852535131
0.5859155889385048 0.9163536654350406 0.5739578251609568
0.6107810313838148 0.793560069374901 0.6752564360751251
0.7225142344922558 0.9274312335819377 0.6769468390965554
0.8839830635734413 0.8169863586374948 0.5988890852535131
0.7859155889385048 0.9163536654350406 0.5739578251609568
0.8107810313838147 0.793560069374901 0.6752564360751251
0.9225142344922559 0.9274312335819377 0.6769468390965554
0.08398306357344115 0.016986358637494866 0.7988890852535131
-0.01408441106149521 0.11635366543504047 0.7739578251609568
0.010781031383814709 -0.006439930625099086 0.8752564360751252
0.1225142344922558 0.1274312335819376 0.8769468390965554
0.28398306357344116 0.016986358637494866 0.7988890852535131
0.1859155889385048 0.11635366543504047 0.7739578251609568
0.21078103138381474 -0.006439930625099086 0.8752564360751252
0.3225142344922558 0.1274312335819376 0.8769468390965554
0.48398306357344123 0.016986358637494866 0.7988890852535131
0.3859155889385048 0.11635366543504047 0.7739578251609568
0.4107810313838147 -0.006439930625099086 0.8752564360751252
0.5225142344922559 0.1274312335819376 0.8769468390965554
0.6839830635734412 0.016986358637494866 0.7988890852535131
0.5859155889385048 0.11635366543504047 0.7739578251609568
0.6107810313838148 -0.006439930625099086 0.8752564360751252
0.7225142344922558 0.1274312335819376 0.8769468390965554
0.8839830635734413 0.016986358637494866 0.7988890852535131
0.7859155889385048 0.11635366543504047 0.7739578251609568
0.8107810313838147 -0.006439930625099086 0.8752564360751252
0.9225142344922559 0.1274312335819376 0.8769468390965554
0.08398306357344115 0.21698635863749485 0.7988890852535131
-0.01408441106149521 0.3163536654350405 0.7739578251609568
0.010781031383814709 0.19356006937490092 0.8752564360751252
0.1225142344922558 0.3274312335819376 0.8769468390965554
0.28398306357344116 0.21698635863749485 0.7988890852535131
0.1859155889385048 0.3163536654350405 0.7739578251609568
0.21078103138381474 0.19356006937490092 0.8752564360751252
0.3225142344922558 0.3274312335819376 0.8769468390965554
0.48398306357344123 0.21698635863749485 0.7988890852535131
0.3859155889385048 0.3163536654350405 0.7739578251609568
0.4107810313838147 0.19356006937490092 0.8752564360751252
0.5225142344922559 0.3274312335819376 0.8769468390965554
0.6839830635734412 0.21698635863749485 0.7988890852535131
0.5859155889385048 0.3163536654350405 0.7739578251609568
0.6107810313838148 0.19356006937490092 0.8752564360751252
0.7225142344922558 0.3274312335819376 0.8769468390965554
0.8839830635734413 0.21698635863749485 0.7988890852535131
0.7859155889385048 0.3163536654350405 0.7739578251609568
0.8107810313838147 0.19356006937490092 0.8752564360751252
0.9225142344922559 0.3274312335819376 0.8769468390965554
0.08398306357344115 0.4169863586374949 0.7988890852535131
-0.01408441106149521 0.5163536654350405 0.7739578251609568
0.010781031383814709 0.39356006937490096 0.8752564360751252
0.1225142344922558 0.5274312335819377 0.8769468390965554
0.28398306357344116 0.4169863586374949 0.7988890852535131
0.1859155889385048 0.5163536654350405 0.7739578251609568
0.21078103138381474 0.39356006937490096 0.8752564360751252
0.3225142344922558 0.5274312335819377 0.8769468390965554
0.48398306357344123 0.4169863586374949 0.7988890852535131
0.3859155889385048 0.5163536654350405 0.7739578251609568
0.4107810313838147 0.39356006937490096 0.8752564360751252
0.5225142344922559 0.5274312335819377 0.8769468390965554
0.6839830635734412 0.4169863586374949 0.7988890852535131
0.5859155889385048 0.5163536654350405 0.7739578251609568
0.6107810313838148 0.39356006937490096 0.8752564360751252
0.7225142344922558 0.5274312335819377 0.8769468390965554
0.8839830635734413 0.4169863586374949 0.7988890852535131
0.7859155889385048 0.5163536654350405 0.7739578251609568
0.8107810313838147 0.39356006937490096 0.8752564360751252
0.9225142344922559 0.5274312335819377 0.8769468390965554
0.08398306357344115 0.616986358637495 0.7988890852535131
-0.01408441106149521 0.7163536654350405 0.7739578251609568
0.010781031383814709 0.5935600693749009 0.8752564360751252
0.1225142344922558 0.7274312335819376 0.8769468390965554
0.28398306357344116 0.616986358637495 0.7988890852535131
0.1859155889385048 0.7163536654350405 0.7739578251609568
0.21078103138381474 0.5935600693749009 0.8752564360751252
0.3225142344922558 0.7274312335819376 0.8769468390965554
0.48398306357344123 0.616986358637495 0.7988890852535131
0.3859155889385048 0.7163536654350405 0.7739578251609568
0.4107810313838147 0.5935600693749009 0.8752564360751252
0.5225142344922559 0.7274312335819376 0.8769468390965554
0.6839830635734412 0.616986358637495 0.7988890852535131
0.5859155889385048 0.7163536654350405 0.7739578251609568
0.6107810313838148 0.5935600693749009 0.8752564360751252
0.7225142344922558 0.7274312335819376 0.8769468390965554
0.8839830635734413 0.616986358637495 0.7988890852535131
0.7859155889385048 0.7163536654350405 0.7739578251609568
0.8107810313838147 0.5935600693749009 0.8752564360751252
0.9225142344922559 0.7274312335819376 0.8769468390965554
0.08398306357344115 0.8169863586374948 0.7988890852535131
-0.01408441106149521 0.9163536654350406 0.7739578251609568
0.010781031383814709 0.793560069374901 0.8752564360751252
0.1225142344922558 0.9274312335819377 0.8769468390965554
0.28398306357344116 0.8169863586374948 0.7988890852535131
0.1859155889385048 0.9163536654350406 0.7739578251609568
0.21078103138381474 0.793560069374901 0.8752564360751252
0.3225142344922558 0.9274312335819377 0.8769468390965554
0.48398306357344123 0.8169863586374948 0.7988890852535131
0.3859155889385048 0.9163536654350406 0.7739578251609568
0.4107810313838147 0.793560069374901 0.8752564360751252
0.5225142344922559 0.9274312335819377 0.8769468390965554
0.6839830635734412 0.8169863586374948 0.7988890852535131
0.5859155889385048 0.9163536654350406 0.7739578251609568
0.6107810313838148 0.793560069374901 0.8752564360751252
0.7225142344922558 0.9274312335819377 0.8769468390965554
0.8839830635734413 0.8169863586374948 0.7988890852535131
0.7859155889385048 0.9163536654350406 0.7739578251609568
0.8107810313838147 0.793560069374901 0.8752564360751252
0.9225142344922559 0.9274312335819377 0.8769468390965554
