FCC BaO
5.61604
3.0 0.0 0.0
0.0 3.0 0.0
0.0 0.0 3.0
Ba O 
108 108 
Direct
-0.07241152563200845 0.20722454563288945 0.2579491184511854
-0.8240612307221105 -1.1814816989156325 -0.6932273346973143
1.2893600593591656 -0.909808254766519 -0.09547740808969632
0.19685299492543856 0.17197429395594743 -0.9253881651631097
0.2609218077013249 0.20722454563288945 0.2579491184511854
-0.4907278973887772 -1.1814816989156325 -0.6932273346973143
1.622693392692499 -0.909808254766519 -0.09547740808969632
0.5301863282587719 0.17197429395594743 -0.9253881651631097
0.5942551410346582 0.20722454563288945 0.2579491184511854
-0.15739456405544386 -1.1814816989156325 -0.6932273346973143
1.9560267260258322 -0.909808254766519 -0.09547740808969632
0.8635196615921052 0.17197429395594743 -0.9253881651631097
-0.07241152563200845 0.5405578789662228 0.2579491184511854
-0.8240612307221105 -0.8481483655822992 -0.6932273346973143
1.2893600593591656 -0.5764749214331857 -0.09547740808969632
0.19685299492543856 0.5053076272892807 -0.9253881651631097
0.2609218077013249 0.5405578789662228 0.2579491184511854
-0.4907278973887772 -0.8481483655822992 -0.6932273346973143
1.622693392692499 -0.5764749214331857 -0.09547740808969632
0.5301863282587719 0.5053076272892807 -0.9253881651631097
0.5942551410346582 0.5405578789662228 0.2579491184511854
-0.15739456405544386 -0.8481483655822992 -0.6932273346973143
1.9560267260258322 -0.5764749214331857 -0.09547740808969632
0.8635196615921052 0.5053076272892807 -0.9253881651631097
-0.07241152563200845 0.8738912122995561 0.2579491184511854
-0.8240612307221105 -0.5148150322489659 -0.6932273346973143
1.2893600593591656 -0.24314158809985242 -0.09547740808969632
0.19685299492543856 0.8386409606226142 -0.9253881651631097
0.2609218077013249 0.8738912122995561 0.2579491184511854
-0.4907278973887772 -0.5148150322489659 -0.6932273346973143
1.622693392692499 -0.24314158809985242 -0.09547740808969632
0.5301863282587719 0.8386409606226142 -0.9253881651631097
0.5942551410346582 0.8738912122995561 0.2579491184511854
-0.15739456405544386 -0.5148150322489659 -0.6932273346973143
1.9560267260258322 -0.24314158809985242 -0.09547740808969632
0.8635196615921052 0.8386409606226142 -0.9253881651631097
-0.07241152563200845 0.20722454563288945 0.5912824517845188
-0.8240612307221105 -1.1814816989156325 -0.3598940013639811
1.2893600593591656 -0.909808254766519 0.237855925243637
0.19685299492543856 0.17197429395594743 -0.5920548318297764
0.2609218077013249 0.20722454563288945 0.5912824517845188
-0.4907278973887772 -1.1814816989156325 -0.3598940013639811
1.622693392692499 -0.909808254766519 0.237855925243637
0.5301863282587719 0.17197429395594743 -0.5920548318297764
0.5942551410346582 0.20722454563288945 0.5912824517845188
-0.15739456405544386 -1.1814816989156325 -0.3598940013639811
1.9560267260258322 -0.909808254766519 0.237855925243637
0.8635196615921052 0.17197429395594743 -0.5920548318297764
-0.07241152563200845 0.5405578789662228 0.5912824517845188
-0.8240612307221105 -0.8481483655822992 -0.3598940013639811
1.2893600593591656 -0.5764749214331857 0.237855925243637
0.19685299492543856 0.5053076272892807 -0.5920548318297764
0.2609218077013249 0.5405578789662228 0.5912824517845188
-0.4907278973887772 -0.8481483655822992 -0.3598940013639811
1.622693392692499 -0.5764749214331857 0.237855925243637
0.5301863282587719 0.5053076272892807 -0.5920548318297764
0.5942551410346582 0.5405578789662228 0.5912824517845188
-0.15739456405544386 -0.8481483655822992 -0.3598940013639811
1.9560267260258322 -0.5764749214331857 0.237855925243637
0.8635196615921052 0.5053076272892807 -0.5920548318297764
-0.07241152563200845 0.8738912122995561 0.5912824517845188
-0.8240612307221105 -0.5148150322489659 -0.3598940013639811
1.2893600593591656 -0.24314158809985242 0.237855925243637
0.19685299492543856 0.8386409606226142 -0.5920548318297764
0.2609218077013249 0.8738912122995561 0.5912824517845188
-0.4907278973887772 -0.5148150322489659 -0.3598940013639811
1.622693392692499 -0.24314158809985242 0.237855925243637
0.5301863282587719 0.8386409606226142 -0.5920548318297764
0.5942551410346582 0.8738912122995561 0.5912824517845188
-0.15739456405544386 -0.5148150322489659 -0.3598940013639811
1.9560267260258322 -0.24314158809985242 0.237855925243637
0.8635196615921052 0.8386409606226142 -0.5920548318297764
-0.07241152563200845 0.20722454563288945 0.924615785117852
-0.8240612307221105 -1.1814816989156325 -0.02656066803064775
1.2893600593591656 -0.909808254766519 0.5711892585769702
0.19685299492543856 0.17197429395594743 -0.25872149849644305
0.2609218077013249 0.20722454563288945 0.924615785117852
-0.4907278973887772 -1.1814816989156325 -0.02656066803064775
1.622693392692499 -0.909808254766519 0.5711892585769702
0.5301863282587719 0.17197429395594743 -0.25872149849644305
0.5942551410346582 0.20722454563288945 0.924615785117852
-0.15739456405544386 -1.1814816989156325 -0.02656066803064775
1.9560267260258322 -0.909808254766519 0.5711892585769702
0.8635196615921052 0.17197429395594743 -0.25872149849644305
-0.07241152563200845 0.5405578789662228 0.924615785117852
-0.8240612307221105 -0.8481483655822992 -0.02656066803064775
1.2893600593591656 -0.5764749214331857 0.5711892585769702
0.19685299492543856 0.5053076272892807 -0.25872149849644305
0.2609218077013249 0.5405578789662228 0.924615785117852
-0.4907278973887772 -0.8481483655822992 -0.02656066803064775
1.622693392692499 -0.5764749214331857 0.5711892585769702
0.5301863282587719 0.5053076272892807 -0.25872149849644305
0.5942551410346582 0.5405578789662228 0.924615785117852
-0.15739456405544386 -0.8481483655822992 -0.02656066803064775
1.9560267260258322 -0.5764749214331857 0.5711892585769702
0.8635196615921052 0.5053076272892807 -0.25872149849644305
-0.07241152563200845 0.8738912122995561 0.924615785117852
-0.8240612307221105 -0.5148150322489659 -0.02656066803064775
1.2893600593591656 -0.24314158809985242 0.5711892585769702
0.19685299492543856 0.8386409606226142 -0.25872149849644305
0.2609218077013249 0.8738912122995561 0.924615785117852
-0.4907278973887772 -0.5148150322489659 -0.02656066803064775
1.622693392692499 -0.24314158809985242 0.5711892585769702
0.5301863282587719 0.8386409606226142 -0.25872149849644305
0.5942551410346582 0.8738912122995561 0.924615785117852
-0.15739456405544386 -0.5148150322489659 -0.02656066803064775
1.9560267260258322 -0.24314158809985242 0.5711892585769702
0.8635196615921052 0.8386409606226142 -0.25872149849644305
-0.8184162794302301 -0.6543193417886988 0.3600872172646981
-0.263418587412563 -0.6121303222000475 0.06294444870936598
0.98677249493834 0.7053146989723977 -0.9495820061231204
0.9659924176346674 0.3987701558019402 -0.04715967515520747
-0.4850829460968967 -0.6543193417886988 0.3600872172646981
0.0699147459207703 -0.6121303222000475 0.06294444870936598
1.3201058282716733 0.7053146989723977 -0.9495820061231204
1.2993257509680007 0.3987701558019402 -0.04715967515520747
-0.1517496127635634 -0.6543193417886988 0.3600872172646981
0.4032480792541036 -0.6121303222000475 0.06294444870936598
1.6534391616050066 0.7053146989723977 -0.9495820061231204
1.6326590843013342 0.3987701558019402 -0.04715967515520747
-0.8184162794302301 -0.3209860084553655 0.3600872172646981
-0.263418587412563 -0.27879698886671417 0.06294444870936598
0.98677249493834 1.038648032305731 -0.9495820061231204
0.9659924176346674 0.7321034891352736 -0.04715967515520747
-0.4850829460968967 -0.3209860084553655 0.3600872172646981
0.0699147459207703 -0.27879698886671417 0.06294444870936598
1.3201058282716733 1.038648032305731 -0.9495820061231204
1.2993257509680007 0.7321034891352736 -0.04715967515520747
-0.1517496127635634 -0.3209860084553655 0.3600872172646981
0.4032480792541036 -0.27879698886671417 0.06294444870936598
1.6534391616050066 1.038648032305731 -0.9495820061231204
1.6326590843013342 0.7321034891352736 -0.04715967515520747
-0.8184162794302301 0.01234732487796782 0.3600872172646981
-0.263418587412563 0.05453634446661915 0.06294444870936598
0.98677249493834 1.3719813656390643 -0.9495820061231204
0.9659924176346674 1.0654368224686068 -0.04715967515520747
-0.4850829460968967 0.01234732487796782 0.3600872172646981
0.0699147459207703 0.05453634446661915 0.06294444870936598
1.3201058282716733 1.3719813656390643 -0.9495820061231204
1.2993257509680007 1.0654368224686068 -0.04715967515520747
-0.1517496127635634 0.01234732487796782 0.3600872172646981
0.4032480792541036 0.05453634446661915 0.06294444870936598
1.6534391616050066 1.3719813656390643 -0.9495820061231204
1.6326590843013342 1.0654368224686068 -0.04715967515520747
-0.8184162794302301 -0.6543193417886988 0.6934205505980314
-0.263418587412563 -0.6121303222000475 0.3962777820426993
0.98677249493834 0.7053146989723977 -0.6162486727897871
0.9659924176346674 0.3987701558019402 0.28617365817812584
-0.4850829460968967 -0.6543193417886988 0.6934205505980314
0.0699147459207703 -0.6121303222000475 0.3962777820426993
1.3201058282716733 0.7053146989723977 -0.6162486727897871
1.2993257509680007 0.3987701558019402 0.28617365817812584
-0.1517496127635634 -0.6543193417886988 0.6934205505980314
0.4032480792541036 -0.6121303222000475 0.3962777820426993
1.6534391616050066 0.7053146989723977 -0.6162486727897871
1.6326590843013342 0.3987701558019402 0.28617365817812584
-0.8184162794302301 -0.3209860084553655 0.6934205505980314
-0.263418587412563 -0.27879698886671417 0.3962777820426993
0.98677249493834 1.038648032305731 -0.6162486727897871
0.9659924176346674 0.7321034891352736 0.28617365817812584
-0.4850829460968967 -0.3209860084553655 0.6934205505980314
0.0699147459207703 -0.27879698886671417 0.3962777820426993
1.3201058282716733 1.038648032305731 -0.6162486727897871
1.2993257509680007 0.7321034891352736 0.28617365817812584
-0.1517496127635634 -0.3209860084553655 0.6934205505980314
0.4032480792541036 -0.27879698886671417 0.3962777820426993
1.6534391616050066 1.038648032305731 -0.6162486727897871
1.6326590843013342 0.7321034891352736 0.28617365817812584
-0.8184162794302301 0.01234732487796782 0.6934205505980314
-0.263418587412563 0.05453634446661915 0.3962777820426993
0.98677249493834 1.3719813656390643 -0.6162486727897871
0.9659924176346674 1.0654368224686068 0.28617365817812584
-0.4850829460968967 0.01234732487796782 0.6934205505980314
0.0699147459207703 0.05453634446661915 0.3962777820426993
1.3201058282716733 1.3719813656390643 -0.6162486727897871
1.2993257509680007 1.0654368224686068 0.28617365817812584
-0.1517496127635634 0.01234732487796782 0.6934205505980314
0.4032480792541036 0.05453634446661915 0.3962777820426993
1.6534391616050066 1.3719813656390643 -0.6162486727897871
1.6326590843013342 1.0654368224686068 0.28617365817812584
-0.8184162794302301 -0.6543193417886988 1.0267538839313648
-0.263418587412563 -0.6121303222000475 0.7296111153760326
0.98677249493834 0.7053146989723977 -0.28291533945645375
0.9659924176346674 0.3987701558019402 0.6195069915114592
-0.4850829460968967 -0.6543193417886988 1.0267538839313648
0.0699147459207703 -0.6121303222000475 0.7296111153760326
1.3201058282716733 0.7053146989723977 -0.28291533945645375
1.2993257509680007 0.3987701558019402 0.6195069915114592
-0.1517496127635634 -0.6543193417886988 1.0267538839313648
0.4032480792541036 -0.6121303222000475 0.7296111153760326
1.6534391616050066 0.7053146989723977 -0.28291533945645375
1.6326590843013342 0.3987701558019402 0.6195069915114592
-0.8184162794302301 -0.3209860084553655 1.0267538839313648
-0.263418587412563 -0.27879698886671417 0.7296111153760326
0.98677249493834 1.038648032305731 -0.28291533945645375
0.9659924176346674 0.7321034891352736 0.6195069915114592
-0.4850829460968967 -0.3209860084553655 1.0267538839313648
0.0699147459207703 -0.27879698886671417 0.7296111153760326
1.3201058282716733 1.038648032305731 -0.28291533945645375
1.2993257509680007 0.7321034891352736 0.6195069915114592
-0.1517496127635634 -0.3209860084553655 1.0267538839313648
0.4032480792541036 -0.27879698886671417 0.7296111153760326
1.6534391616050066 1.038648032305731 -0.28291533945645375
1.6326590843013342 0.7321034891352736 0.6195069915114592
-0.8184162794302301 0.01234732487796782 1.0267538839313648
-0.263418587412563 0.05453634446661915 0.7296111153760326
0.98677249493834 1.3719813656390643 -0.28291533945645375
0.9659924176346674 1.0654368224686068 0.6195069915114592
-0.4850829460968967 0.01234732487796782 1.0267538839313648
0.0699147459207703 0.05453634446661915 0.7296111153760326
1.3201058282716733 1.3719813656390643 -0.28291533945645375
1.2993257509680007 1.0654368224686068 0.6195069915114592
-0.1517496127635634 0.01234732487796782 1.0267538839313648
0.4032480792541036 0.05453634446661915 0.7296111153760326
1.6534391616050066 1.3719813656390643 -0.28291533945645375
1.6326590843013342 1.0654368224686068 0.6195069915114592
