FCC BaO
3.971
5.0 0.0 0.0
0.0 5.0 0.0
0.0 0.0 5.0
Ba O 
500 500 
Direct
0.021833311743845285 -0.02763048472169487 -0.02363445827918476
0.005223737052567463 0.10504843027440561 0.09466168701509876
0.07062069857844332 -0.028586722129686933 0.10356381860615034
0.1110825650630605 0.09049301395547803 -0.019753833278283922
0.22183331174384527 -0.02763048472169487 -0.02363445827918476
0.20522373705256747 0.10504843027440561 0.09466168701509876
0.27062069857844334 -0.028586722129686933 0.10356381860615034
0.3110825650630605 0.09049301395547803 -0.019753833278283922
0.4218333117438453 -0.02763048472169487 -0.02363445827918476
0.40522373705256753 0.10504843027440561 0.09466168701509876
0.47062069857844335 -0.028586722129686933 0.10356381860615034
0.5110825650630605 0.09049301395547803 -0.019753833278283922
0.6218333117438454 -0.02763048472169487 -0.02363445827918476
0.6052237370525675 0.10504843027440561 0.09466168701509876
0.6706206985784434 -0.028586722129686933 0.10356381860615034
0.7110825650630606 0.09049301395547803 -0.019753833278283922
0.8218333117438453 -0.02763048472169487 -0.02363445827918476
0.8052237370525674 0.10504843027440561 0.09466168701509876
0.8706206985784434 -0.028586722129686933 0.10356381860615034
0.9110825650630606 0.09049301395547803 -0.019753833278283922
0.021833311743845285 0.17236951527830513 -0.02363445827918476
0.005223737052567463 0.30504843027440565 0.09466168701509876
0.07062069857844332 0.17141327787031307 0.10356381860615034
0.1110825650630605 0.29049301395547805 -0.019753833278283922
0.22183331174384527 0.17236951527830513 -0.02363445827918476
0.20522373705256747 0.30504843027440565 0.09466168701509876
0.27062069857844334 0.17141327787031307 0.10356381860615034
0.3110825650630605 0.29049301395547805 -0.019753833278283922
0.4218333117438453 0.17236951527830513 -0.02363445827918476
0.40522373705256753 0.30504843027440565 0.09466168701509876
0.47062069857844335 0.17141327787031307 0.10356381860615034
0.5110825650630605 0.29049301395547805 -0.019753833278283922
0.6218333117438454 0.17236951527830513 -0.02363445827918476
0.6052237370525675 0.30504843027440565 0.09466168701509876
0.6706206985784434 0.17141327787031307 0.10356381860615034
0.7110825650630606 0.29049301395547805 -0.019753833278283922
0.8218333117438453 0.17236951527830513 -0.02363445827918476
0.8052237370525674 0.30504843027440565 0.09466168701509876
0.8706206985784434 0.17141327787031307 0.10356381860615034
0.9110825650630606 0.29049301395547805 -0.019753833278283922
0.021833311743845285 0.37236951527830514 -0.02363445827918476
0.005223737052567463 0.5050484302744057 0.09466168701509876
0.07062069857844332 0.3714132778703131 0.10356381860615034
0.1110825650630605 0.49049301395547806 -0.019753833278283922
0.22183331174384527 0.37236951527830514 -0.02363445827918476
0.20522373705256747 0.5050484302744057 0.09466168701509876
0.27062069857844334 0.3714132778703131 0.10356381860615034
0.3110825650630605 0.49049301395547806 -0.019753833278283922
0.4218333117438453 0.37236951527830514 -0.02363445827918476
0.40522373705256753 0.5050484302744057 0.09466168701509876
0.47062069857844335 0.3714132778703131 0.10356381860615034
0.5110825650630605 0.49049301395547806 -0.019753833278283922
0.6218333117438454 0.37236951527830514 -0.02363445827918476
0.6052237370525675 0.5050484302744057 0.09466168701509876
0.6706206985784434 0.3714132778703131 0.10356381860615034
0.7110825650630606 0.49049301395547806 -0.019753833278283922
0.8218333117438453 0.37236951527830514 -0.02363445827918476
0.8052237370525674 0.5050484302744057 0.09466168701509876
0.8706206985784434 0.3714132778703131 0.10356381860615034
0.9110825650630606 0.49049301395547806 -0.019753833278283922
0.021833311743845285 0.5723695152783052 -0.02363445827918476
0.005223737052567463 0.7050484302744057 0.09466168701509876
0.07062069857844332 0.571413277870313 0.10356381860615034
0.1110825650630605 0.6904930139554781 -0.019753833278283922
0.22183331174384527 0.5723695152783052 -0.02363445827918476
0.20522373705256747 0.7050484302744057 0.09466168701509876
0.27062069857844334 0.571413277870313 0.10356381860615034
0.3110825650630605 0.6904930139554781 -0.019753833278283922
0.4218333117438453 0.5723695152783052 -0.02363445827918476
0.40522373705256753 0.7050484302744057 0.09466168701509876
0.47062069857844335 0.571413277870313 0.10356381860615034
0.5110825650630605 0.6904930139554781 -0.019753833278283922
0.6218333117438454 0.5723695152783052 -0.02363445827918476
0.6052237370525675 0.7050484302744057 0.09466168701509876
0.6706206985784434 0.571413277870313 0.10356381860615034
0.7110825650630606 0.6904930139554781 -0.019753833278283922
0.8218333117438453 0.5723695152783052 -0.02363445827918476
0.8052237370525674 0.7050484302744057 0.09466168701509876
0.8706206985784434 0.571413277870313 0.10356381860615034
0.9110825650630606 0.6904930139554781 -0.019753833278283922
0.021833311743845285 0.7723695152783052 -0.02363445827918476
0.005223737052567463 0.9050484302744057 0.09466168701509876
0.07062069857844332 0.7714132778703131 0.10356381860615034
0.1110825650630605 0.8904930139554781 -0.019753833278283922
0.22183331174384527 0.7723695152783052 -0.02363445827918476
0.20522373705256747 0.9050484302744057 0.09466168701509876
0.27062069857844334 0.7714132778703131 0.10356381860615034
0.3110825650630605 0.8904930139554781 -0.019753833278283922
0.4218333117438453 0.7723695152783052 -0.02363445827918476
0.40522373705256753 0.9050484302744057 0.09466168701509876
0.47062069857844335 0.7714132778703131 0.10356381860615034
0.5110825650630605 0.8904930139554781 -0.019753833278283922
0.6218333117438454 0.7723695152783052 -0.02363445827918476
0.6052237370525675 0.9050484302744057 0.09466168701509876
0.6706206985784434 0.7714132778703131 0.10356381860615034
0.7110825650630606 0.8904930139554781 -0.019753833278283922
0.8218333117438453 0.7723695152783052 -0.02363445827918476
0.8052237370525674 0.9050484302744057 0.09466168701509876
0.8706206985784434 0.7714132778703131 0.10356381860615034
0.9110825650630606 0.8904930139554781 -0.019753833278283922
0.021833311743845285 -0.02763048472169487 0.17636554172081526
0.005223737052567463 0.10504843027440561 0.29466168701509876
0.07062069857844332 -0.028586722129686933 0.3035638186061504
0.1110825650630605 0.09049301395547803 0.1802461667217161
0.22183331174384527 -0.02763048472169487 0.17636554172081526
0.20522373705256747 0.10504843027440561 0.29466168701509876
0.27062069857844334 -0.028586722129686933 0.3035638186061504
0.3110825650630605 0.09049301395547803 0.1802461667217161
0.4218333117438453 -0.02763048472169487 0.17636554172081526
0.40522373705256753 0.10504843027440561 0.29466168701509876
0.47062069857844335 -0.028586722129686933 0.3035638186061504
0.5110825650630605 0.09049301395547803 0.1802461667217161
0.6218333117438454 -0.02763048472169487 0.17636554172081526
0.6052237370525675 0.10504843027440561 0.29466168701509876
0.6706206985784434 -0.028586722129686933 0.3035638186061504
0.7110825650630606 0.09049301395547803 0.1802461667217161
0.8218333117438453 -0.02763048472169487 0.17636554172081526
0.8052237370525674 0.10504843027440561 0.29466168701509876
0.8706206985784434 -0.028586722129686933 0.3035638186061504
0.9110825650630606 0.09049301395547803 0.1802461667217161
0.021833311743845285 0.17236951527830513 0.17636554172081526
0.005223737052567463 0.30504843027440565 0.29466168701509876
0.07062069857844332 0.17141327787031307 0.3035638186061504
0.1110825650630605 0.29049301395547805 0.1802461667217161
0.22183331174384527 0.17236951527830513 0.17636554172081526
0.20522373705256747 0.30504843027440565 0.29466168701509876
0.27062069857844334 0.17141327787031307 0.3035638186061504
0.3110825650630605 0.29049301395547805 0.1802461667217161
0.4218333117438453 0.17236951527830513 0.17636554172081526
0.40522373705256753 0.30504843027440565 0.29466168701509876
0.47062069857844335 0.17141327787031307 0.3035638186061504
0.5110825650630605 0.29049301395547805 0.1802461667217161
0.6218333117438454 0.17236951527830513 0.17636554172081526
0.6052237370525675 0.30504843027440565 0.29466168701509876
0.6706206985784434 0.17141327787031307 0.3035638186061504
0.7110825650630606 0.29049301395547805 0.1802461667217161
0.8218333117438453 0.17236951527830513 0.17636554172081526
0.8052237370525674 0.30504843027440565 0.29466168701509876
0.8706206985784434 0.17141327787031307 0.3035638186061504
0.9110825650630606 0.29049301395547805 0.1802461667217161
0.021833311743845285 0.37236951527830514 0.17636554172081526
0.005223737052567463 0.5050484302744057 0.29466168701509876
0.07062069857844332 0.3714132778703131 0.3035638186061504
0.1110825650630605 0.49049301395547806 0.1802461667217161
0.22183331174384527 0.37236951527830514 0.17636554172081526
0.20522373705256747 0.5050484302744057 0.29466168701509876
0.27062069857844334 0.3714132778703131 0.3035638186061504
0.3110825650630605 0.49049301395547806 0.1802461667217161
0.4218333117438453 0.37236951527830514 0.17636554172081526
0.40522373705256753 0.5050484302744057 0.29466168701509876
0.47062069857844335 0.3714132778703131 0.3035638186061504
0.5110825650630605 0.49049301395547806 0.1802461667217161
0.6218333117438454 0.37236951527830514 0.17636554172081526
0.6052237370525675 0.5050484302744057 0.29466168701509876
0.6706206985784434 0.3714132778703131 0.3035638186061504
0.7110825650630606 0.49049301395547806 0.1802461667217161
0.8218333117438453 0.37236951527830514 0.17636554172081526
0.8052237370525674 0.5050484302744057 0.29466168701509876
0.8706206985784434 0.3714132778703131 0.3035638186061504
0.9110825650630606 0.49049301395547806 0.1802461667217161
0.021833311743845285 0.5723695152783052 0.17636554172081526
0.005223737052567463 0.7050484302744057 0.29466168701509876
0.07062069857844332 0.571413277870313 0.3035638186061504
0.1110825650630605 0.6904930139554781 0.1802461667217161
0.22183331174384527 0.5723695152783052 0.17636554172081526
0.20522373705256747 0.7050484302744057 0.29466168701509876
0.27062069857844334 0.571413277870313 0.3035638186061504
0.3110825650630605 0.6904930139554781 0.1802461667217161
0.4218333117438453 0.5723695152783052 0.17636554172081526
0.40522373705256753 0.7050484302744057 0.29466168701509876
0.47062069857844335 0.571413277870313 0.3035638186061504
0.5110825650630605 0.6904930139554781 0.1802461667217161
0.6218333117438454 0.5723695152783052 0.17636554172081526
0.6052237370525675 0.7050484302744057 0.29466168701509876
0.6706206985784434 0.571413277870313 0.3035638186061504
0.7110825650630606 0.6904930139554781 0.1802461667217161
0.8218333117438453 0.5723695152783052 0.17636554172081526
0.8052237370525674 0.7050484302744057 0.29466168701509876
0.8706206985784434 0.571413277870313 0.3035638186061504
0.9110825650630606 0.6904930139554781 0.1802461667217161
0.021833311743845285 0.7723695152783052 0.17636554172081526
0.005223737052567463 0.9050484302744057 0.29466168701509876
0.07062069857844332 0.7714132778703131 0.3035638186061504
0.1110825650630605 0.8904930139554781 0.1802461667217161
0.22183331174384527 0.7723695152783052 0.17636554172081526
0.20522373705256747 0.9050484302744057 0.29466168701509876
0.27062069857844334 0.7714132778703131 0.3035638186061504
0.3110825650630605 0.8904930139554781 0.1802461667217161
0.4218333117438453 0.7723695152783052 0.17636554172081526
0.40522373705256753 0.9050484302744057 0.29466168701509876
0.47062069857844335 0.7714132778703131 0.3035638186061504
0.5110825650630605 0.8904930139554781 0.1802461667217161
0.6218333117438454 0.7723695152783052 0.17636554172081526
0.6052237370525675 0.9050484302744057 0.29466168701509876
0.6706206985784434 0.7714132778703131 0.3035638186061504
0.7110825650630606 0.8904930139554781 0.1802461667217161
0.8218333117438453 0.7723695152783052 0.17636554172081526
0.8052237370525674 0.9050484302744057 0.29466168701509876
0.8706206985784434 0.7714132778703131 0.3035638186061504
0.9110825650630606 0.8904930139554781 0.1802461667217161
0.021833311743845285 -0.02763048472169487 0.37636554172081527
0.005223737052567463 0.10504843027440561 0.49466168701509877
0.07062069857844332 -0.028586722129686933 0.5035638186061504
0.1110825650630605 0.09049301395547803 0.3802461667217161
0.22183331174384527 -0.02763048472169487 0.37636554172081527
0.20522373705256747 0.10504843027440561 0.49466168701509877
0.27062069857844334 -0.028586722129686933 0.5035638186061504
0.3110825650630605 0.09049301395547803 0.3802461667217161
0.4218333117438453 -0.02763048472169487 0.37636554172081527
0.40522373705256753 0.10504843027440561 0.49466168701509877
0.47062069857844335 -0.028586722129686933 0.5035638186061504
0.5110825650630605 0.09049301395547803 0.3802461667217161
0.6218333117438454 -0.02763048472169487 0.37636554172081527
0.6052237370525675 0.10504843027440561 0.49466168701509877
0.6706206985784434 -0.028586722129686933 0.5035638186061504
0.7110825650630606 0.09049301395547803 0.3802461667217161
0.8218333117438453 -0.02763048472169487 0.37636554172081527
0.8052237370525674 0.10504843027440561 0.49466168701509877
0.8706206985784434 -0.028586722129686933 0.5035638186061504
0.9110825650630606 0.09049301395547803 0.3802461667217161
0.021833311743845285 0.17236951527830513 0.37636554172081527
0.005223737052567463 0.30504843027440565 0.49466168701509877
0.07062069857844332 0.17141327787031307 0.5035638186061504
0.1110825650630605 0.29049301395547805 0.3802461667217161
0.22183331174384527 0.17236951527830513 0.37636554172081527
0.20522373705256747 0.30504843027440565 0.49466168701509877
0.27062069857844334 0.17141327787031307 0.5035638186061504
0.3110825650630605 0.29049301395547805 0.3802461667217161
0.4218333117438453 0.17236951527830513 0.37636554172081527
0.40522373705256753 0.30504843027440565 0.49466168701509877
0.47062069857844335 0.17141327787031307 0.5035638186061504
0.5110825650630605 0.29049301395547805 0.3802461667217161
0.6218333117438454 0.17236951527830513 0.37636554172081527
0.6052237370525675 0.30504843027440565 0.49466168701509877
0.6706206985784434 0.17141327787031307 0.5035638186061504
0.7110825650630606 0.29049301395547805 0.3802461667217161
0.8218333117438453 0.17236951527830513 0.37636554172081527
0.8052237370525674 0.30504843027440565 0.49466168701509877
0.8706206985784434 0.17141327787031307 0.5035638186061504
0.9110825650630606 0.29049301395547805 0.3802461667217161
0.021833311743845285 0.37236951527830514 0.37636554172081527
0.005223737052567463 0.5050484302744057 0.49466168701509877
0.07062069857844332 0.3714132778703131 0.5035638186061504
0.1110825650630605 0.49049301395547806 0.3802461667217161
0.22183331174384527 0.37236951527830514 0.37636554172081527
0.20522373705256747 0.5050484302744057 0.49466168701509877
0.27062069857844334 0.3714132778703131 0.5035638186061504
0.3110825650630605 0.49049301395547806 0.3802461667217161
0.4218333117438453 0.37236951527830514 0.37636554172081527
0.40522373705256753 0.5050484302744057 0.49466168701509877
0.47062069857844335 0.3714132778703131 0.5035638186061504
0.5110825650630605 0.49049301395547806 0.3802461667217161
0.6218333117438454 0.37236951527830514 0.37636554172081527
0.6052237370525675 0.5050484302744057 0.49466168701509877
0.6706206985784434 0.3714132778703131 0.5035638186061504
0.7110825650630606 0.49049301395547806 0.3802461667217161
0.8218333117438453 0.37236951527830514 0.37636554172081527
0.8052237370525674 0.5050484302744057 0.49466168701509877
0.8706206985784434 0.3714132778703131 0.5035638186061504
0.9110825650630606 0.49049301395547806 0.3802461667217161
0.021833311743845285 0.5723695152783052 0.37636554172081527
0.005223737052567463 0.7050484302744057 0.49466168701509877
0.07062069857844332 0.571413277870313 0.5035638186061504
0.1110825650630605 0.6904930139554781 0.3802461667217161
0.22183331174384527 0.5723695152783052 0.37636554172081527
0.20522373705256747 0.7050484302744057 0.49466168701509877
0.27062069857844334 0.571413277870313 0.5035638186061504
0.3110825650630605 0.6904930139554781 0.3802461667217161
0.4218333117438453 0.5723695152783052 0.37636554172081527
0.40522373705256753 0.7050484302744057 0.49466168701509877
0.47062069857844335 0.571413277870313 0.5035638186061504
0.5110825650630605 0.6904930139554781 0.3802461667217161
0.6218333117438454 0.5723695152783052 0.37636554172081527
0.6052237370525675 0.7050484302744057 0.49466168701509877
0.6706206985784434 0.571413277870313 0.5035638186061504
0.7110825650630606 0.6904930139554781 0.3802461667217161
0.8218333117438453 0.5723695152783052 0.37636554172081527
0.8052237370525674 0.7050484302744057 0.49466168701509877
0.8706206985784434 0.571413277870313 0.5035638186061504
0.9110825650630606 0.6904930139554781 0.3802461667217161
0.021833311743845285 0.7723695152783052 0.37636554172081527
0.005223737052567463 0.9050484302744057 0.49466168701509877
0.07062069857844332 0.7714132778703131 0.5035638186061504
0.1110825650630605 0.8904930139554781 0.3802461667217161
0.22183331174384527 0.7723695152783052 0.37636554172081527
0.20522373705256747 0.9050484302744057 0.49466168701509877
0.27062069857844334 0.7714132778703131 0.5035638186061504
0.3110825650630605 0.8904930139554781 0.3802461667217161
0.4218333117438453 0.7723695152783052 0.37636554172081527
0.40522373705256753 0.9050484302744057 0.49466168701509877
0.47062069857844335 0.7714132778703131 0.5035638186061504
0.5110825650630605 0.8904930139554781 0.3802461667217161
0.6218333117438454 0.7723695152783052 0.37636554172081527
0.6052237370525675 0.9050484302744057 0.49466168701509877
0.6706206985784434 0.7714132778703131 0.5035638186061504
0.7110825650630606 0.8904930139554781 0.3802461667217161
0.8218333117438453 0.7723695152783052 0.37636554172081527
0.8052237370525674 0.9050484302744057 0.49466168701509877
0.8706206985784434 0.7714132778703131 0.5035638186061504
0.9110825650630606 0.8904930139554781 0.3802461667217161
0.021833311743845285 -0.02763048472169487 0.5763655417208152
0.005223737052567463 0.10504843027440561 0.6946616870150988
0.07062069857844332 -0.028586722129686933 0.7035638186061504
0.1110825650630605 0.09049301395547803 0.5802461667217161
0.22183331174384527 -0.02763048472169487 0.5763655417208152
0.20522373705256747 0.10504843027440561 0.6946616870150988
0.27062069857844334 -0.028586722129686933 0.7035638186061504
0.3110825650630605 0.09049301395547803 0.5802461667217161
0.4218333117438453 -0.02763048472169487 0.5763655417208152
0.40522373705256753 0.10504843027440561 0.6946616870150988
0.47062069857844335 -0.028586722129686933 0.7035638186061504
0.5110825650630605 0.09049301395547803 0.5802461667217161
0.6218333117438454 -0.02763048472169487 0.5763655417208152
0.6052237370525675 0.10504843027440561 0.6946616870150988
0.6706206985784434 -0.028586722129686933 0.7035638186061504
0.7110825650630606 0.09049301395547803 0.5802461667217161
0.8218333117438453 -0.02763048472169487 0.5763655417208152
0.8052237370525674 0.10504843027440561 0.6946616870150988
0.8706206985784434 -0.028586722129686933 0.7035638186061504
0.9110825650630606 0.09049301395547803 0.5802461667217161
0.021833311743845285 0.17236951527830513 0.5763655417208152
0.005223737052567463 0.30504843027440565 0.6946616870150988
0.07062069857844332 0.17141327787031307 0.7035638186061504
0.1110825650630605 0.29049301395547805 0.5802461667217161
0.22183331174384527 0.17236951527830513 0.5763655417208152
0.20522373705256747 0.30504843027440565 0.6946616870150988
0.27062069857844334 0.17141327787031307 0.7035638186061504
0.3110825650630605 0.29049301395547805 0.5802461667217161
0.4218333117438453 0.17236951527830513 0.5763655417208152
0.40522373705256753 0.30504843027440565 0.6946616870150988
0.47062069857844335 0.17141327787031307 0.7035638186061504
0.5110825650630605 0.29049301395547805 0.5802461667217161
0.6218333117438454 0.17236951527830513 0.5763655417208152
0.6052237370525675 0.30504843027440565 0.6946616870150988
0.6706206985784434 0.17141327787031307 0.7035638186061504
0.7110825650630606 0.29049301395547805 0.5802461667217161
0.8218333117438453 0.17236951527830513 0.5763655417208152
0.8052237370525674 0.30504843027440565 0.6946616870150988
0.8706206985784434 0.17141327787031307 0.7035638186061504
0.9110825650630606 0.29049301395547805 0.5802461667217161
0.021833311743845285 0.37236951527830514 0.5763655417208152
0.005223737052567463 0.5050484302744057 0.6946616870150988
0.07062069857844332 0.3714132778703131 0.7035638186061504
0.1110825650630605 0.49049301395547806 0.5802461667217161
0.22183331174384527 0.37236951527830514 0.5763655417208152
0.20522373705256747 0.5050484302744057 0.6946616870150988
0.27062069857844334 0.3714132778703131 0.7035638186061504
0.3110825650630605 0.49049301395547806 0.5802461667217161
0.4218333117438453 0.37236951527830514 0.5763655417208152
0.40522373705256753 0.5050484302744057 0.6946616870150988
0.47062069857844335 0.3714132778703131 0.7035638186061504
0.5110825650630605 0.49049301395547806 0.5802461667217161
0.6218333117438454 0.37236951527830514 0.5763655417208152
0.6052237370525675 0.5050484302744057 0.6946616870150988
0.6706206985784434 0.3714132778703131 0.7035638186061504
0.7110825650630606 0.49049301395547806 0.5802461667217161
0.8218333117438453 0.37236951527830514 0.5763655417208152
0.8052237370525674 0.5050484302744057 0.6946616870150988
0.8706206985784434 0.3714132778703131 0.7035638186061504
0.9110825650630606 0.49049301395547806 0.5802461667217161
0.021833311743845285 0.5723695152783052 0.5763655417208152
0.005223737052567463 0.7050484302744057 0.6946616870150988
0.07062069857844332 0.571413277870313 0.7035638186061504
0.1110825650630605 0.6904930139554781 0.5802461667217161
0.22183331174384527 0.5723695152783052 0.5763655417208152
0.20522373705256747 0.7050484302744057 0.6946616870150988
0.27062069857844334 0.571413277870313 0.7035638186061504
0.3110825650630605 0.6904930139554781 0.5802461667217161
0.4218333117438453 0.5723695152783052 0.5763655417208152
0.40522373705256753 0.7050484302744057 0.6946616870150988
0.47062069857844335 0.571413277870313 0.7035638186061504
0.5110825650630605 0.6904930139554781 0.5802461667217161
0.6218333117438454 0.5723695152783052 0.5763655417208152
0.6052237370525675 0.7050484302744057 0.6946616870150988
0.6706206985784434 0.571413277870313 0.7035638186061504
0.7110825650630606 0.6904930139554781 0.5802461667217161
0.8218333117438453 0.5723695152783052 0.5763655417208152
0.8052237370525674 0.7050484302744057 0.6946616870150988
0.8706206985784434 0.571413277870313 0.7035638186061504
0.9110825650630606 0.6904930139554781 0.5802461667217161
0.021833311743845285 0.7723695152783052 0.5763655417208152
0.005223737052567463 0.9050484302744057 0.6946616870150988
0.07062069857844332 0.7714132778703131 0.7035638186061504
0.1110825650630605 0.8904930139554781 0.5802461667217161
0.22183331174384527 0.7723695152783052 0.5763655417208152
0.20522373705256747 0.9050484302744057 0.6946616870150988
0.27062069857844334 0.7714132778703131 0.7035638186061504
0.3110825650630605 0.8904930139554781 0.5802461667217161
0.4218333117438453 0.7723695152783052 0.5763655417208152
0.40522373705256753 0.9050484302744057 0.6946616870150988
0.47062069857844335 0.7714132778703131 0.7035638186061504
0.5110825650630605 0.8904930139554781 0.5802461667217161
0.6218333117438454 0.7723695152783052 0.5763655417208152
0.6052237370525675 0.9050484302744057 0.6946616870150988
0.6706206985784434 0.7714132778703131 0.7035638186061504
0.7110825650630606 0.8904930139554781 0.5802461667217161
0.8218333117438453 0.7723695152783052 0.5763655417208152
0.8052237370525674 0.9050484302744057 0.6946616870150988
0.8706206985784434 0.7714132778703131 0.7035638186061504
0.9110825650630606 0.8904930139554781 0.5802461667217161
0.021833311743845285 -0.02763048472169487 0.7763655417208153
0.005223737052567463 0.10504843027440561 0.8946616870150988
0.07062069857844332 -0.028586722129686933 0.9035638186061503
0.1110825650630605 0.09049301395547803 0.7802461667217161
0.22183331174384527 -0.02763048472169487 0.7763655417208153
0.20522373705256747 0.10504843027440561 0.8946616870150988
0.27062069857844334 -0.028586722129686933 0.9035638186061503
0.3110825650630605 0.09049301395547803 0.7802461667217161
0.4218333117438453 -0.02763048472169487 0.7763655417208153
0.40522373705256753 0.10504843027440561 0.8946616870150988
0.47062069857844335 -0.028586722129686933 0.9035638186061503
0.5110825650630605 0.09049301395547803 0.7802461667217161
0.6218333117438454 -0.02763048472169487 0.7763655417208153
0.6052237370525675 0.10504843027440561 0.8946616870150988
0.6706206985784434 -0.028586722129686933 0.9035638186061503
0.7110825650630606 0.09049301395547803 0.7802461667217161
0.8218333117438453 -0.02763048472169487 0.7763655417208153
0.8052237370525674 0.10504843027440561 0.8946616870150988
0.8706206985784434 -0.028586722129686933 0.9035638186061503
0.9110825650630606 0.09049301395547803 0.7802461667217161
0.021833311743845285 0.17236951527830513 0.7763655417208153
0.005223737052567463 0.30504843027440565 0.8946616870150988
0.07062069857844332 0.17141327787031307 0.9035638186061503
0.1110825650630605 0.29049301395547805 0.7802461667217161
0.22183331174384527 0.17236951527830513 0.7763655417208153
0.20522373705256747 0.30504843027440565 0.8946616870150988
0.27062069857844334 0.17141327787031307 0.9035638186061503
0.3110825650630605 0.29049301395547805 0.7802461667217161
0.4218333117438453 0.17236951527830513 0.7763655417208153
0.40522373705256753 0.30504843027440565 0.8946616870150988
0.47062069857844335 0.17141327787031307 0.9035638186061503
0.5110825650630605 0.29049301395547805 0.7802461667217161
0.6218333117438454 0.17236951527830513 0.7763655417208153
0.6052237370525675 0.30504843027440565 0.8946616870150988
0.6706206985784434 0.17141327787031307 0.9035638186061503
0.7110825650630606 0.29049301395547805 0.7802461667217161
0.8218333117438453 0.17236951527830513 0.7763655417208153
0.8052237370525674 0.30504843027440565 0.8946616870150988
0.8706206985784434 0.17141327787031307 0.9035638186061503
0.9110825650630606 0.29049301395547805 0.7802461667217161
0.021833311743845285 0.37236951527830514 0.7763655417208153
0.005223737052567463 0.5050484302744057 0.8946616870150988
0.07062069857844332 0.3714132778703131 0.9035638186061503
0.1110825650630605 0.49049301395547806 0.7802461667217161
0.22183331174384527 0.37236951527830514 0.7763655417208153
0.20522373705256747 0.5050484302744057 0.8946616870150988
0.27062069857844334 0.3714132778703131 0.9035638186061503
0.3110825650630605 0.49049301395547806 0.7802461667217161
0.4218333117438453 0.37236951527830514 0.7763655417208153
0.40522373705256753 0.5050484302744057 0.8946616870150988
0.47062069857844335 0.3714132778703131 0.9035638186061503
0.5110825650630605 0.49049301395547806 0.7802461667217161
0.6218333117438454 0.37236951527830514 0.7763655417208153
0.6052237370525675 0.5050484302744057 0.8946616870150988
0.6706206985784434 0.3714132778703131 0.9035638186061503
0.7110825650630606 0.49049301395547806 0.7802461667217161
0.8218333117438453 0.37236951527830514 0.7763655417208153
0.8052237370525674 0.5050484302744057 0.8946616870150988
0.8706206985784434 0.3714132778703131 0.9035638186061503
0.9110825650630606 0.49049301395547806 0.7802461667217161
0.021833311743845285 0.5723695152783052 0.7763655417208153
0.005223737052567463 0.7050484302744057 0.8946616870150988
0.07062069857844332 0.571413277870313 0.9035638186061503
0.1110825650630605 0.6904930139554781 0.7802461667217161
0.22183331174384527 0.5723695152783052 0.7763655417208153
0.20522373705256747 0.7050484302744057 0.8946616870150988
0.27062069857844334 0.571413277870313 0.9035638186061503
0.3110825650630605 0.6904930139554781 0.7802461667217161
0.4218333117438453 0.5723695152783052 0.7763655417208153
0.40522373705256753 0.7050484302744057 0.8946616870150988
0.47062069857844335 0.571413277870313 0.9035638186061503
0.5110825650630605 0.6904930139554781 0.7802461667217161
0.6218333117438454 0.5723695152783052 0.7763655417208153
0.6052237370525675 0.7050484302744057 0.8946616870150988
0.6706206985784434 0.571413277870313 0.9035638186061503
0.7110825650630606 0.6904930139554781 0.7802461667217161
0.8218333117438453 0.5723695152783052 0.7763655417208153
0.8052237370525674 0.7050484302744057 0.8946616870150988
0.8706206985784434 0.571413277870313 0.9035638186061503
0.9110825650630606 0.6904930139554781 0.7802461667217161
0.021833311743845285 0.7723695152783052 0.7763655417208153
0.005223737052567463 0.9050484302744057 0.8946616870150988
0.07062069857844332 0.7714132778703131 0.9035638186061503
0.1110825650630605 0.8904930139554781 0.7802461667217161
0.22183331174384527 0.7723695152783052 0.7763655417208153
0.20522373705256747 0.9050484302744057 0.8946616870150988
0.27062069857844334 0.7714132778703131 0.9035638186061503
0.3110825650630605 0.8904930139554781 0.7802461667217161
0.4218333117438453 0.7723695152783052 0.7763655417208153
0.40522373705256753 0.9050484302744057 0.8946616870150988
0.47062069857844335 0.7714132778703131 0.9035638186061503
0.5110825650630605 0.8904930139554781 0.7802461667217161
0.6218333117438454 0.7723695152783052 0.7763655417208153
0.6052237370525675 0.9050484302744057 0.8946616870150988
0.6706206985784434 0.7714132778703131 0.9035638186061503
0.7110825650630606 0.8904930139554781 0.7802461667217161
0.8218333117438453 0.7723695152783052 0.7763655417208153
0.8052237370525674 0.9050484302744057 0.8946616870150988
0.8706206985784434 0.7714132778703131 0.9035638186061503
0.9110825650630606 0.8904930139554781 0.7802461667217161
0.1234614365180402 0.0033361809308373944 0.012486781446262925
-0.008778174563842394 0.09327670787773353 0.006817080953265737
0.026669953844879024 0.020143589709609295 0.07097170062871302
0.12484577106113592 0.10016446462280848 0.07229473298753414
0.3234614365180402 0.0033361809308373944 0.012486781446262925
0.19122182543615762 0.09327670787773353 0.006817080953265737
0.22666995384487906 0.020143589709609295 0.07097170062871302
0.32484577106113594 0.10016446462280848 0.07229473298753414
0.5234614365180402 0.0033361809308373944 0.012486781446262925
0.39122182543615763 0.09327670787773353 0.006817080953265737
0.42666995384487905 0.020143589709609295 0.07097170062871302
0.524845771061136 0.10016446462280848 0.07229473298753414
0.7234614365180403 0.0033361809308373944 0.012486781446262925
0.5912218254361576 0.09327670787773353 0.006817080953265737
0.6266699538448791 0.020143589709609295 0.07097170062871302
0.724845771061136 0.10016446462280848 0.07229473298753414
0.9234614365180402 0.0033361809308373944 0.012486781446262925
0.7912218254361577 0.09327670787773353 0.006817080953265737
0.8266699538448791 0.020143589709609295 0.07097170062871302
0.9248457710611359 0.10016446462280848 0.07229473298753414
0.1234614365180402 0.20333618093083738 0.012486781446262925
-0.008778174563842394 0.2932767078777335 0.006817080953265737
0.026669953844879024 0.22014358970960932 0.07097170062871302
0.12484577106113592 0.30016446462280855 0.07229473298753414
0.3234614365180402 0.20333618093083738 0.012486781446262925
0.19122182543615762 0.2932767078777335 0.006817080953265737
0.22666995384487906 0.22014358970960932 0.07097170062871302
0.32484577106113594 0.30016446462280855 0.07229473298753414
0.5234614365180402 0.20333618093083738 0.012486781446262925
0.39122182543615763 0.2932767078777335 0.006817080953265737
0.42666995384487905 0.22014358970960932 0.07097170062871302
0.524845771061136 0.30016446462280855 0.07229473298753414
0.7234614365180403 0.20333618093083738 0.012486781446262925
0.5912218254361576 0.2932767078777335 0.006817080953265737
0.6266699538448791 0.22014358970960932 0.07097170062871302
0.724845771061136 0.30016446462280855 0.07229473298753414
0.9234614365180402 0.20333618093083738 0.012486781446262925
0.7912218254361577 0.2932767078777335 0.006817080953265737
0.8266699538448791 0.22014358970960932 0.07097170062871302
0.9248457710611359 0.30016446462280855 0.07229473298753414
0.1234614365180402 0.40333618093083745 0.012486781446262925
-0.008778174563842394 0.49327670787773353 0.006817080953265737
0.026669953844879024 0.4201435897096093 0.07097170062871302
0.12484577106113592 0.5001644646228085 0.07229473298753414
0.3234614365180402 0.40333618093083745 0.012486781446262925
0.19122182543615762 0.49327670787773353 0.006817080953265737
0.22666995384487906 0.4201435897096093 0.07097170062871302
0.32484577106113594 0.5001644646228085 0.07229473298753414
0.5234614365180402 0.40333618093083745 0.012486781446262925
0.39122182543615763 0.49327670787773353 0.006817080953265737
0.42666995384487905 0.4201435897096093 0.07097170062871302
0.524845771061136 0.5001644646228085 0.07229473298753414
0.7234614365180403 0.40333618093083745 0.012486781446262925
0.5912218254361576 0.49327670787773353 0.006817080953265737
0.6266699538448791 0.4201435897096093 0.07097170062871302
0.724845771061136 0.5001644646228085 0.07229473298753414
0.9234614365180402 0.40333618093083745 0.012486781446262925
0.7912218254361577 0.49327670787773353 0.006817080953265737
0.8266699538448791 0.4201435897096093 0.07097170062871302
0.9248457710611359 0.5001644646228085 0.07229473298753414
0.1234614365180402 0.6033361809308375 0.012486781446262925
-0.008778174563842394 0.6932767078777335 0.006817080953265737
0.026669953844879024 0.6201435897096093 0.07097170062871302
0.12484577106113592 0.7001644646228086 0.07229473298753414
0.3234614365180402 0.6033361809308375 0.012486781446262925
0.19122182543615762 0.6932767078777335 0.006817080953265737
0.22666995384487906 0.6201435897096093 0.07097170062871302
0.32484577106113594 0.7001644646228086 0.07229473298753414
0.5234614365180402 0.6033361809308375 0.012486781446262925
0.39122182543615763 0.6932767078777335 0.006817080953265737
0.42666995384487905 0.6201435897096093 0.07097170062871302
0.524845771061136 0.7001644646228086 0.07229473298753414
0.7234614365180403 0.6033361809308375 0.012486781446262925
0.5912218254361576 0.6932767078777335 0.006817080953265737
0.6266699538448791 0.6201435897096093 0.07097170062871302
0.724845771061136 0.7001644646228086 0.07229473298753414
0.9234614365180402 0.6033361809308375 0.012486781446262925
0.7912218254361577 0.6932767078777335 0.006817080953265737
0.8266699538448791 0.6201435897096093 0.07097170062871302
0.9248457710611359 0.7001644646228086 0.07229473298753414
0.1234614365180402 0.8033361809308375 0.012486781446262925
-0.008778174563842394 0.8932767078777335 0.006817080953265737
0.026669953844879024 0.8201435897096094 0.07097170062871302
0.12484577106113592 0.9001644646228085 0.07229473298753414
0.3234614365180402 0.8033361809308375 0.012486781446262925
0.19122182543615762 0.8932767078777335 0.006817080953265737
0.22666995384487906 0.8201435897096094 0.07097170062871302
0.32484577106113594 0.9001644646228085 0.07229473298753414
0.5234614365180402 0.8033361809308375 0.012486781446262925
0.39122182543615763 0.8932767078777335 0.006817080953265737
0.42666995384487905 0.8201435897096094 0.07097170062871302
0.524845771061136 0.9001644646228085 0.07229473298753414
0.7234614365180403 0.8033361809308375 0.012486781446262925
0.5912218254361576 0.8932767078777335 0.006817080953265737
0.6266699538448791 0.8201435897096094 0.07097170062871302
0.724845771061136 0.9001644646228085 0.07229473298753414
0.9234614365180402 0.8033361809308375 0.012486781446262925
0.7912218254361577 0.8932767078777335 0.006817080953265737
0.8266699538448791 0.8201435897096094 0.07097170062871302
0.9248457710611359 0.9001644646228085 0.07229473298753414
0.1234614365180402 0.0033361809308373944 0.21248678144626296
-0.008778174563842394 0.09327670787773353 0.20681708095326573
0.026669953844879024 0.020143589709609295 0.27097170062871306
0.12484577106113592 0.10016446462280848 0.27229473298753415
0.3234614365180402 0.0033361809308373944 0.21248678144626296
0.19122182543615762 0.09327670787773353 0.20681708095326573
0.22666995384487906 0.020143589709609295 0.27097170062871306
0.32484577106113594 0.10016446462280848 0.27229473298753415
0.5234614365180402 0.0033361809308373944 0.21248678144626296
0.39122182543615763 0.09327670787773353 0.20681708095326573
0.42666995384487905 0.020143589709609295 0.27097170062871306
0.524845771061136 0.10016446462280848 0.27229473298753415
0.7234614365180403 0.0033361809308373944 0.21248678144626296
0.5912218254361576 0.09327670787773353 0.20681708095326573
0.6266699538448791 0.020143589709609295 0.27097170062871306
0.724845771061136 0.10016446462280848 0.27229473298753415
0.9234614365180402 0.0033361809308373944 0.21248678144626296
0.7912218254361577 0.09327670787773353 0.20681708095326573
0.8266699538448791 0.020143589709609295 0.27097170062871306
0.9248457710611359 0.10016446462280848 0.27229473298753415
0.1234614365180402 0.20333618093083738 0.21248678144626296
-0.008778174563842394 0.2932767078777335 0.20681708095326573
0.026669953844879024 0.22014358970960932 0.27097170062871306
0.12484577106113592 0.30016446462280855 0.27229473298753415
0.3234614365180402 0.20333618093083738 0.21248678144626296
0.19122182543615762 0.2932767078777335 0.20681708095326573
0.22666995384487906 0.22014358970960932 0.27097170062871306
0.32484577106113594 0.30016446462280855 0.27229473298753415
0.5234614365180402 0.20333618093083738 0.21248678144626296
0.39122182543615763 0.2932767078777335 0.20681708095326573
0.42666995384487905 0.22014358970960932 0.27097170062871306
0.524845771061136 0.30016446462280855 0.27229473298753415
0.7234614365180403 0.20333618093083738 0.21248678144626296
0.5912218254361576 0.2932767078777335 0.20681708095326573
0.6266699538448791 0.22014358970960932 0.27097170062871306
0.724845771061136 0.30016446462280855 0.27229473298753415
0.9234614365180402 0.20333618093083738 0.21248678144626296
0.7912218254361577 0.2932767078777335 0.20681708095326573
0.8266699538448791 0.22014358970960932 0.27097170062871306
0.9248457710611359 0.30016446462280855 0.27229473298753415
0.1234614365180402 0.40333618093083745 0.21248678144626296
-0.008778174563842394 0.49327670787773353 0.20681708095326573
0.026669953844879024 0.4201435897096093 0.27097170062871306
0.12484577106113592 0.5001644646228085 0.27229473298753415
0.3234614365180402 0.40333618093083745 0.21248678144626296
0.19122182543615762 0.49327670787773353 0.20681708095326573
0.22666995384487906 0.4201435897096093 0.27097170062871306
0.32484577106113594 0.5001644646228085 0.27229473298753415
0.5234614365180402 0.40333618093083745 0.21248678144626296
0.39122182543615763 0.49327670787773353 0.20681708095326573
0.42666995384487905 0.4201435897096093 0.27097170062871306
0.524845771061136 0.5001644646228085 0.27229473298753415
0.7234614365180403 0.40333618093083745 0.21248678144626296
0.5912218254361576 0.49327670787773353 0.20681708095326573
0.6266699538448791 0.4201435897096093 0.27097170062871306
0.724845771061136 0.5001644646228085 0.27229473298753415
0.9234614365180402 0.40333618093083745 0.21248678144626296
0.7912218254361577 0.49327670787773353 0.20681708095326573
0.8266699538448791 0.4201435897096093 0.27097170062871306
0.9248457710611359 0.5001644646228085 0.27229473298753415
0.1234614365180402 0.6033361809308375 0.21248678144626296
-0.008778174563842394 0.6932767078777335 0.20681708095326573
0.026669953844879024 0.6201435897096093 0.27097170062871306
0.12484577106113592 0.7001644646228086 0.27229473298753415
0.3234614365180402 0.6033361809308375 0.21248678144626296
0.19122182543615762 0.6932767078777335 0.20681708095326573
0.22666995384487906 0.6201435897096093 0.27097170062871306
0.32484577106113594 0.7001644646228086 0.27229473298753415
0.5234614365180402 0.6033361809308375 0.21248678144626296
0.39122182543615763 0.6932767078777335 0.20681708095326573
0.42666995384487905 0.6201435897096093 0.27097170062871306
0.524845771061136 0.7001644646228086 0.27229473298753415
0.7234614365180403 0.6033361809308375 0.21248678144626296
0.5912218254361576 0.6932767078777335 0.20681708095326573
0.6266699538448791 0.6201435897096093 0.27097170062871306
0.724845771061136 0.7001644646228086 0.27229473298753415
0.9234614365180402 0.6033361809308375 0.21248678144626296
0.7912218254361577 0.6932767078777335 0.20681708095326573
0.8266699538448791 0.6201435897096093 0.27097170062871306
0.9248457710611359 0.7001644646228086 0.27229473298753415
0.1234614365180402 0.8033361809308375 0.21248678144626296
-0.008778174563842394 0.8932767078777335 0.20681708095326573
0.026669953844879024 0.8201435897096094 0.27097170062871306
0.12484577106113592 0.9001644646228085 0.27229473298753415
0.3234614365180402 0.8033361809308375 0.21248678144626296
0.19122182543615762 0.8932767078777335 0.20681708095326573
0.22666995384487906 0.8201435897096094 0.27097170062871306
0.32484577106113594 0.9001644646228085 0.27229473298753415
0.5234614365180402 0.8033361809308375 0.21248678144626296
0.39122182543615763 0.8932767078777335 0.20681708095326573
0.42666995384487905 0.8201435897096094 0.27097170062871306
0.524845771061136 0.9001644646228085 0.27229473298753415
0.7234614365180403 0.8033361809308375 0.21248678144626296
0.5912218254361576 0.8932767078777335 0.20681708095326573
0.6266699538448791 0.8201435897096094 0.27097170062871306
0.724845771061136 0.9001644646228085 0.27229473298753415
0.9234614365180402 0.8033361809308375 0.21248678144626296
0.7912218254361577 0.8932767078777335 0.20681708095326573
0.8266699538448791 0.8201435897096094 0.27097170062871306
0.9248457710611359 0.9001644646228085 0.27229473298753415
0.1234614365180402 0.0033361809308373944 0.41248678144626294
-0.008778174563842394 0.09327670787773353 0.40681708095326574
0.026669953844879024 0.020143589709609295 0.4709717006287131
0.12484577106113592 0.10016446462280848 0.4722947329875342
0.3234614365180402 0.0033361809308373944 0.41248678144626294
0.19122182543615762 0.09327670787773353 0.40681708095326574
0.22666995384487906 0.020143589709609295 0.4709717006287131
0.32484577106113594 0.10016446462280848 0.4722947329875342
0.5234614365180402 0.0033361809308373944 0.41248678144626294
0.39122182543615763 0.09327670787773353 0.40681708095326574
0.42666995384487905 0.020143589709609295 0.4709717006287131
0.524845771061136 0.10016446462280848 0.4722947329875342
0.7234614365180403 0.0033361809308373944 0.41248678144626294
0.5912218254361576 0.09327670787773353 0.40681708095326574
0.6266699538448791 0.020143589709609295 0.4709717006287131
0.724845771061136 0.10016446462280848 0.4722947329875342
0.9234614365180402 0.0033361809308373944 0.41248678144626294
0.7912218254361577 0.09327670787773353 0.40681708095326574
0.8266699538448791 0.020143589709609295 0.4709717006287131
0.9248457710611359 0.10016446462280848 0.4722947329875342
0.1234614365180402 0.20333618093083738 0.41248678144626294
-0.008778174563842394 0.2932767078777335 0.40681708095326574
0.026669953844879024 0.22014358970960932 0.4709717006287131
0.12484577106113592 0.30016446462280855 0.4722947329875342
0.3234614365180402 0.20333618093083738 0.41248678144626294
0.19122182543615762 0.2932767078777335 0.40681708095326574
0.22666995384487906 0.22014358970960932 0.4709717006287131
0.32484577106113594 0.30016446462280855 0.4722947329875342
0.5234614365180402 0.20333618093083738 0.41248678144626294
0.39122182543615763 0.2932767078777335 0.40681708095326574
0.42666995384487905 0.22014358970960932 0.4709717006287131
0.524845771061136 0.30016446462280855 0.4722947329875342
0.7234614365180403 0.20333618093083738 0.41248678144626294
0.5912218254361576 0.2932767078777335 0.40681708095326574
0.6266699538448791 0.22014358970960932 0.4709717006287131
0.724845771061136 0.30016446462280855 0.4722947329875342
0.9234614365180402 0.20333618093083738 0.41248678144626294
0.7912218254361577 0.2932767078777335 0.40681708095326574
0.8266699538448791 0.22014358970960932 0.4709717006287131
0.9248457710611359 0.30016446462280855 0.4722947329875342
0.1234614365180402 0.40333618093083745 0.41248678144626294
-0.008778174563842394 0.49327670787773353 0.40681708095326574
0.026669953844879024 0.4201435897096093 0.4709717006287131
0.12484577106113592 0.5001644646228085 0.4722947329875342
0.3234614365180402 0.40333618093083745 0.41248678144626294
0.19122182543615762 0.49327670787773353 0.40681708095326574
0.22666995384487906 0.4201435897096093 0.4709717006287131
0.32484577106113594 0.5001644646228085 0.4722947329875342
0.5234614365180402 0.40333618093083745 0.41248678144626294
0.39122182543615763 0.49327670787773353 0.40681708095326574
0.42666995384487905 0.4201435897096093 0.4709717006287131
0.524845771061136 0.5001644646228085 0.4722947329875342
0.7234614365180403 0.40333618093083745 0.41248678144626294
0.5912218254361576 0.49327670787773353 0.40681708095326574
0.6266699538448791 0.4201435897096093 0.4709717006287131
0.724845771061136 0.5001644646228085 0.4722947329875342
0.9234614365180402 0.40333618093083745 0.41248678144626294
0.7912218254361577 0.49327670787773353 0.40681708095326574
0.8266699538448791 0.4201435897096093 0.4709717006287131
0.9248457710611359 0.5001644646228085 0.4722947329875342
0.1234614365180402 0.6033361809308375 0.41248678144626294
-0.008778174563842394 0.6932767078777335 0.40681708095326574
0.026669953844879024 0.6201435897096093 0.4709717006287131
0.12484577106113592 0.7001644646228086 0.4722947329875342
0.3234614365180402 0.6033361809308375 0.41248678144626294
0.19122182543615762 0.6932767078777335 0.40681708095326574
0.22666995384487906 0.6201435897096093 0.4709717006287131
0.32484577106113594 0.7001644646228086 0.4722947329875342
0.5234614365180402 0.6033361809308375 0.41248678144626294
0.39122182543615763 0.6932767078777335 0.40681708095326574
0.42666995384487905 0.6201435897096093 0.4709717006287131
0.524845771061136 0.7001644646228086 0.4722947329875342
0.7234614365180403 0.6033361809308375 0.41248678144626294
0.5912218254361576 0.6932767078777335 0.40681708095326574
0.6266699538448791 0.6201435897096093 0.4709717006287131
0.724845771061136 0.7001644646228086 0.4722947329875342
0.9234614365180402 0.6033361809308375 0.41248678144626294
0.7912218254361577 0.6932767078777335 0.40681708095326574
0.8266699538448791 0.6201435897096093 0.4709717006287131
0.9248457710611359 0.7001644646228086 0.4722947329875342
0.1234614365180402 0.8033361809308375 0.41248678144626294
-0.008778174563842394 0.8932767078777335 0.40681708095326574
0.026669953844879024 0.8201435897096094 0.4709717006287131
0.12484577106113592 0.9001644646228085 0.4722947329875342
0.3234614365180402 0.8033361809308375 0.41248678144626294
0.19122182543615762 0.8932767078777335 0.40681708095326574
0.22666995384487906 0.8201435897096094 0.4709717006287131
0.32484577106113594 0.9001644646228085 0.4722947329875342
0.5234614365180402 0.8033361809308375 0.41248678144626294
0.39122182543615763 0.8932767078777335 0.40681708095326574
0.42666995384487905 0.8201435897096094 0.4709717006287131
0.524845771061136 0.9001644646228085 0.4722947329875342
0.7234614365180403 0.8033361809308375 0.41248678144626294
0.5912218254361576 0.8932767078777335 0.40681708095326574
0.6266699538448791 0.8201435897096094 0.4709717006287131
0.724845771061136 0.9001644646228085 0.4722947329875342
0.9234614365180402 0.8033361809308375 0.41248678144626294
0.7912218254361577 0.8932767078777335 0.40681708095326574
0.8266699538448791 0.8201435897096094 0.4709717006287131
0.9248457710611359 0.9001644646228085 0.4722947329875342
0.1234614365180402 0.0033361809308373944 0.6124867814462629
-0.008778174563842394 0.09327670787773353 0.6068170809532658
0.026669953844879024 0.020143589709609295 0.670971700628713
0.12484577106113592 0.10016446462280848 0.6722947329875342
0.3234614365180402 0.0033361809308373944 0.6124867814462629
0.19122182543615762 0.09327670787773353 0.6068170809532658
0.22666995384487906 0.020143589709609295 0.670971700628713
0.32484577106113594 0.10016446462280848 0.6722947329875342
0.5234614365180402 0.0033361809308373944 0.6124867814462629
0.39122182543615763 0.09327670787773353 0.6068170809532658
0.42666995384487905 0.020143589709609295 0.670971700628713
0.524845771061136 0.10016446462280848 0.6722947329875342
0.7234614365180403 0.0033361809308373944 0.6124867814462629
0.5912218254361576 0.09327670787773353 0.6068170809532658
0.6266699538448791 0.020143589709609295 0.670971700628713
0.724845771061136 0.10016446462280848 0.6722947329875342
0.9234614365180402 0.0033361809308373944 0.6124867814462629
0.7912218254361577 0.09327670787773353 0.6068170809532658
0.8266699538448791 0.020143589709609295 0.670971700628713
0.9248457710611359 0.10016446462280848 0.6722947329875342
0.1234614365180402 0.20333618093083738 0.6124867814462629
-0.008778174563842394 0.2932767078777335 0.6068170809532658
0.026669953844879024 0.22014358970960932 0.670971700628713
0.12484577106113592 0.30016446462280855 0.6722947329875342
0.3234614365180402 0.20333618093083738 0.6124867814462629
0.19122182543615762 0.2932767078777335 0.6068170809532658
0.22666995384487906 0.22014358970960932 0.670971700628713
0.32484577106113594 0.30016446462280855 0.6722947329875342
0.5234614365180402 0.20333618093083738 0.6124867814462629
0.39122182543615763 0.2932767078777335 0.6068170809532658
0.42666995384487905 0.22014358970960932 0.670971700628713
0.524845771061136 0.30016446462280855 0.6722947329875342
0.7234614365180403 0.20333618093083738 0.6124867814462629
0.5912218254361576 0.2932767078777335 0.6068170809532658
0.6266699538448791 0.22014358970960932 0.670971700628713
0.724845771061136 0.30016446462280855 0.6722947329875342
0.9234614365180402 0.20333618093083738 0.6124867814462629
0.7912218254361577 0.2932767078777335 0.6068170809532658
0.8266699538448791 0.22014358970960932 0.670971700628713
0.9248457710611359 0.30016446462280855 0.6722947329875342
0.1234614365180402 0.40333618093083745 0.6124867814462629
-0.008778174563842394 0.49327670787773353 0.6068170809532658
0.026669953844879024 0.4201435897096093 0.670971700628713
0.12484577106113592 0.5001644646228085 0.6722947329875342
0.3234614365180402 0.40333618093083745 0.6124867814462629
0.19122182543615762 0.49327670787773353 0.6068170809532658
0.22666995384487906 0.4201435897096093 0.670971700628713
0.32484577106113594 0.5001644646228085 0.6722947329875342
0.5234614365180402 0.40333618093083745 0.6124867814462629
0.39122182543615763 0.49327670787773353 0.6068170809532658
0.42666995384487905 0.4201435897096093 0.670971700628713
0.524845771061136 0.5001644646228085 0.6722947329875342
0.7234614365180403 0.40333618093083745 0.6124867814462629
0.5912218254361576 0.49327670787773353 0.6068170809532658
0.6266699538448791 0.4201435897096093 0.670971700628713
0.724845771061136 0.5001644646228085 0.6722947329875342
0.9234614365180402 0.40333618093083745 0.6124867814462629
0.7912218254361577 0.49327670787773353 0.6068170809532658
0.8266699538448791 0.4201435897096093 0.670971700628713
0.9248457710611359 0.5001644646228085 0.6722947329875342
0.1234614365180402 0.6033361809308375 0.6124867814462629
-0.008778174563842394 0.6932767078777335 0.6068170809532658
0.026669953844879024 0.6201435897096093 0.670971700628713
0.12484577106113592 0.7001644646228086 0.6722947329875342
0.3234614365180402 0.6033361809308375 0.6124867814462629
0.19122182543615762 0.6932767078777335 0.6068170809532658
0.22666995384487906 0.6201435897096093 0.670971700628713
0.32484577106113594 0.7001644646228086 0.6722947329875342
0.5234614365180402 0.6033361809308375 0.6124867814462629
0.39122182543615763 0.6932767078777335 0.6068170809532658
0.42666995384487905 0.6201435897096093 0.670971700628713
0.524845771061136 0.7001644646228086 0.6722947329875342
0.7234614365180403 0.6033361809308375 0.6124867814462629
0.5912218254361576 0.6932767078777335 0.6068170809532658
0.6266699538448791 0.6201435897096093 0.670971700628713
0.724845771061136 0.7001644646228086 0.6722947329875342
0.9234614365180402 0.6033361809308375 0.6124867814462629
0.7912218254361577 0.6932767078777335 0.6068170809532658
0.8266699538448791 0.6201435897096093 0.670971700628713
0.9248457710611359 0.7001644646228086 0.6722947329875342
0.1234614365180402 0.8033361809308375 0.6124867814462629
-0.008778174563842394 0.8932767078777335 0.6068170809532658
0.026669953844879024 0.8201435897096094 0.670971700628713
0.12484577106113592 0.9001644646228085 0.6722947329875342
0.3234614365180402 0.8033361809308375 0.6124867814462629
0.19122182543615762 0.8932767078777335 0.6068170809532658
0.22666995384487906 0.8201435897096094 0.670971700628713
0.32484577106113594 0.9001644646228085 0.6722947329875342
0.5234614365180402 0.8033361809308375 0.6124867814462629
0.39122182543615763 0.8932767078777335 0.6068170809532658
0.42666995384487905 0.8201435897096094 0.670971700628713
0.524845771061136 0.9001644646228085 0.6722947329875342
0.7234614365180403 0.8033361809308375 0.6124867814462629
0.5912218254361576 0.8932767078777335 0.6068170809532658
0.6266699538448791 0.8201435897096094 0.670971700628713
0.724845771061136 0.9001644646228085 0.6722947329875342
0.9234614365180402 0.8033361809308375 0.6124867814462629
0.7912218254361577 0.8932767078777335 0.6068170809532658
0.8266699538448791 0.8201435897096094 0.670971700628713
0.9248457710611359 0.9001644646228085 0.6722947329875342
0.1234614365180402 0.0033361809308373944 0.812486781446263
-0.008778174563842394 0.09327670787773353 0.8068170809532659
0.026669953844879024 0.020143589709609295 0.8709717006287131
0.12484577106113592 0.10016446462280848 0.8722947329875341
0.3234614365180402 0.0033361809308373944 0.812486781446263
0.19122182543615762 0.09327670787773353 0.8068170809532659
0.22666995384487906 0.020143589709609295 0.8709717006287131
0.32484577106113594 0.10016446462280848 0.8722947329875341
0.5234614365180402 0.0033361809308373944 0.812486781446263
0.39122182543615763 0.09327670787773353 0.8068170809532659
0.42666995384487905 0.020143589709609295 0.8709717006287131
0.524845771061136 0.10016446462280848 0.8722947329875341
0.7234614365180403 0.0033361809308373944 0.812486781446263
0.5912218254361576 0.09327670787773353 0.8068170809532659
0.6266699538448791 0.020143589709609295 0.8709717006287131
0.724845771061136 0.10016446462280848 0.8722947329875341
0.9234614365180402 0.0033361809308373944 0.812486781446263
0.7912218254361577 0.09327670787773353 0.8068170809532659
0.8266699538448791 0.020143589709609295 0.8709717006287131
0.9248457710611359 0.10016446462280848 0.8722947329875341
0.1234614365180402 0.20333618093083738 0.812486781446263
-0.008778174563842394 0.2932767078777335 0.8068170809532659
0.026669953844879024 0.22014358970960932 0.8709717006287131
0.12484577106113592 0.30016446462280855 0.8722947329875341
0.3234614365180402 0.20333618093083738 0.812486781446263
0.19122182543615762 0.2932767078777335 0.8068170809532659
0.22666995384487906 0.22014358970960932 0.8709717006287131
0.32484577106113594 0.30016446462280855 0.8722947329875341
0.5234614365180402 0.20333618093083738 0.812486781446263
0.39122182543615763 0.2932767078777335 0.8068170809532659
0.42666995384487905 0.22014358970960932 0.8709717006287131
0.524845771061136 0.30016446462280855 0.8722947329875341
0.7234614365180403 0.20333618093083738 0.812486781446263
0.5912218254361576 0.2932767078777335 0.8068170809532659
0.6266699538448791 0.22014358970960932 0.8709717006287131
0.724845771061136 0.30016446462280855 0.8722947329875341
0.9234614365180402 0.20333618093083738 0.812486781446263
0.7912218254361577 0.2932767078777335 0.8068170809532659
0.8266699538448791 0.22014358970960932 0.8709717006287131
0.9248457710611359 0.30016446462280855 0.8722947329875341
0.1234614365180402 0.40333618093083745 0.812486781446263
-0.008778174563842394 0.49327670787773353 0.8068170809532659
0.026669953844879024 0.4201435897096093 0.8709717006287131
0.12484577106113592 0.5001644646228085 0.8722947329875341
0.3234614365180402 0.40333618093083745 0.812486781446263
0.19122182543615762 0.49327670787773353 0.8068170809532659
0.22666995384487906 0.4201435897096093 0.8709717006287131
0.32484577106113594 0.5001644646228085 0.8722947329875341
0.5234614365180402 0.40333618093083745 0.812486781446263
0.39122182543615763 0.49327670787773353 0.8068170809532659
0.42666995384487905 0.4201435897096093 0.8709717006287131
0.524845771061136 0.5001644646228085 0.8722947329875341
0.7234614365180403 0.40333618093083745 0.812486781446263
0.5912218254361576 0.49327670787773353 0.8068170809532659
0.6266699538448791 0.4201435897096093 0.8709717006287131
0.724845771061136 0.5001644646228085 0.8722947329875341
0.9234614365180402 0.40333618093083745 0.812486781446263
0.7912218254361577 0.49327670787773353 0.8068170809532659
0.8266699538448791 0.4201435897096093 0.8709717006287131
0.9248457710611359 0.5001644646228085 0.8722947329875341
0.1234614365180402 0.6033361809308375 0.812486781446263
-0.008778174563842394 0.6932767078777335 0.8068170809532659
0.026669953844879024 0.6201435897096093 0.8709717006287131
0.12484577106113592 0.7001644646228086 0.8722947329875341
0.3234614365180402 0.6033361809308375 0.812486781446263
0.19122182543615762 0.6932767078777335 0.8068170809532659
0.22666995384487906 0.6201435897096093 0.8709717006287131
0.32484577106113594 0.7001644646228086 0.8722947329875341
0.5234614365180402 0.6033361809308375 0.812486781446263
0.39122182543615763 0.6932767078777335 0.8068170809532659
0.42666995384487905 0.6201435897096093 0.8709717006287131
0.524845771061136 0.7001644646228086 0.8722947329875341
0.7234614365180403 0.6033361809308375 0.812486781446263
0.5912218254361576 0.6932767078777335 0.8068170809532659
0.6266699538448791 0.6201435897096093 0.8709717006287131
0.724845771061136 0.7001644646228086 0.8722947329875341
0.9234614365180402 0.6033361809308375 0.812486781446263
0.7912218254361577 0.6932767078777335 0.8068170809532659
0.8266699538448791 0.6201435897096093 0.8709717006287131
0.9248457710611359 0.7001644646228086 0.8722947329875341
0.1234614365180402 0.8033361809308375 0.812486781446263
-0.008778174563842394 0.8932767078777335 0.8068170809532659
0.026669953844879024 0.8201435897096094 0.8709717006287131
0.12484577106113592 0.9001644646228085 0.8722947329875341
0.3234614365180402 0.8033361809308375 0.812486781446263
0.19122182543615762 0.8932767078777335 0.8068170809532659
0.22666995384487906 0.8201435897096094 0.8709717006287131
0.32484577106113594 0.9001644646228085 0.8722947329875341
0.5234614365180402 0.8033361809308375 0.812486781446263
0.39122182543615763 0.8932767078777335 0.8068170809532659
0.42666995384487905 0.8201435897096094 0.8709717006287131
0.524845771061136 0.9001644646228085 0.8722947329875341
0.7234614365180403 0.8033361809308375 0.812486781446263
0.5912218254361576 0.8932767078777335 0.8068170809532659
0.6266699538448791 0.8201435897096094 0.8709717006287131
0.724845771061136 0.9001644646228085 0.8722947329875341
0.9234614365180402 0.8033361809308375 0.812486781446263
0.7912218254361577 0.8932767078777335 0.8068170809532659
0.8266699538448791 0.8201435897096094 0.8709717006287131
0.9248457710611359 0.9001644646228085 0.8722947329875341
