FCC BaO
3.971
5.0 0.0 0.0
0.0 5.0 0.0
0.0 0.0 5.0
Ba O 
500 500 
Direct
-0.026165408266874773 0.027967211012582635 -0.016822162363100215
-0.007158953197277053 0.1284191318252711 0.11334683509659514
0.07298294153211526 -0.0016867278760668535 0.10136772938971073
0.10808781231200665 0.07001697290552011 -0.02096289190151329
0.17383459173312524 0.027967211012582635 -0.016822162363100215
0.19284104680272296 0.1284191318252711 0.11334683509659514
0.2729829415321153 -0.0016867278760668535 0.10136772938971073
0.30808781231200666 0.07001697290552011 -0.02096289190151329
0.3738345917331252 0.027967211012582635 -0.016822162363100215
0.39284104680272297 0.1284191318252711 0.11334683509659514
0.47298294153211523 -0.0016867278760668535 0.10136772938971073
0.5080878123120066 0.07001697290552011 -0.02096289190151329
0.5738345917331252 0.027967211012582635 -0.016822162363100215
0.592841046802723 0.1284191318252711 0.11334683509659514
0.6729829415321152 -0.0016867278760668535 0.10136772938971073
0.7080878123120067 0.07001697290552011 -0.02096289190151329
0.7738345917331253 0.027967211012582635 -0.016822162363100215
0.792841046802723 0.1284191318252711 0.11334683509659514
0.8729829415321153 -0.0016867278760668535 0.10136772938971073
0.9080878123120066 0.07001697290552011 -0.02096289190151329
-0.026165408266874773 0.22796721101258266 -0.016822162363100215
-0.007158953197277053 0.32841913182527116 0.11334683509659514
0.07298294153211526 0.19831327212393315 0.10136772938971073
0.10808781231200665 0.2700169729055201 -0.02096289190151329
0.17383459173312524 0.22796721101258266 -0.016822162363100215
0.19284104680272296 0.32841913182527116 0.11334683509659514
0.2729829415321153 0.19831327212393315 0.10136772938971073
0.30808781231200666 0.2700169729055201 -0.02096289190151329
0.3738345917331252 0.22796721101258266 -0.016822162363100215
0.39284104680272297 0.32841913182527116 0.11334683509659514
0.47298294153211523 0.19831327212393315 0.10136772938971073
0.5080878123120066 0.2700169729055201 -0.02096289190151329
0.5738345917331252 0.22796721101258266 -0.016822162363100215
0.592841046802723 0.32841913182527116 0.11334683509659514
0.6729829415321152 0.19831327212393315 0.10136772938971073
0.7080878123120067 0.2700169729055201 -0.02096289190151329
0.7738345917331253 0.22796721101258266 -0.016822162363100215
0.792841046802723 0.32841913182527116 0.11334683509659514
0.8729829415321153 0.19831327212393315 0.10136772938971073
0.9080878123120066 0.2700169729055201 -0.02096289190151329
-0.026165408266874773 0.42796721101258267 -0.016822162363100215
-0.007158953197277053 0.5284191318252711 0.11334683509659514
0.07298294153211526 0.39831327212393314 0.10136772938971073
0.10808781231200665 0.47001697290552014 -0.02096289190151329
0.17383459173312524 0.42796721101258267 -0.016822162363100215
0.19284104680272296 0.5284191318252711 0.11334683509659514
0.2729829415321153 0.39831327212393314 0.10136772938971073
0.30808781231200666 0.47001697290552014 -0.02096289190151329
0.3738345917331252 0.42796721101258267 -0.016822162363100215
0.39284104680272297 0.5284191318252711 0.11334683509659514
0.47298294153211523 0.39831327212393314 0.10136772938971073
0.5080878123120066 0.47001697290552014 -0.02096289190151329
0.5738345917331252 0.42796721101258267 -0.016822162363100215
0.592841046802723 0.5284191318252711 0.11334683509659514
0.6729829415321152 0.39831327212393314 0.10136772938971073
0.7080878123120067 0.47001697290552014 -0.02096289190151329
0.7738345917331253 0.42796721101258267 -0.016822162363100215
0.792841046802723 0.5284191318252711 0.11334683509659514
0.8729829415321153 0.39831327212393314 0.10136772938971073
0.9080878123120066 0.47001697290552014 -0.02096289190151329
-0.026165408266874773 0.6279672110125827 -0.016822162363100215
-0.007158953197277053 0.7284191318252712 0.11334683509659514
0.07298294153211526 0.5983132721239331 0.10136772938971073
0.10808781231200665 0.6700169729055201 -0.02096289190151329
0.17383459173312524 0.6279672110125827 -0.016822162363100215
0.19284104680272296 0.7284191318252712 0.11334683509659514
0.2729829415321153 0.5983132721239331 0.10136772938971073
0.30808781231200666 0.6700169729055201 -0.02096289190151329
0.3738345917331252 0.6279672110125827 -0.016822162363100215
0.39284104680272297 0.7284191318252712 0.11334683509659514
0.47298294153211523 0.5983132721239331 0.10136772938971073
0.5080878123120066 0.6700169729055201 -0.02096289190151329
0.5738345917331252 0.6279672110125827 -0.016822162363100215
0.592841046802723 0.7284191318252712 0.11334683509659514
0.6729829415321152 0.5983132721239331 0.10136772938971073
0.7080878123120067 0.6700169729055201 -0.02096289190151329
0.7738345917331253 0.6279672110125827 -0.016822162363100215
0.792841046802723 0.7284191318252712 0.11334683509659514
0.8729829415321153 0.5983132721239331 0.10136772938971073
0.9080878123120066 0.6700169729055201 -0.02096289190151329
-0.026165408266874773 0.8279672110125826 -0.016822162363100215
-0.007158953197277053 0.9284191318252711 0.11334683509659514
0.07298294153211526 0.7983132721239332 0.10136772938971073
0.10808781231200665 0.8700169729055202 -0.02096289190151329
0.17383459173312524 0.8279672110125826 -0.016822162363100215
0.19284104680272296 0.9284191318252711 0.11334683509659514
0.2729829415321153 0.7983132721239332 0.10136772938971073
0.30808781231200666 0.8700169729055202 -0.02096289190151329
0.3738345917331252 0.8279672110125826 -0.016822162363100215
0.39284104680272297 0.9284191318252711 0.11334683509659514
0.47298294153211523 0.7983132721239332 0.10136772938971073
0.5080878123120066 0.8700169729055202 -0.02096289190151329
0.5738345917331252 0.8279672110125826 -0.016822162363100215
0.592841046802723 0.9284191318252711 0.11334683509659514
0.6729829415321152 0.7983132721239332 0.10136772938971073
0.7080878123120067 0.8700169729055202 -0.02096289190151329
0.7738345917331253 0.8279672110125826 -0.016822162363100215
0.792841046802723 0.9284191318252711 0.11334683509659514
0.8729829415321153 0.7983132721239332 0.10136772938971073
0.9080878123120066 0.8700169729055202 -0.02096289190151329
-0.026165408266874773 0.027967211012582635 0.1831778376368998
-0.007158953197277053 0.1284191318252711 0.3133468350965951
0.07298294153211526 -0.0016867278760668535 0.30136772938971074
0.10808781231200665 0.07001697290552011 0.17903710809848672
0.17383459173312524 0.027967211012582635 0.1831778376368998
0.19284104680272296 0.1284191318252711 0.3133468350965951
0.2729829415321153 -0.0016867278760668535 0.30136772938971074
0.30808781231200666 0.07001697290552011 0.17903710809848672
0.3738345917331252 0.027967211012582635 0.1831778376368998
0.39284104680272297 0.1284191318252711 0.3133468350965951
0.47298294153211523 -0.0016867278760668535 0.30136772938971074
0.5080878123120066 0.07001697290552011 0.17903710809848672
0.5738345917331252 0.027967211012582635 0.1831778376368998
0.592841046802723 0.1284191318252711 0.3133468350965951
0.6729829415321152 -0.0016867278760668535 0.30136772938971074
0.7080878123120067 0.07001697290552011 0.17903710809848672
0.7738345917331253 0.027967211012582635 0.1831778376368998
0.792841046802723 0.1284191318252711 0.3133468350965951
0.8729829415321153 -0.0016867278760668535 0.30136772938971074
0.9080878123120066 0.07001697290552011 0.17903710809848672
-0.026165408266874773 0.22796721101258266 0.1831778376368998
-0.007158953197277053 0.32841913182527116 0.3133468350965951
0.07298294153211526 0.19831327212393315 0.30136772938971074
0.10808781231200665 0.2700169729055201 0.17903710809848672
0.17383459173312524 0.22796721101258266 0.1831778376368998
0.19284104680272296 0.32841913182527116 0.3133468350965951
0.2729829415321153 0.19831327212393315 0.30136772938971074
0.30808781231200666 0.2700169729055201 0.17903710809848672
0.3738345917331252 0.22796721101258266 0.1831778376368998
0.39284104680272297 0.32841913182527116 0.3133468350965951
0.47298294153211523 0.19831327212393315 0.30136772938971074
0.5080878123120066 0.2700169729055201 0.17903710809848672
0.5738345917331252 0.22796721101258266 0.1831778376368998
0.592841046802723 0.32841913182527116 0.3133468350965951
0.6729829415321152 0.19831327212393315 0.30136772938971074
0.7080878123120067 0.2700169729055201 0.17903710809848672
0.7738345917331253 0.22796721101258266 0.1831778376368998
0.792841046802723 0.32841913182527116 0.3133468350965951
0.8729829415321153 0.19831327212393315 0.30136772938971074
0.9080878123120066 0.2700169729055201 0.17903710809848672
-0.026165408266874773 0.42796721101258267 0.1831778376368998
-0.007158953197277053 0.5284191318252711 0.3133468350965951
0.07298294153211526 0.39831327212393314 0.30136772938971074
0.10808781231200665 0.47001697290552014 0.17903710809848672
0.17383459173312524 0.42796721101258267 0.1831778376368998
0.19284104680272296 0.5284191318252711 0.3133468350965951
0.2729829415321153 0.39831327212393314 0.30136772938971074
0.30808781231200666 0.47001697290552014 0.17903710809848672
0.3738345917331252 0.42796721101258267 0.1831778376368998
0.39284104680272297 0.5284191318252711 0.3133468350965951
0.47298294153211523 0.39831327212393314 0.30136772938971074
0.5080878123120066 0.47001697290552014 0.17903710809848672
0.5738345917331252 0.42796721101258267 0.1831778376368998
0.592841046802723 0.5284191318252711 0.3133468350965951
0.6729829415321152 0.39831327212393314 0.30136772938971074
0.7080878123120067 0.47001697290552014 0.17903710809848672
0.7738345917331253 0.42796721101258267 0.1831778376368998
0.792841046802723 0.5284191318252711 0.3133468350965951
0.8729829415321153 0.39831327212393314 0.30136772938971074
0.9080878123120066 0.47001697290552014 0.17903710809848672
-0.026165408266874773 0.6279672110125827 0.1831778376368998
-0.007158953197277053 0.7284191318252712 0.3133468350965951
0.07298294153211526 0.5983132721239331 0.30136772938971074
0.10808781231200665 0.6700169729055201 0.17903710809848672
0.17383459173312524 0.6279672110125827 0.1831778376368998
0.19284104680272296 0.7284191318252712 0.3133468350965951
0.2729829415321153 0.5983132721239331 0.30136772938971074
0.30808781231200666 0.6700169729055201 0.17903710809848672
0.3738345917331252 0.6279672110125827 0.1831778376368998
0.39284104680272297 0.7284191318252712 0.3133468350965951
0.47298294153211523 0.5983132721239331 0.30136772938971074
0.5080878123120066 0.6700169729055201 0.17903710809848672
0.5738345917331252 0.6279672110125827 0.1831778376368998
0.592841046802723 0.7284191318252712 0.3133468350965951
0.6729829415321152 0.5983132721239331 0.30136772938971074
0.7080878123120067 0.6700169729055201 0.17903710809848672
0.7738345917331253 0.6279672110125827 0.1831778376368998
0.792841046802723 0.7284191318252712 0.3133468350965951
0.8729829415321153 0.5983132721239331 0.30136772938971074
0.9080878123120066 0.6700169729055201 0.17903710809848672
-0.026165408266874773 0.8279672110125826 0.1831778376368998
-0.007158953197277053 0.9284191318252711 0.3133468350965951
0.07298294153211526 0.7983132721239332 0.30136772938971074
0.10808781231200665 0.8700169729055202 0.17903710809848672
0.17383459173312524 0.8279672110125826 0.1831778376368998
0.19284104680272296 0.9284191318252711 0.3133468350965951
0.2729829415321153 0.7983132721239332 0.30136772938971074
0.30808781231200666 0.8700169729055202 0.17903710809848672
0.3738345917331252 0.8279672110125826 0.1831778376368998
0.39284104680272297 0.9284191318252711 0.3133468350965951
0.47298294153211523 0.7983132721239332 0.30136772938971074
0.5080878123120066 0.8700169729055202 0.17903710809848672
0.5738345917331252 0.8279672110125826 0.1831778376368998
0.592841046802723 0.9284191318252711 0.3133468350965951
0.6729829415321152 0.7983132721239332 0.30136772938971074
0.7080878123120067 0.8700169729055202 0.17903710809848672
0.7738345917331253 0.8279672110125826 0.1831778376368998
0.792841046802723 0.9284191318252711 0.3133468350965951
0.8729829415321153 0.7983132721239332 0.30136772938971074
0.9080878123120066 0.8700169729055202 0.17903710809848672
-0.026165408266874773 0.027967211012582635 0.3831778376368998
-0.007158953197277053 0.1284191318252711 0.5133468350965952
0.07298294153211526 -0.0016867278760668535 0.5013677293897107
0.10808781231200665 0.07001697290552011 0.37903710809848673
0.17383459173312524 0.027967211012582635 0.3831778376368998
0.19284104680272296 0.1284191318252711 0.5133468350965952
0.2729829415321153 -0.0016867278760668535 0.5013677293897107
0.30808781231200666 0.07001697290552011 0.37903710809848673
0.3738345917331252 0.027967211012582635 0.3831778376368998
0.39284104680272297 0.1284191318252711 0.5133468350965952
0.47298294153211523 -0.0016867278760668535 0.5013677293897107
0.5080878123120066 0.07001697290552011 0.37903710809848673
0.5738345917331252 0.027967211012582635 0.3831778376368998
0.592841046802723 0.1284191318252711 0.5133468350965952
0.6729829415321152 -0.0016867278760668535 0.5013677293897107
0.7080878123120067 0.07001697290552011 0.37903710809848673
0.7738345917331253 0.027967211012582635 0.3831778376368998
0.792841046802723 0.1284191318252711 0.5133468350965952
0.8729829415321153 -0.0016867278760668535 0.5013677293897107
0.9080878123120066 0.07001697290552011 0.37903710809848673
-0.026165408266874773 0.22796721101258266 0.3831778376368998
-0.007158953197277053 0.32841913182527116 0.5133468350965952
0.07298294153211526 0.19831327212393315 0.5013677293897107
0.10808781231200665 0.2700169729055201 0.37903710809848673
0.17383459173312524 0.22796721101258266 0.3831778376368998
0.19284104680272296 0.32841913182527116 0.5133468350965952
0.2729829415321153 0.19831327212393315 0.5013677293897107
0.30808781231200666 0.2700169729055201 0.37903710809848673
0.3738345917331252 0.22796721101258266 0.3831778376368998
0.39284104680272297 0.32841913182527116 0.5133468350965952
0.47298294153211523 0.19831327212393315 0.5013677293897107
0.5080878123120066 0.2700169729055201 0.37903710809848673
0.5738345917331252 0.22796721101258266 0.3831778376368998
0.592841046802723 0.32841913182527116 0.5133468350965952
0.6729829415321152 0.19831327212393315 0.5013677293897107
0.7080878123120067 0.2700169729055201 0.37903710809848673
0.7738345917331253 0.22796721101258266 0.3831778376368998
0.792841046802723 0.32841913182527116 0.5133468350965952
0.8729829415321153 0.19831327212393315 0.5013677293897107
0.9080878123120066 0.2700169729055201 0.37903710809848673
-0.026165408266874773 0.42796721101258267 0.3831778376368998
-0.007158953197277053 0.5284191318252711 0.5133468350965952
0.07298294153211526 0.39831327212393314 0.5013677293897107
0.10808781231200665 0.47001697290552014 0.37903710809848673
0.17383459173312524 0.42796721101258267 0.3831778376368998
0.19284104680272296 0.5284191318252711 0.5133468350965952
0.2729829415321153 0.39831327212393314 0.5013677293897107
0.30808781231200666 0.47001697290552014 0.37903710809848673
0.3738345917331252 0.42796721101258267 0.3831778376368998
0.39284104680272297 0.5284191318252711 0.5133468350965952
0.47298294153211523 0.39831327212393314 0.5013677293897107
0.5080878123120066 0.47001697290552014 0.37903710809848673
0.5738345917331252 0.42796721101258267 0.3831778376368998
0.592841046802723 0.5284191318252711 0.5133468350965952
0.6729829415321152 0.39831327212393314 0.5013677293897107
0.7080878123120067 0.47001697290552014 0.37903710809848673
0.7738345917331253 0.42796721101258267 0.3831778376368998
0.792841046802723 0.5284191318252711 0.5133468350965952
0.8729829415321153 0.39831327212393314 0.5013677293897107
0.9080878123120066 0.47001697290552014 0.37903710809848673
-0.026165408266874773 0.6279672110125827 0.3831778376368998
-0.007158953197277053 0.7284191318252712 0.5133468350965952
0.07298294153211526 0.5983132721239331 0.5013677293897107
0.10808781231200665 0.6700169729055201 0.37903710809848673
0.17383459173312524 0.6279672110125827 0.3831778376368998
0.19284104680272296 0.7284191318252712 0.5133468350965952
0.2729829415321153 0.5983132721239331 0.5013677293897107
0.30808781231200666 0.6700169729055201 0.37903710809848673
0.3738345917331252 0.6279672110125827 0.3831778376368998
0.39284104680272297 0.7284191318252712 0.5133468350965952
0.47298294153211523 0.5983132721239331 0.5013677293897107
0.5080878123120066 0.6700169729055201 0.37903710809848673
0.5738345917331252 0.6279672110125827 0.3831778376368998
0.592841046802723 0.7284191318252712 0.5133468350965952
0.6729829415321152 0.5983132721239331 0.5013677293897107
0.7080878123120067 0.6700169729055201 0.37903710809848673
0.7738345917331253 0.6279672110125827 0.3831778376368998
0.792841046802723 0.7284191318252712 0.5133468350965952
0.8729829415321153 0.5983132721239331 0.5013677293897107
0.9080878123120066 0.6700169729055201 0.37903710809848673
-0.026165408266874773 0.8279672110125826 0.3831778376368998
-0.007158953197277053 0.9284191318252711 0.5133468350965952
0.07298294153211526 0.7983132721239332 0.5013677293897107
0.10808781231200665 0.8700169729055202 0.37903710809848673
0.17383459173312524 0.8279672110125826 0.3831778376368998
0.19284104680272296 0.9284191318252711 0.5133468350965952
0.2729829415321153 0.7983132721239332 0.5013677293897107
0.30808781231200666 0.8700169729055202 0.37903710809848673
0.3738345917331252 0.8279672110125826 0.3831778376368998
0.39284104680272297 0.9284191318252711 0.5133468350965952
0.47298294153211523 0.7983132721239332 0.5013677293897107
0.5080878123120066 0.8700169729055202 0.37903710809848673
0.5738345917331252 0.8279672110125826 0.3831778376368998
0.592841046802723 0.9284191318252711 0.5133468350965952
0.6729829415321152 0.7983132721239332 0.5013677293897107
0.7080878123120067 0.8700169729055202 0.37903710809848673
0.7738345917331253 0.8279672110125826 0.3831778376368998
0.792841046802723 0.9284191318252711 0.5133468350965952
0.8729829415321153 0.7983132721239332 0.5013677293897107
0.9080878123120066 0.8700169729055202 0.37903710809848673
-0.026165408266874773 0.027967211012582635 0.5831778376368998
-0.007158953197277053 0.1284191318252711 0.7133468350965951
0.07298294153211526 -0.0016867278760668535 0.7013677293897107
0.10808781231200665 0.07001697290552011 0.5790371080984867
0.17383459173312524 0.027967211012582635 0.5831778376368998
0.19284104680272296 0.1284191318252711 0.7133468350965951
0.2729829415321153 -0.0016867278760668535 0.7013677293897107
0.30808781231200666 0.07001697290552011 0.5790371080984867
0.3738345917331252 0.027967211012582635 0.5831778376368998
0.39284104680272297 0.1284191318252711 0.7133468350965951
0.47298294153211523 -0.0016867278760668535 0.7013677293897107
0.5080878123120066 0.07001697290552011 0.5790371080984867
0.5738345917331252 0.027967211012582635 0.5831778376368998
0.592841046802723 0.1284191318252711 0.7133468350965951
0.6729829415321152 -0.0016867278760668535 0.7013677293897107
0.7080878123120067 0.07001697290552011 0.5790371080984867
0.7738345917331253 0.027967211012582635 0.5831778376368998
0.792841046802723 0.1284191318252711 0.7133468350965951
0.8729829415321153 -0.0016867278760668535 0.7013677293897107
0.9080878123120066 0.07001697290552011 0.5790371080984867
-0.026165408266874773 0.22796721101258266 0.5831778376368998
-0.007158953197277053 0.32841913182527116 0.7133468350965951
0.07298294153211526 0.19831327212393315 0.7013677293897107
0.10808781231200665 0.2700169729055201 0.5790371080984867
0.17383459173312524 0.22796721101258266 0.5831778376368998
0.19284104680272296 0.32841913182527116 0.7133468350965951
0.2729829415321153 0.19831327212393315 0.7013677293897107
0.30808781231200666 0.2700169729055201 0.5790371080984867
0.3738345917331252 0.22796721101258266 0.5831778376368998
0.39284104680272297 0.32841913182527116 0.7133468350965951
0.47298294153211523 0.19831327212393315 0.7013677293897107
0.5080878123120066 0.2700169729055201 0.5790371080984867
0.5738345917331252 0.22796721101258266 0.5831778376368998
0.592841046802723 0.32841913182527116 0.7133468350965951
0.6729829415321152 0.19831327212393315 0.7013677293897107
0.7080878123120067 0.2700169729055201 0.5790371080984867
0.7738345917331253 0.22796721101258266 0.5831778376368998
0.792841046802723 0.32841913182527116 0.7133468350965951
0.8729829415321153 0.19831327212393315 0.7013677293897107
0.9080878123120066 0.2700169729055201 0.5790371080984867
-0.026165408266874773 0.42796721101258267 0.5831778376368998
-0.007158953197277053 0.5284191318252711 0.7133468350965951
0.07298294153211526 0.39831327212393314 0.7013677293897107
0.10808781231200665 0.47001697290552014 0.5790371080984867
0.17383459173312524 0.42796721101258267 0.5831778376368998
0.19284104680272296 0.5284191318252711 0.7133468350965951
0.2729829415321153 0.39831327212393314 0.7013677293897107
0.30808781231200666 0.47001697290552014 0.5790371080984867
0.3738345917331252 0.42796721101258267 0.5831778376368998
0.39284104680272297 0.5284191318252711 0.7133468350965951
0.47298294153211523 0.39831327212393314 0.7013677293897107
0.5080878123120066 0.47001697290552014 0.5790371080984867
0.5738345917331252 0.42796721101258267 0.5831778376368998
0.592841046802723 0.5284191318252711 0.7133468350965951
0.6729829415321152 0.39831327212393314 0.7013677293897107
0.7080878123120067 0.47001697290552014 0.5790371080984867
0.7738345917331253 0.42796721101258267 0.5831778376368998
0.792841046802723 0.5284191318252711 0.7133468350965951
0.8729829415321153 0.39831327212393314 0.7013677293897107
0.9080878123120066 0.47001697290552014 0.5790371080984867
-0.026165408266874773 0.6279672110125827 0.5831778376368998
-0.007158953197277053 0.7284191318252712 0.7133468350965951
0.07298294153211526 0.5983132721239331 0.7013677293897107
0.10808781231200665 0.6700169729055201 0.5790371080984867
0.17383459173312524 0.6279672110125827 0.5831778376368998
0.19284104680272296 0.7284191318252712 0.7133468350965951
0.2729829415321153 0.5983132721239331 0.7013677293897107
0.30808781231200666 0.6700169729055201 0.5790371080984867
0.3738345917331252 0.6279672110125827 0.5831778376368998
0.39284104680272297 0.7284191318252712 0.7133468350965951
0.47298294153211523 0.5983132721239331 0.7013677293897107
0.5080878123120066 0.6700169729055201 0.5790371080984867
0.5738345917331252 0.6279672110125827 0.5831778376368998
0.592841046802723 0.7284191318252712 0.7133468350965951
0.6729829415321152 0.5983132721239331 0.7013677293897107
0.7080878123120067 0.6700169729055201 0.5790371080984867
0.7738345917331253 0.6279672110125827 0.5831778376368998
0.792841046802723 0.7284191318252712 0.7133468350965951
0.8729829415321153 0.5983132721239331 0.7013677293897107
0.9080878123120066 0.6700169729055201 0.5790371080984867
-0.026165408266874773 0.8279672110125826 0.5831778376368998
-0.007158953197277053 0.9284191318252711 0.7133468350965951
0.07298294153211526 0.7983132721239332 0.7013677293897107
0.10808781231200665 0.8700169729055202 0.5790371080984867
0.17383459173312524 0.8279672110125826 0.5831778376368998
0.19284104680272296 0.9284191318252711 0.7133468350965951
0.2729829415321153 0.7983132721239332 0.7013677293897107
0.30808781231200666 0.8700169729055202 0.5790371080984867
0.3738345917331252 0.8279672110125826 0.5831778376368998
0.39284104680272297 0.9284191318252711 0.7133468350965951
0.47298294153211523 0.7983132721239332 0.7013677293897107
0.5080878123120066 0.8700169729055202 0.5790371080984867
0.5738345917331252 0.8279672110125826 0.5831778376368998
0.592841046802723 0.9284191318252711 0.7133468350965951
0.6729829415321152 0.7983132721239332 0.7013677293897107
0.7080878123120067 0.8700169729055202 0.5790371080984867
0.7738345917331253 0.8279672110125826 0.5831778376368998
0.792841046802723 0.9284191318252711 0.7133468350965951
0.8729829415321153 0.7983132721239332 0.7013677293897107
0.9080878123120066 0.8700169729055202 0.5790371080984867
-0.026165408266874773 0.027967211012582635 0.7831778376368999
-0.007158953197277053 0.1284191318252711 0.9133468350965952
0.07298294153211526 -0.0016867278760668535 0.9013677293897108
0.10808781231200665 0.07001697290552011 0.7790371080984868
0.17383459173312524 0.027967211012582635 0.7831778376368999
0.19284104680272296 0.1284191318252711 0.9133468350965952
0.2729829415321153 -0.0016867278760668535 0.9013677293897108
0.30808781231200666 0.07001697290552011 0.7790371080984868
0.3738345917331252 0.027967211012582635 0.7831778376368999
0.39284104680272297 0.1284191318252711 0.9133468350965952
0.47298294153211523 -0.0016867278760668535 0.9013677293897108
0.5080878123120066 0.07001697290552011 0.7790371080984868
0.5738345917331252 0.027967211012582635 0.7831778376368999
0.592841046802723 0.1284191318252711 0.9133468350965952
0.6729829415321152 -0.0016867278760668535 0.9013677293897108
0.7080878123120067 0.07001697290552011 0.7790371080984868
0.7738345917331253 0.027967211012582635 0.7831778376368999
0.792841046802723 0.1284191318252711 0.9133468350965952
0.8729829415321153 -0.0016867278760668535 0.9013677293897108
0.9080878123120066 0.07001697290552011 0.7790371080984868
-0.026165408266874773 0.22796721101258266 0.7831778376368999
-0.007158953197277053 0.32841913182527116 0.9133468350965952
0.07298294153211526 0.19831327212393315 0.9013677293897108
0.10808781231200665 0.2700169729055201 0.7790371080984868
0.17383459173312524 0.22796721101258266 0.7831778376368999
0.19284104680272296 0.32841913182527116 0.9133468350965952
0.2729829415321153 0.19831327212393315 0.9013677293897108
0.30808781231200666 0.2700169729055201 0.7790371080984868
0.3738345917331252 0.22796721101258266 0.7831778376368999
0.39284104680272297 0.32841913182527116 0.9133468350965952
0.47298294153211523 0.19831327212393315 0.9013677293897108
0.5080878123120066 0.2700169729055201 0.7790371080984868
0.5738345917331252 0.22796721101258266 0.7831778376368999
0.592841046802723 0.32841913182527116 0.9133468350965952
0.6729829415321152 0.19831327212393315 0.9013677293897108
0.7080878123120067 0.2700169729055201 0.7790371080984868
0.7738345917331253 0.22796721101258266 0.7831778376368999
0.792841046802723 0.32841913182527116 0.9133468350965952
0.8729829415321153 0.19831327212393315 0.9013677293897108
0.9080878123120066 0.2700169729055201 0.7790371080984868
-0.026165408266874773 0.42796721101258267 0.7831778376368999
-0.007158953197277053 0.5284191318252711 0.9133468350965952
0.07298294153211526 0.39831327212393314 0.9013677293897108
0.10808781231200665 0.47001697290552014 0.7790371080984868
0.17383459173312524 0.42796721101258267 0.7831778376368999
0.19284104680272296 0.5284191318252711 0.9133468350965952
0.2729829415321153 0.39831327212393314 0.9013677293897108
0.30808781231200666 0.47001697290552014 0.7790371080984868
0.3738345917331252 0.42796721101258267 0.7831778376368999
0.39284104680272297 0.5284191318252711 0.9133468350965952
0.47298294153211523 0.39831327212393314 0.9013677293897108
0.5080878123120066 0.47001697290552014 0.7790371080984868
0.5738345917331252 0.42796721101258267 0.7831778376368999
0.592841046802723 0.5284191318252711 0.9133468350965952
0.6729829415321152 0.39831327212393314 0.9013677293897108
0.7080878123120067 0.47001697290552014 0.7790371080984868
0.7738345917331253 0.42796721101258267 0.7831778376368999
0.792841046802723 0.5284191318252711 0.9133468350965952
0.8729829415321153 0.39831327212393314 0.9013677293897108
0.9080878123120066 0.47001697290552014 0.7790371080984868
-0.026165408266874773 0.6279672110125827 0.7831778376368999
-0.007158953197277053 0.7284191318252712 0.9133468350965952
0.07298294153211526 0.5983132721239331 0.9013677293897108
0.10808781231200665 0.6700169729055201 0.7790371080984868
0.17383459173312524 0.6279672110125827 0.7831778376368999
0.19284104680272296 0.7284191318252712 0.9133468350965952
0.2729829415321153 0.5983132721239331 0.9013677293897108
0.30808781231200666 0.6700169729055201 0.7790371080984868
0.3738345917331252 0.6279672110125827 0.7831778376368999
0.39284104680272297 0.7284191318252712 0.9133468350965952
0.47298294153211523 0.5983132721239331 0.9013677293897108
0.5080878123120066 0.6700169729055201 0.7790371080984868
0.5738345917331252 0.6279672110125827 0.7831778376368999
0.592841046802723 0.7284191318252712 0.9133468350965952
0.6729829415321152 0.5983132721239331 0.9013677293897108
0.7080878123120067 0.6700169729055201 0.7790371080984868
0.7738345917331253 0.6279672110125827 0.7831778376368999
0.792841046802723 0.7284191318252712 0.9133468350965952
0.8729829415321153 0.5983132721239331 0.9013677293897108
0.9080878123120066 0.6700169729055201 0.7790371080984868
-0.026165408266874773 0.8279672110125826 0.7831778376368999
-0.007158953197277053 0.9284191318252711 0.9133468350965952
0.07298294153211526 0.7983132721239332 0.9013677293897108
0.10808781231200665 0.8700169729055202 0.7790371080984868
0.17383459173312524 0.8279672110125826 0.7831778376368999
0.19284104680272296 0.9284191318252711 0.9133468350965952
0.2729829415321153 0.7983132721239332 0.9013677293897108
0.30808781231200666 0.8700169729055202 0.7790371080984868
0.3738345917331252 0.8279672110125826 0.7831778376368999
0.39284104680272297 0.9284191318252711 0.9133468350965952
0.47298294153211523 0.7983132721239332 0.9013677293897108
0.5080878123120066 0.8700169729055202 0.7790371080984868
0.5738345917331252 0.8279672110125826 0.7831778376368999
0.592841046802723 0.9284191318252711 0.9133468350965952
0.6729829415321152 0.7983132721239332 0.9013677293897108
0.7080878123120067 0.8700169729055202 0.7790371080984868
0.7738345917331253 0.8279672110125826 0.7831778376368999
0.792841046802723 0.9284191318252711 0.9133468350965952
0.8729829415321153 0.7983132721239332 0.9013677293897108
0.9080878123120066 0.8700169729055202 0.7790371080984868
0.12653594199334384 0.007084665610880635 -0.012392207360519263
0.009004052732793146 0.11198439113440187 0.022972857419412355
-0.015271084317827864 0.00540973448130866 0.07684424614712151
0.1242521843028759 0.10521058963322388 0.1292646295054647
0.32653594199334385 0.007084665610880635 -0.012392207360519263
0.20900405273279318 0.11198439113440187 0.022972857419412355
0.18472891568217215 0.00540973448130866 0.07684424614712151
0.3242521843028759 0.10521058963322388 0.1292646295054647
0.5265359419933439 0.007084665610880635 -0.012392207360519263
0.40900405273279317 0.11198439113440187 0.022972857419412355
0.38472891568217216 0.00540973448130866 0.07684424614712151
0.5242521843028759 0.10521058963322388 0.1292646295054647
0.7265359419933439 0.007084665610880635 -0.012392207360519263
0.6090040527327932 0.11198439113440187 0.022972857419412355
0.5847289156821722 0.00540973448130866 0.07684424614712151
0.724252184302876 0.10521058963322388 0.1292646295054647
0.926535941993344 0.007084665610880635 -0.012392207360519263
0.8090040527327931 0.11198439113440187 0.022972857419412355
0.7847289156821722 0.00540973448130866 0.07684424614712151
0.924252184302876 0.10521058963322388 0.1292646295054647
0.12653594199334384 0.20708466561088065 -0.012392207360519263
0.009004052732793146 0.31198439113440185 0.022972857419412355
-0.015271084317827864 0.20540973448130867 0.07684424614712151
0.1242521843028759 0.3052105896332239 0.1292646295054647
0.32653594199334385 0.20708466561088065 -0.012392207360519263
0.20900405273279318 0.31198439113440185 0.022972857419412355
0.18472891568217215 0.20540973448130867 0.07684424614712151
0.3242521843028759 0.3052105896332239 0.1292646295054647
0.5265359419933439 0.20708466561088065 -0.012392207360519263
0.40900405273279317 0.31198439113440185 0.022972857419412355
0.38472891568217216 0.20540973448130867 0.07684424614712151
0.5242521843028759 0.3052105896332239 0.1292646295054647
0.7265359419933439 0.20708466561088065 -0.012392207360519263
0.6090040527327932 0.31198439113440185 0.022972857419412355
0.5847289156821722 0.20540973448130867 0.07684424614712151
0.724252184302876 0.3052105896332239 0.1292646295054647
0.926535941993344 0.20708466561088065 -0.012392207360519263
0.8090040527327931 0.31198439113440185 0.022972857419412355
0.7847289156821722 0.20540973448130867 0.07684424614712151
0.924252184302876 0.3052105896332239 0.1292646295054647
0.12653594199334384 0.40708466561088064 -0.012392207360519263
0.009004052732793146 0.5119843911344019 0.022972857419412355
-0.015271084317827864 0.40540973448130874 0.07684424614712151
0.1242521843028759 0.5052105896332238 0.1292646295054647
0.32653594199334385 0.40708466561088064 -0.012392207360519263
0.20900405273279318 0.5119843911344019 0.022972857419412355
0.18472891568217215 0.40540973448130874 0.07684424614712151
0.3242521843028759 0.5052105896332238 0.1292646295054647
0.5265359419933439 0.40708466561088064 -0.012392207360519263
0.40900405273279317 0.5119843911344019 0.022972857419412355
0.38472891568217216 0.40540973448130874 0.07684424614712151
0.5242521843028759 0.5052105896332238 0.1292646295054647
0.7265359419933439 0.40708466561088064 -0.012392207360519263
0.6090040527327932 0.5119843911344019 0.022972857419412355
0.5847289156821722 0.40540973448130874 0.07684424614712151
0.724252184302876 0.5052105896332238 0.1292646295054647
0.926535941993344 0.40708466561088064 -0.012392207360519263
0.8090040527327931 0.5119843911344019 0.022972857419412355
0.7847289156821722 0.40540973448130874 0.07684424614712151
0.924252184302876 0.5052105896332238 0.1292646295054647
0.12653594199334384 0.6070846656108806 -0.012392207360519263
0.009004052732793146 0.7119843911344019 0.022972857419412355
-0.015271084317827864 0.6054097344813087 0.07684424614712151
0.1242521843028759 0.7052105896332239 0.1292646295054647
0.32653594199334385 0.6070846656108806 -0.012392207360519263
0.20900405273279318 0.7119843911344019 0.022972857419412355
0.18472891568217215 0.6054097344813087 0.07684424614712151
0.3242521843028759 0.7052105896332239 0.1292646295054647
0.5265359419933439 0.6070846656108806 -0.012392207360519263
0.40900405273279317 0.7119843911344019 0.022972857419412355
0.38472891568217216 0.6054097344813087 0.07684424614712151
0.5242521843028759 0.7052105896332239 0.1292646295054647
0.7265359419933439 0.6070846656108806 -0.012392207360519263
0.6090040527327932 0.7119843911344019 0.022972857419412355
0.5847289156821722 0.6054097344813087 0.07684424614712151
0.724252184302876 0.7052105896332239 0.1292646295054647
0.926535941993344 0.6070846656108806 -0.012392207360519263
0.8090040527327931 0.7119843911344019 0.022972857419412355
0.7847289156821722 0.6054097344813087 0.07684424614712151
0.924252184302876 0.7052105896332239 0.1292646295054647
0.12653594199334384 0.8070846656108807 -0.012392207360519263
0.009004052732793146 0.9119843911344019 0.022972857419412355
-0.015271084317827864 0.8054097344813087 0.07684424614712151
0.1242521843028759 0.905210589633224 0.1292646295054647
0.32653594199334385 0.8070846656108807 -0.012392207360519263
0.20900405273279318 0.9119843911344019 0.022972857419412355
0.18472891568217215 0.8054097344813087 0.07684424614712151
0.3242521843028759 0.905210589633224 0.1292646295054647
0.5265359419933439 0.8070846656108807 -0.012392207360519263
0.40900405273279317 0.9119843911344019 0.022972857419412355
0.38472891568217216 0.8054097344813087 0.07684424614712151
0.5242521843028759 0.905210589633224 0.1292646295054647
0.7265359419933439 0.8070846656108807 -0.012392207360519263
0.6090040527327932 0.9119843911344019 0.022972857419412355
0.5847289156821722 0.8054097344813087 0.07684424614712151
0.724252184302876 0.905210589633224 0.1292646295054647
0.926535941993344 0.8070846656108807 -0.012392207360519263
0.8090040527327931 0.9119843911344019 0.022972857419412355
0.7847289156821722 0.8054097344813087 0.07684424614712151
0.924252184302876 0.905210589633224 0.1292646295054647
0.12653594199334384 0.007084665610880635 0.18760779263948074
0.009004052732793146 0.11198439113440187 0.22297285741941236
-0.015271084317827864 0.00540973448130866 0.27684424614712155
0.1242521843028759 0.10521058963322388 0.3292646295054647
0.32653594199334385 0.007084665610880635 0.18760779263948074
0.20900405273279318 0.11198439113440187 0.22297285741941236
0.18472891568217215 0.00540973448130866 0.27684424614712155
0.3242521843028759 0.10521058963322388 0.3292646295054647
0.5265359419933439 0.007084665610880635 0.18760779263948074
0.40900405273279317 0.11198439113440187 0.22297285741941236
0.38472891568217216 0.00540973448130866 0.27684424614712155
0.5242521843028759 0.10521058963322388 0.3292646295054647
0.7265359419933439 0.007084665610880635 0.18760779263948074
0.6090040527327932 0.11198439113440187 0.22297285741941236
0.5847289156821722 0.00540973448130866 0.27684424614712155
0.724252184302876 0.10521058963322388 0.3292646295054647
0.926535941993344 0.007084665610880635 0.18760779263948074
0.8090040527327931 0.11198439113440187 0.22297285741941236
0.7847289156821722 0.00540973448130866 0.27684424614712155
0.924252184302876 0.10521058963322388 0.3292646295054647
0.12653594199334384 0.20708466561088065 0.18760779263948074
0.009004052732793146 0.31198439113440185 0.22297285741941236
-0.015271084317827864 0.20540973448130867 0.27684424614712155
0.1242521843028759 0.3052105896332239 0.3292646295054647
0.32653594199334385 0.20708466561088065 0.18760779263948074
0.20900405273279318 0.31198439113440185 0.22297285741941236
0.18472891568217215 0.20540973448130867 0.27684424614712155
0.3242521843028759 0.3052105896332239 0.3292646295054647
0.5265359419933439 0.20708466561088065 0.18760779263948074
0.40900405273279317 0.31198439113440185 0.22297285741941236
0.38472891568217216 0.20540973448130867 0.27684424614712155
0.5242521843028759 0.3052105896332239 0.3292646295054647
0.7265359419933439 0.20708466561088065 0.18760779263948074
0.6090040527327932 0.31198439113440185 0.22297285741941236
0.5847289156821722 0.20540973448130867 0.27684424614712155
0.724252184302876 0.3052105896332239 0.3292646295054647
0.926535941993344 0.20708466561088065 0.18760779263948074
0.8090040527327931 0.31198439113440185 0.22297285741941236
0.7847289156821722 0.20540973448130867 0.27684424614712155
0.924252184302876 0.3052105896332239 0.3292646295054647
0.12653594199334384 0.40708466561088064 0.18760779263948074
0.009004052732793146 0.5119843911344019 0.22297285741941236
-0.015271084317827864 0.40540973448130874 0.27684424614712155
0.1242521843028759 0.5052105896332238 0.3292646295054647
0.32653594199334385 0.40708466561088064 0.18760779263948074
0.20900405273279318 0.5119843911344019 0.22297285741941236
0.18472891568217215 0.40540973448130874 0.27684424614712155
0.3242521843028759 0.5052105896332238 0.3292646295054647
0.5265359419933439 0.40708466561088064 0.18760779263948074
0.40900405273279317 0.5119843911344019 0.22297285741941236
0.38472891568217216 0.40540973448130874 0.27684424614712155
0.5242521843028759 0.5052105896332238 0.3292646295054647
0.7265359419933439 0.40708466561088064 0.18760779263948074
0.6090040527327932 0.5119843911344019 0.22297285741941236
0.5847289156821722 0.40540973448130874 0.27684424614712155
0.724252184302876 0.5052105896332238 0.3292646295054647
0.926535941993344 0.40708466561088064 0.18760779263948074
0.8090040527327931 0.5119843911344019 0.22297285741941236
0.7847289156821722 0.40540973448130874 0.27684424614712155
0.924252184302876 0.5052105896332238 0.3292646295054647
0.12653594199334384 0.6070846656108806 0.18760779263948074
0.009004052732793146 0.7119843911344019 0.22297285741941236
-0.015271084317827864 0.6054097344813087 0.27684424614712155
0.1242521843028759 0.7052105896332239 0.3292646295054647
0.32653594199334385 0.6070846656108806 0.18760779263948074
0.20900405273279318 0.7119843911344019 0.22297285741941236
0.18472891568217215 0.6054097344813087 0.27684424614712155
0.3242521843028759 0.7052105896332239 0.3292646295054647
0.5265359419933439 0.6070846656108806 0.18760779263948074
0.40900405273279317 0.7119843911344019 0.22297285741941236
0.38472891568217216 0.6054097344813087 0.27684424614712155
0.5242521843028759 0.7052105896332239 0.3292646295054647
0.7265359419933439 0.6070846656108806 0.18760779263948074
0.6090040527327932 0.7119843911344019 0.22297285741941236
0.5847289156821722 0.6054097344813087 0.27684424614712155
0.724252184302876 0.7052105896332239 0.3292646295054647
0.926535941993344 0.6070846656108806 0.18760779263948074
0.8090040527327931 0.7119843911344019 0.22297285741941236
0.7847289156821722 0.6054097344813087 0.27684424614712155
0.924252184302876 0.7052105896332239 0.3292646295054647
0.12653594199334384 0.8070846656108807 0.18760779263948074
0.009004052732793146 0.9119843911344019 0.22297285741941236
-0.015271084317827864 0.8054097344813087 0.27684424614712155
0.1242521843028759 0.905210589633224 0.3292646295054647
0.32653594199334385 0.8070846656108807 0.18760779263948074
0.20900405273279318 0.9119843911344019 0.22297285741941236
0.18472891568217215 0.8054097344813087 0.27684424614712155
0.3242521843028759 0.905210589633224 0.3292646295054647
0.5265359419933439 0.8070846656108807 0.18760779263948074
0.40900405273279317 0.9119843911344019 0.22297285741941236
0.38472891568217216 0.8054097344813087 0.27684424614712155
0.5242521843028759 0.905210589633224 0.3292646295054647
0.7265359419933439 0.8070846656108807 0.18760779263948074
0.6090040527327932 0.9119843911344019 0.22297285741941236
0.5847289156821722 0.8054097344813087 0.27684424614712155
0.724252184302876 0.905210589633224 0.3292646295054647
0.926535941993344 0.8070846656108807 0.18760779263948074
0.8090040527327931 0.9119843911344019 0.22297285741941236
0.7847289156821722 0.8054097344813087 0.27684424614712155
0.924252184302876 0.905210589633224 0.3292646295054647
0.12653594199334384 0.007084665610880635 0.38760779263948075
0.009004052732793146 0.11198439113440187 0.42297285741941243
-0.015271084317827864 0.00540973448130866 0.47684424614712156
0.1242521843028759 0.10521058963322388 0.5292646295054647
0.32653594199334385 0.007084665610880635 0.38760779263948075
0.20900405273279318 0.11198439113440187 0.42297285741941243
0.18472891568217215 0.00540973448130866 0.47684424614712156
0.3242521843028759 0.10521058963322388 0.5292646295054647
0.5265359419933439 0.007084665610880635 0.38760779263948075
0.40900405273279317 0.11198439113440187 0.42297285741941243
0.38472891568217216 0.00540973448130866 0.47684424614712156
0.5242521843028759 0.10521058963322388 0.5292646295054647
0.7265359419933439 0.007084665610880635 0.38760779263948075
0.6090040527327932 0.11198439113440187 0.42297285741941243
0.5847289156821722 0.00540973448130866 0.47684424614712156
0.724252184302876 0.10521058963322388 0.5292646295054647
0.926535941993344 0.007084665610880635 0.38760779263948075
0.8090040527327931 0.11198439113440187 0.42297285741941243
0.7847289156821722 0.00540973448130866 0.47684424614712156
0.924252184302876 0.10521058963322388 0.5292646295054647
0.12653594199334384 0.20708466561088065 0.38760779263948075
0.009004052732793146 0.31198439113440185 0.42297285741941243
-0.015271084317827864 0.20540973448130867 0.47684424614712156
0.1242521843028759 0.3052105896332239 0.5292646295054647
0.32653594199334385 0.20708466561088065 0.38760779263948075
0.20900405273279318 0.31198439113440185 0.42297285741941243
0.18472891568217215 0.20540973448130867 0.47684424614712156
0.3242521843028759 0.3052105896332239 0.5292646295054647
0.5265359419933439 0.20708466561088065 0.38760779263948075
0.40900405273279317 0.31198439113440185 0.42297285741941243
0.38472891568217216 0.20540973448130867 0.47684424614712156
0.5242521843028759 0.3052105896332239 0.5292646295054647
0.7265359419933439 0.20708466561088065 0.38760779263948075
0.6090040527327932 0.31198439113440185 0.42297285741941243
0.5847289156821722 0.20540973448130867 0.47684424614712156
0.724252184302876 0.3052105896332239 0.5292646295054647
0.926535941993344 0.20708466561088065 0.38760779263948075
0.8090040527327931 0.31198439113440185 0.42297285741941243
0.7847289156821722 0.20540973448130867 0.47684424614712156
0.924252184302876 0.3052105896332239 0.5292646295054647
0.12653594199334384 0.40708466561088064 0.38760779263948075
0.009004052732793146 0.5119843911344019 0.42297285741941243
-0.015271084317827864 0.40540973448130874 0.47684424614712156
0.1242521843028759 0.5052105896332238 0.5292646295054647
0.32653594199334385 0.40708466561088064 0.38760779263948075
0.20900405273279318 0.5119843911344019 0.42297285741941243
0.18472891568217215 0.40540973448130874 0.47684424614712156
0.3242521843028759 0.5052105896332238 0.5292646295054647
0.5265359419933439 0.40708466561088064 0.38760779263948075
0.40900405273279317 0.5119843911344019 0.42297285741941243
0.38472891568217216 0.40540973448130874 0.47684424614712156
0.5242521843028759 0.5052105896332238 0.5292646295054647
0.7265359419933439 0.40708466561088064 0.38760779263948075
0.6090040527327932 0.5119843911344019 0.42297285741941243
0.5847289156821722 0.40540973448130874 0.47684424614712156
0.724252184302876 0.5052105896332238 0.5292646295054647
0.926535941993344 0.40708466561088064 0.38760779263948075
0.8090040527327931 0.5119843911344019 0.42297285741941243
0.7847289156821722 0.40540973448130874 0.47684424614712156
0.924252184302876 0.5052105896332238 0.5292646295054647
0.12653594199334384 0.6070846656108806 0.38760779263948075
0.009004052732793146 0.7119843911344019 0.42297285741941243
-0.015271084317827864 0.6054097344813087 0.47684424614712156
0.1242521843028759 0.7052105896332239 0.5292646295054647
0.32653594199334385 0.6070846656108806 0.38760779263948075
0.20900405273279318 0.7119843911344019 0.42297285741941243
0.18472891568217215 0.6054097344813087 0.47684424614712156
0.3242521843028759 0.7052105896332239 0.5292646295054647
0.5265359419933439 0.6070846656108806 0.38760779263948075
0.40900405273279317 0.7119843911344019 0.42297285741941243
0.38472891568217216 0.6054097344813087 0.47684424614712156
0.5242521843028759 0.7052105896332239 0.5292646295054647
0.7265359419933439 0.6070846656108806 0.38760779263948075
0.6090040527327932 0.7119843911344019 0.42297285741941243
0.5847289156821722 0.6054097344813087 0.47684424614712156
0.724252184302876 0.7052105896332239 0.5292646295054647
0.926535941993344 0.6070846656108806 0.38760779263948075
0.8090040527327931 0.7119843911344019 0.42297285741941243
0.7847289156821722 0.6054097344813087 0.47684424614712156
0.924252184302876 0.7052105896332239 0.5292646295054647
0.12653594199334384 0.8070846656108807 0.38760779263948075
0.009004052732793146 0.9119843911344019 0.42297285741941243
-0.015271084317827864 0.8054097344813087 0.47684424614712156
0.1242521843028759 0.905210589633224 0.5292646295054647
0.32653594199334385 0.8070846656108807 0.38760779263948075
0.20900405273279318 0.9119843911344019 0.42297285741941243
0.18472891568217215 0.8054097344813087 0.47684424614712156
0.3242521843028759 0.905210589633224 0.5292646295054647
0.5265359419933439 0.8070846656108807 0.38760779263948075
0.40900405273279317 0.9119843911344019 0.42297285741941243
0.38472891568217216 0.8054097344813087 0.47684424614712156
0.5242521843028759 0.905210589633224 0.5292646295054647
0.7265359419933439 0.8070846656108807 0.38760779263948075
0.6090040527327932 0.9119843911344019 0.42297285741941243
0.5847289156821722 0.8054097344813087 0.47684424614712156
0.724252184302876 0.905210589633224 0.5292646295054647
0.926535941993344 0.8070846656108807 0.38760779263948075
0.8090040527327931 0.9119843911344019 0.42297285741941243
0.7847289156821722 0.8054097344813087 0.47684424614712156
0.924252184302876 0.905210589633224 0.5292646295054647
0.12653594199334384 0.007084665610880635 0.5876077926394808
0.009004052732793146 0.11198439113440187 0.6229728574194124
-0.015271084317827864 0.00540973448130866 0.6768442461471216
0.1242521843028759 0.10521058963322388 0.7292646295054648
0.32653594199334385 0.007084665610880635 0.5876077926394808
0.20900405273279318 0.11198439113440187 0.6229728574194124
0.18472891568217215 0.00540973448130866 0.6768442461471216
0.3242521843028759 0.10521058963322388 0.7292646295054648
0.5265359419933439 0.007084665610880635 0.5876077926394808
0.40900405273279317 0.11198439113440187 0.6229728574194124
0.38472891568217216 0.00540973448130866 0.6768442461471216
0.5242521843028759 0.10521058963322388 0.7292646295054648
0.7265359419933439 0.007084665610880635 0.5876077926394808
0.6090040527327932 0.11198439113440187 0.6229728574194124
0.5847289156821722 0.00540973448130866 0.6768442461471216
0.724252184302876 0.10521058963322388 0.7292646295054648
0.926535941993344 0.007084665610880635 0.5876077926394808
0.8090040527327931 0.11198439113440187 0.6229728574194124
0.7847289156821722 0.00540973448130866 0.6768442461471216
0.924252184302876 0.10521058963322388 0.7292646295054648
0.12653594199334384 0.20708466561088065 0.5876077926394808
0.009004052732793146 0.31198439113440185 0.6229728574194124
-0.015271084317827864 0.20540973448130867 0.6768442461471216
0.1242521843028759 0.3052105896332239 0.7292646295054648
0.32653594199334385 0.20708466561088065 0.5876077926394808
0.20900405273279318 0.31198439113440185 0.6229728574194124
0.18472891568217215 0.20540973448130867 0.6768442461471216
0.3242521843028759 0.3052105896332239 0.7292646295054648
0.5265359419933439 0.20708466561088065 0.5876077926394808
0.40900405273279317 0.31198439113440185 0.6229728574194124
0.38472891568217216 0.20540973448130867 0.6768442461471216
0.5242521843028759 0.3052105896332239 0.7292646295054648
0.7265359419933439 0.20708466561088065 0.5876077926394808
0.6090040527327932 0.31198439113440185 0.6229728574194124
0.5847289156821722 0.20540973448130867 0.6768442461471216
0.724252184302876 0.3052105896332239 0.7292646295054648
0.926535941993344 0.20708466561088065 0.5876077926394808
0.8090040527327931 0.31198439113440185 0.6229728574194124
0.7847289156821722 0.20540973448130867 0.6768442461471216
0.924252184302876 0.3052105896332239 0.7292646295054648
0.12653594199334384 0.40708466561088064 0.5876077926394808
0.009004052732793146 0.5119843911344019 0.6229728574194124
-0.015271084317827864 0.40540973448130874 0.6768442461471216
0.1242521843028759 0.5052105896332238 0.7292646295054648
0.32653594199334385 0.40708466561088064 0.5876077926394808
0.20900405273279318 0.5119843911344019 0.6229728574194124
0.18472891568217215 0.40540973448130874 0.6768442461471216
0.3242521843028759 0.5052105896332238 0.7292646295054648
0.5265359419933439 0.40708466561088064 0.5876077926394808
0.40900405273279317 0.5119843911344019 0.6229728574194124
0.38472891568217216 0.40540973448130874 0.6768442461471216
0.5242521843028759 0.5052105896332238 0.7292646295054648
0.7265359419933439 0.40708466561088064 0.5876077926394808
0.6090040527327932 0.5119843911344019 0.6229728574194124
0.5847289156821722 0.40540973448130874 0.6768442461471216
0.724252184302876 0.5052105896332238 0.7292646295054648
0.926535941993344 0.40708466561088064 0.5876077926394808
0.8090040527327931 0.5119843911344019 0.6229728574194124
0.7847289156821722 0.40540973448130874 0.6768442461471216
0.924252184302876 0.5052105896332238 0.7292646295054648
0.12653594199334384 0.6070846656108806 0.5876077926394808
0.009004052732793146 0.7119843911344019 0.6229728574194124
-0.015271084317827864 0.6054097344813087 0.6768442461471216
0.1242521843028759 0.7052105896332239 0.7292646295054648
0.32653594199334385 0.6070846656108806 0.5876077926394808
0.20900405273279318 0.7119843911344019 0.6229728574194124
0.18472891568217215 0.6054097344813087 0.6768442461471216
0.3242521843028759 0.7052105896332239 0.7292646295054648
0.5265359419933439 0.6070846656108806 0.5876077926394808
0.40900405273279317 0.7119843911344019 0.6229728574194124
0.38472891568217216 0.6054097344813087 0.6768442461471216
0.5242521843028759 0.7052105896332239 0.7292646295054648
0.7265359419933439 0.6070846656108806 0.5876077926394808
0.6090040527327932 0.7119843911344019 0.6229728574194124
0.5847289156821722 0.6054097344813087 0.6768442461471216
0.724252184302876 0.7052105896332239 0.7292646295054648
0.926535941993344 0.6070846656108806 0.5876077926394808
0.8090040527327931 0.7119843911344019 0.6229728574194124
0.7847289156821722 0.6054097344813087 0.6768442461471216
0.924252184302876 0.7052105896332239 0.7292646295054648
0.12653594199334384 0.8070846656108807 0.5876077926394808
0.009004052732793146 0.9119843911344019 0.6229728574194124
-0.015271084317827864 0.8054097344813087 0.6768442461471216
0.1242521843028759 0.905210589633224 0.7292646295054648
0.32653594199334385 0.8070846656108807 0.5876077926394808
0.20900405273279318 0.9119843911344019 0.6229728574194124
0.18472891568217215 0.8054097344813087 0.6768442461471216
0.3242521843028759 0.905210589633224 0.7292646295054648
0.5265359419933439 0.8070846656108807 0.5876077926394808
0.40900405273279317 0.9119843911344019 0.6229728574194124
0.38472891568217216 0.8054097344813087 0.6768442461471216
0.5242521843028759 0.905210589633224 0.7292646295054648
0.7265359419933439 0.8070846656108807 0.5876077926394808
0.6090040527327932 0.9119843911344019 0.6229728574194124
0.5847289156821722 0.8054097344813087 0.6768442461471216
0.724252184302876 0.905210589633224 0.7292646295054648
0.926535941993344 0.8070846656108807 0.5876077926394808
0.8090040527327931 0.9119843911344019 0.6229728574194124
0.7847289156821722 0.8054097344813087 0.6768442461471216
0.924252184302876 0.905210589633224 0.7292646295054648
0.12653594199334384 0.007084665610880635 0.7876077926394808
0.009004052732793146 0.11198439113440187 0.8229728574194124
-0.015271084317827864 0.00540973448130866 0.8768442461471215
0.1242521843028759 0.10521058963322388 0.9292646295054647
0.32653594199334385 0.007084665610880635 0.7876077926394808
0.20900405273279318 0.11198439113440187 0.8229728574194124
0.18472891568217215 0.00540973448130866 0.8768442461471215
0.3242521843028759 0.10521058963322388 0.9292646295054647
0.5265359419933439 0.007084665610880635 0.7876077926394808
0.40900405273279317 0.11198439113440187 0.8229728574194124
0.38472891568217216 0.00540973448130866 0.8768442461471215
0.5242521843028759 0.10521058963322388 0.9292646295054647
0.7265359419933439 0.007084665610880635 0.7876077926394808
0.6090040527327932 0.11198439113440187 0.8229728574194124
0.5847289156821722 0.00540973448130866 0.8768442461471215
0.724252184302876 0.10521058963322388 0.9292646295054647
0.926535941993344 0.007084665610880635 0.7876077926394808
0.8090040527327931 0.11198439113440187 0.8229728574194124
0.7847289156821722 0.00540973448130866 0.8768442461471215
0.924252184302876 0.10521058963322388 0.9292646295054647
0.12653594199334384 0.20708466561088065 0.7876077926394808
0.009004052732793146 0.31198439113440185 0.8229728574194124
-0.015271084317827864 0.20540973448130867 0.8768442461471215
0.1242521843028759 0.3052105896332239 0.9292646295054647
0.32653594199334385 0.20708466561088065 0.7876077926394808
0.20900405273279318 0.31198439113440185 0.8229728574194124
0.18472891568217215 0.20540973448130867 0.8768442461471215
0.3242521843028759 0.3052105896332239 0.9292646295054647
0.5265359419933439 0.20708466561088065 0.7876077926394808
0.40900405273279317 0.31198439113440185 0.8229728574194124
0.38472891568217216 0.20540973448130867 0.8768442461471215
0.5242521843028759 0.3052105896332239 0.9292646295054647
0.7265359419933439 0.20708466561088065 0.7876077926394808
0.6090040527327932 0.31198439113440185 0.8229728574194124
0.5847289156821722 0.20540973448130867 0.8768442461471215
0.724252184302876 0.3052105896332239 0.9292646295054647
0.926535941993344 0.20708466561088065 0.7876077926394808
0.8090040527327931 0.31198439113440185 0.8229728574194124
0.7847289156821722 0.20540973448130867 0.8768442461471215
0.924252184302876 0.3052105896332239 0.9292646295054647
0.12653594199334384 0.40708466561088064 0.7876077926394808
0.009004052732793146 0.5119843911344019 0.8229728574194124
-0.015271084317827864 0.40540973448130874 0.8768442461471215
0.1242521843028759 0.5052105896332238 0.9292646295054647
0.32653594199334385 0.40708466561088064 0.7876077926394808
0.20900405273279318 0.5119843911344019 0.8229728574194124
0.18472891568217215 0.40540973448130874 0.8768442461471215
0.3242521843028759 0.5052105896332238 0.9292646295054647
0.5265359419933439 0.40708466561088064 0.7876077926394808
0.40900405273279317 0.5119843911344019 0.8229728574194124
0.38472891568217216 0.40540973448130874 0.8768442461471215
0.5242521843028759 0.5052105896332238 0.9292646295054647
0.7265359419933439 0.40708466561088064 0.7876077926394808
0.6090040527327932 0.5119843911344019 0.8229728574194124
0.5847289156821722 0.40540973448130874 0.8768442461471215
0.724252184302876 0.5052105896332238 0.9292646295054647
0.926535941993344 0.40708466561088064 0.7876077926394808
0.8090040527327931 0.5119843911344019 0.8229728574194124
0.7847289156821722 0.40540973448130874 0.8768442461471215
0.924252184302876 0.5052105896332238 0.9292646295054647
0.12653594199334384 0.6070846656108806 0.7876077926394808
0.009004052732793146 0.7119843911344019 0.8229728574194124
-0.015271084317827864 0.6054097344813087 0.8768442461471215
0.1242521843028759 0.7052105896332239 0.9292646295054647
0.32653594199334385 0.6070846656108806 0.7876077926394808
0.20900405273279318 0.7119843911344019 0.8229728574194124
0.18472891568217215 0.6054097344813087 0.8768442461471215
0.3242521843028759 0.7052105896332239 0.9292646295054647
0.5265359419933439 0.6070846656108806 0.7876077926394808
0.40900405273279317 0.7119843911344019 0.8229728574194124
0.38472891568217216 0.6054097344813087 0.8768442461471215
0.5242521843028759 0.7052105896332239 0.9292646295054647
0.7265359419933439 0.6070846656108806 0.7876077926394808
0.6090040527327932 0.7119843911344019 0.8229728574194124
0.5847289156821722 0.6054097344813087 0.8768442461471215
0.724252184302876 0.7052105896332239 0.9292646295054647
0.926535941993344 0.6070846656108806 0.7876077926394808
0.8090040527327931 0.7119843911344019 0.8229728574194124
0.7847289156821722 0.6054097344813087 0.8768442461471215
0.924252184302876 0.7052105896332239 0.9292646295054647
0.12653594199334384 0.8070846656108807 0.7876077926394808
0.009004052732793146 0.9119843911344019 0.8229728574194124
-0.015271084317827864 0.8054097344813087 0.8768442461471215
0.1242521843028759 0.905210589633224 0.9292646295054647
0.32653594199334385 0.8070846656108807 0.7876077926394808
0.20900405273279318 0.9119843911344019 0.8229728574194124
0.18472891568217215 0.8054097344813087 0.8768442461471215
0.3242521843028759 0.905210589633224 0.9292646295054647
0.5265359419933439 0.8070846656108807 0.7876077926394808
0.40900405273279317 0.9119843911344019 0.8229728574194124
0.38472891568217216 0.8054097344813087 0.8768442461471215
0.5242521843028759 0.905210589633224 0.9292646295054647
0.7265359419933439 0.8070846656108807 0.7876077926394808
0.6090040527327932 0.9119843911344019 0.8229728574194124
0.5847289156821722 0.8054097344813087 0.8768442461471215
0.724252184302876 0.905210589633224 0.9292646295054647
0.926535941993344 0.8070846656108807 0.7876077926394808
0.8090040527327931 0.9119843911344019 0.8229728574194124
0.7847289156821722 0.8054097344813087 0.8768442461471215
0.924252184302876 0.905210589633224 0.9292646295054647
