FCC BaO
3.971
5.0 0.0 0.0
0.0 5.0 0.0
0.0 0.0 5.0
Ba O 
500 500 
Direct
-0.027692811223850936 -0.010620484438747064 0.015447309643324733
0.017226180571080767 0.10903722927454938 0.07501518413025425
0.09720077620695838 -0.016048141775298543 0.09885773315507776
0.10431008253597313 0.08319820040310377 0.017919314139811342
0.17230718877614906 -0.010620484438747064 0.015447309643324733
0.21722618057108078 0.10903722927454938 0.07501518413025425
0.2972007762069584 -0.016048141775298543 0.09885773315507776
0.30431008253597314 0.08319820040310377 0.017919314139811342
0.3723071887761491 -0.010620484438747064 0.015447309643324733
0.41722618057108085 0.10903722927454938 0.07501518413025425
0.4972007762069584 -0.016048141775298543 0.09885773315507776
0.5043100825359732 0.08319820040310377 0.017919314139811342
0.5723071887761492 -0.010620484438747064 0.015447309643324733
0.6172261805710808 0.10903722927454938 0.07501518413025425
0.6972007762069584 -0.016048141775298543 0.09885773315507776
0.7043100825359732 0.08319820040310377 0.017919314139811342
0.7723071887761491 -0.010620484438747064 0.015447309643324733
0.8172261805710808 0.10903722927454938 0.07501518413025425
0.8972007762069585 -0.016048141775298543 0.09885773315507776
0.9043100825359732 0.08319820040310377 0.017919314139811342
-0.027692811223850936 0.18937951556125296 0.015447309643324733
0.017226180571080767 0.3090372292745494 0.07501518413025425
0.09720077620695838 0.18395185822470148 0.09885773315507776
0.10431008253597313 0.2831982004031038 0.017919314139811342
0.17230718877614906 0.18937951556125296 0.015447309643324733
0.21722618057108078 0.3090372292745494 0.07501518413025425
0.2972007762069584 0.18395185822470148 0.09885773315507776
0.30431008253597314 0.2831982004031038 0.017919314139811342
0.3723071887761491 0.18937951556125296 0.015447309643324733
0.41722618057108085 0.3090372292745494 0.07501518413025425
0.4972007762069584 0.18395185822470148 0.09885773315507776
0.5043100825359732 0.2831982004031038 0.017919314139811342
0.5723071887761492 0.18937951556125296 0.015447309643324733
0.6172261805710808 0.3090372292745494 0.07501518413025425
0.6972007762069584 0.18395185822470148 0.09885773315507776
0.7043100825359732 0.2831982004031038 0.017919314139811342
0.7723071887761491 0.18937951556125296 0.015447309643324733
0.8172261805710808 0.3090372292745494 0.07501518413025425
0.8972007762069585 0.18395185822470148 0.09885773315507776
0.9043100825359732 0.2831982004031038 0.017919314139811342
-0.027692811223850936 0.38937951556125294 0.015447309643324733
0.017226180571080767 0.5090372292745494 0.07501518413025425
0.09720077620695838 0.38395185822470146 0.09885773315507776
0.10431008253597313 0.4831982004031038 0.017919314139811342
0.17230718877614906 0.38937951556125294 0.015447309643324733
0.21722618057108078 0.5090372292745494 0.07501518413025425
0.2972007762069584 0.38395185822470146 0.09885773315507776
0.30431008253597314 0.4831982004031038 0.017919314139811342
0.3723071887761491 0.38937951556125294 0.015447309643324733
0.41722618057108085 0.5090372292745494 0.07501518413025425
0.4972007762069584 0.38395185822470146 0.09885773315507776
0.5043100825359732 0.4831982004031038 0.017919314139811342
0.5723071887761492 0.38937951556125294 0.015447309643324733
0.6172261805710808 0.5090372292745494 0.07501518413025425
0.6972007762069584 0.38395185822470146 0.09885773315507776
0.7043100825359732 0.4831982004031038 0.017919314139811342
0.7723071887761491 0.38937951556125294 0.015447309643324733
0.8172261805710808 0.5090372292745494 0.07501518413025425
0.8972007762069585 0.38395185822470146 0.09885773315507776
0.9043100825359732 0.4831982004031038 0.017919314139811342
-0.027692811223850936 0.5893795155612529 0.015447309643324733
0.017226180571080767 0.7090372292745495 0.07501518413025425
0.09720077620695838 0.5839518582247015 0.09885773315507776
0.10431008253597313 0.6831982004031039 0.017919314139811342
0.17230718877614906 0.5893795155612529 0.015447309643324733
0.21722618057108078 0.7090372292745495 0.07501518413025425
0.2972007762069584 0.5839518582247015 0.09885773315507776
0.30431008253597314 0.6831982004031039 0.017919314139811342
0.3723071887761491 0.5893795155612529 0.015447309643324733
0.41722618057108085 0.7090372292745495 0.07501518413025425
0.4972007762069584 0.5839518582247015 0.09885773315507776
0.5043100825359732 0.6831982004031039 0.017919314139811342
0.5723071887761492 0.5893795155612529 0.015447309643324733
0.6172261805710808 0.7090372292745495 0.07501518413025425
0.6972007762069584 0.5839518582247015 0.09885773315507776
0.7043100825359732 0.6831982004031039 0.017919314139811342
0.7723071887761491 0.5893795155612529 0.015447309643324733
0.8172261805710808 0.7090372292745495 0.07501518413025425
0.8972007762069585 0.5839518582247015 0.09885773315507776
0.9043100825359732 0.6831982004031039 0.017919314139811342
-0.027692811223850936 0.789379515561253 0.015447309643324733
0.017226180571080767 0.9090372292745494 0.07501518413025425
0.09720077620695838 0.7839518582247016 0.09885773315507776
0.10431008253597313 0.8831982004031037 0.017919314139811342
0.17230718877614906 0.789379515561253 0.015447309643324733
0.21722618057108078 0.9090372292745494 0.07501518413025425
0.2972007762069584 0.7839518582247016 0.09885773315507776
0.30431008253597314 0.8831982004031037 0.017919314139811342
0.3723071887761491 0.789379515561253 0.015447309643324733
0.41722618057108085 0.9090372292745494 0.07501518413025425
0.4972007762069584 0.7839518582247016 0.09885773315507776
0.5043100825359732 0.8831982004031037 0.017919314139811342
0.5723071887761492 0.789379515561253 0.015447309643324733
0.6172261805710808 0.9090372292745494 0.07501518413025425
0.6972007762069584 0.7839518582247016 0.09885773315507776
0.7043100825359732 0.8831982004031037 0.017919314139811342
0.7723071887761491 0.789379515561253 0.015447309643324733
0.8172261805710808 0.9090372292745494 0.07501518413025425
0.8972007762069585 0.7839518582247016 0.09885773315507776
0.9043100825359732 0.8831982004031037 0.017919314139811342
-0.027692811223850936 -0.010620484438747064 0.21544730964332476
0.017226180571080767 0.10903722927454938 0.2750151841302543
0.09720077620695838 -0.016048141775298543 0.29885773315507774
0.10431008253597313 0.08319820040310377 0.21791931413981136
0.17230718877614906 -0.010620484438747064 0.21544730964332476
0.21722618057108078 0.10903722927454938 0.2750151841302543
0.2972007762069584 -0.016048141775298543 0.29885773315507774
0.30431008253597314 0.08319820040310377 0.21791931413981136
0.3723071887761491 -0.010620484438747064 0.21544730964332476
0.41722618057108085 0.10903722927454938 0.2750151841302543
0.4972007762069584 -0.016048141775298543 0.29885773315507774
0.5043100825359732 0.08319820040310377 0.21791931413981136
0.5723071887761492 -0.010620484438747064 0.21544730964332476
0.6172261805710808 0.10903722927454938 0.2750151841302543
0.6972007762069584 -0.016048141775298543 0.29885773315507774
0.7043100825359732 0.08319820040310377 0.21791931413981136
0.7723071887761491 -0.010620484438747064 0.21544730964332476
0.8172261805710808 0.10903722927454938 0.2750151841302543
0.8972007762069585 -0.016048141775298543 0.29885773315507774
0.9043100825359732 0.08319820040310377 0.21791931413981136
-0.027692811223850936 0.18937951556125296 0.21544730964332476
0.017226180571080767 0.3090372292745494 0.2750151841302543
0.09720077620695838 0.18395185822470148 0.29885773315507774
0.10431008253597313 0.2831982004031038 0.21791931413981136
0.17230718877614906 0.18937951556125296 0.21544730964332476
0.21722618057108078 0.3090372292745494 0.2750151841302543
0.2972007762069584 0.18395185822470148 0.29885773315507774
0.30431008253597314 0.2831982004031038 0.21791931413981136
0.3723071887761491 0.18937951556125296 0.21544730964332476
0.41722618057108085 0.3090372292745494 0.2750151841302543
0.4972007762069584 0.18395185822470148 0.29885773315507774
0.5043100825359732 0.2831982004031038 0.21791931413981136
0.5723071887761492 0.18937951556125296 0.21544730964332476
0.6172261805710808 0.3090372292745494 0.2750151841302543
0.6972007762069584 0.18395185822470148 0.29885773315507774
0.7043100825359732 0.2831982004031038 0.21791931413981136
0.7723071887761491 0.18937951556125296 0.21544730964332476
0.8172261805710808 0.3090372292745494 0.2750151841302543
0.8972007762069585 0.18395185822470148 0.29885773315507774
0.9043100825359732 0.2831982004031038 0.21791931413981136
-0.027692811223850936 0.38937951556125294 0.21544730964332476
0.017226180571080767 0.5090372292745494 0.2750151841302543
0.09720077620695838 0.38395185822470146 0.29885773315507774
0.10431008253597313 0.4831982004031038 0.21791931413981136
0.17230718877614906 0.38937951556125294 0.21544730964332476
0.21722618057108078 0.5090372292745494 0.2750151841302543
0.2972007762069584 0.38395185822470146 0.29885773315507774
0.30431008253597314 0.4831982004031038 0.21791931413981136
0.3723071887761491 0.38937951556125294 0.21544730964332476
0.41722618057108085 0.5090372292745494 0.2750151841302543
0.4972007762069584 0.38395185822470146 0.29885773315507774
0.5043100825359732 0.4831982004031038 0.21791931413981136
0.5723071887761492 0.38937951556125294 0.21544730964332476
0.6172261805710808 0.5090372292745494 0.2750151841302543
0.6972007762069584 0.38395185822470146 0.29885773315507774
0.7043100825359732 0.4831982004031038 0.21791931413981136
0.7723071887761491 0.38937951556125294 0.21544730964332476
0.8172261805710808 0.5090372292745494 0.2750151841302543
0.8972007762069585 0.38395185822470146 0.29885773315507774
0.9043100825359732 0.4831982004031038 0.21791931413981136
-0.027692811223850936 0.5893795155612529 0.21544730964332476
0.017226180571080767 0.7090372292745495 0.2750151841302543
0.09720077620695838 0.5839518582247015 0.29885773315507774
0.10431008253597313 0.6831982004031039 0.21791931413981136
0.17230718877614906 0.5893795155612529 0.21544730964332476
0.21722618057108078 0.7090372292745495 0.2750151841302543
0.2972007762069584 0.5839518582247015 0.29885773315507774
0.30431008253597314 0.6831982004031039 0.21791931413981136
0.3723071887761491 0.5893795155612529 0.21544730964332476
0.41722618057108085 0.7090372292745495 0.2750151841302543
0.4972007762069584 0.5839518582247015 0.29885773315507774
0.5043100825359732 0.6831982004031039 0.21791931413981136
0.5723071887761492 0.5893795155612529 0.21544730964332476
0.6172261805710808 0.7090372292745495 0.2750151841302543
0.6972007762069584 0.5839518582247015 0.29885773315507774
0.7043100825359732 0.6831982004031039 0.21791931413981136
0.7723071887761491 0.5893795155612529 0.21544730964332476
0.8172261805710808 0.7090372292745495 0.2750151841302543
0.8972007762069585 0.5839518582247015 0.29885773315507774
0.9043100825359732 0.6831982004031039 0.21791931413981136
-0.027692811223850936 0.789379515561253 0.21544730964332476
0.017226180571080767 0.9090372292745494 0.2750151841302543
0.09720077620695838 0.7839518582247016 0.29885773315507774
0.10431008253597313 0.8831982004031037 0.21791931413981136
0.17230718877614906 0.789379515561253 0.21544730964332476
0.21722618057108078 0.9090372292745494 0.2750151841302543
0.2972007762069584 0.7839518582247016 0.29885773315507774
0.30431008253597314 0.8831982004031037 0.21791931413981136
0.3723071887761491 0.789379515561253 0.21544730964332476
0.41722618057108085 0.9090372292745494 0.2750151841302543
0.4972007762069584 0.7839518582247016 0.29885773315507774
0.5043100825359732 0.8831982004031037 0.21791931413981136
0.5723071887761492 0.789379515561253 0.21544730964332476
0.6172261805710808 0.9090372292745494 0.2750151841302543
0.6972007762069584 0.7839518582247016 0.29885773315507774
0.7043100825359732 0.8831982004031037 0.21791931413981136
0.7723071887761491 0.789379515561253 0.21544730964332476
0.8172261805710808 0.9090372292745494 0.2750151841302543
0.8972007762069585 0.7839518582247016 0.29885773315507774
0.9043100825359732 0.8831982004031037 0.21791931413981136
-0.027692811223850936 -0.010620484438747064 0.41544730964332477
0.017226180571080767 0.10903722927454938 0.47501518413025423
0.09720077620695838 -0.016048141775298543 0.49885773315507775
0.10431008253597313 0.08319820040310377 0.41791931413981137
0.17230718877614906 -0.010620484438747064 0.41544730964332477
0.21722618057108078 0.10903722927454938 0.47501518413025423
0.2972007762069584 -0.016048141775298543 0.49885773315507775
0.30431008253597314 0.08319820040310377 0.41791931413981137
0.3723071887761491 -0.010620484438747064 0.41544730964332477
0.41722618057108085 0.10903722927454938 0.47501518413025423
0.4972007762069584 -0.016048141775298543 0.49885773315507775
0.5043100825359732 0.08319820040310377 0.41791931413981137
0.5723071887761492 -0.010620484438747064 0.41544730964332477
0.6172261805710808 0.10903722927454938 0.47501518413025423
0.6972007762069584 -0.016048141775298543 0.49885773315507775
0.7043100825359732 0.08319820040310377 0.41791931413981137
0.7723071887761491 -0.010620484438747064 0.41544730964332477
0.8172261805710808 0.10903722927454938 0.47501518413025423
0.8972007762069585 -0.016048141775298543 0.49885773315507775
0.9043100825359732 0.08319820040310377 0.41791931413981137
-0.027692811223850936 0.18937951556125296 0.41544730964332477
0.017226180571080767 0.3090372292745494 0.47501518413025423
0.09720077620695838 0.18395185822470148 0.49885773315507775
0.10431008253597313 0.2831982004031038 0.41791931413981137
0.17230718877614906 0.18937951556125296 0.41544730964332477
0.21722618057108078 0.3090372292745494 0.47501518413025423
0.2972007762069584 0.18395185822470148 0.49885773315507775
0.30431008253597314 0.2831982004031038 0.41791931413981137
0.3723071887761491 0.18937951556125296 0.41544730964332477
0.41722618057108085 0.3090372292745494 0.47501518413025423
0.4972007762069584 0.18395185822470148 0.49885773315507775
0.5043100825359732 0.2831982004031038 0.41791931413981137
0.5723071887761492 0.18937951556125296 0.41544730964332477
0.6172261805710808 0.3090372292745494 0.47501518413025423
0.6972007762069584 0.18395185822470148 0.49885773315507775
0.7043100825359732 0.2831982004031038 0.41791931413981137
0.7723071887761491 0.18937951556125296 0.41544730964332477
0.8172261805710808 0.3090372292745494 0.47501518413025423
0.8972007762069585 0.18395185822470148 0.49885773315507775
0.9043100825359732 0.2831982004031038 0.41791931413981137
-0.027692811223850936 0.38937951556125294 0.41544730964332477
0.017226180571080767 0.5090372292745494 0.47501518413025423
0.09720077620695838 0.38395185822470146 0.49885773315507775
0.10431008253597313 0.4831982004031038 0.41791931413981137
0.17230718877614906 0.38937951556125294 0.41544730964332477
0.21722618057108078 0.5090372292745494 0.47501518413025423
0.2972007762069584 0.38395185822470146 0.49885773315507775
0.30431008253597314 0.4831982004031038 0.41791931413981137
0.3723071887761491 0.38937951556125294 0.41544730964332477
0.41722618057108085 0.5090372292745494 0.47501518413025423
0.4972007762069584 0.38395185822470146 0.49885773315507775
0.5043100825359732 0.4831982004031038 0.41791931413981137
0.5723071887761492 0.38937951556125294 0.41544730964332477
0.6172261805710808 0.5090372292745494 0.47501518413025423
0.6972007762069584 0.38395185822470146 0.49885773315507775
0.7043100825359732 0.4831982004031038 0.41791931413981137
0.7723071887761491 0.38937951556125294 0.41544730964332477
0.8172261805710808 0.5090372292745494 0.47501518413025423
0.8972007762069585 0.38395185822470146 0.49885773315507775
0.9043100825359732 0.4831982004031038 0.41791931413981137
-0.027692811223850936 0.5893795155612529 0.41544730964332477
0.017226180571080767 0.7090372292745495 0.47501518413025423
0.09720077620695838 0.5839518582247015 0.49885773315507775
0.10431008253597313 0.6831982004031039 0.41791931413981137
0.17230718877614906 0.5893795155612529 0.41544730964332477
0.21722618057108078 0.7090372292745495 0.47501518413025423
0.2972007762069584 0.5839518582247015 0.49885773315507775
0.30431008253597314 0.6831982004031039 0.41791931413981137
0.3723071887761491 0.5893795155612529 0.41544730964332477
0.41722618057108085 0.7090372292745495 0.47501518413025423
0.4972007762069584 0.5839518582247015 0.49885773315507775
0.5043100825359732 0.6831982004031039 0.41791931413981137
0.5723071887761492 0.5893795155612529 0.41544730964332477
0.6172261805710808 0.7090372292745495 0.47501518413025423
0.6972007762069584 0.5839518582247015 0.49885773315507775
0.7043100825359732 0.6831982004031039 0.41791931413981137
0.7723071887761491 0.5893795155612529 0.41544730964332477
0.8172261805710808 0.7090372292745495 0.47501518413025423
0.8972007762069585 0.5839518582247015 0.49885773315507775
0.9043100825359732 0.6831982004031039 0.41791931413981137
-0.027692811223850936 0.789379515561253 0.41544730964332477
0.017226180571080767 0.9090372292745494 0.47501518413025423
0.09720077620695838 0.7839518582247016 0.49885773315507775
0.10431008253597313 0.8831982004031037 0.41791931413981137
0.17230718877614906 0.789379515561253 0.41544730964332477
0.21722618057108078 0.9090372292745494 0.47501518413025423
0.2972007762069584 0.7839518582247016 0.49885773315507775
0.30431008253597314 0.8831982004031037 0.41791931413981137
0.3723071887761491 0.789379515561253 0.41544730964332477
0.41722618057108085 0.9090372292745494 0.47501518413025423
0.4972007762069584 0.7839518582247016 0.49885773315507775
0.5043100825359732 0.8831982004031037 0.41791931413981137
0.5723071887761492 0.789379515561253 0.41544730964332477
0.6172261805710808 0.9090372292745494 0.47501518413025423
0.6972007762069584 0.7839518582247016 0.49885773315507775
0.7043100825359732 0.8831982004031037 0.41791931413981137
0.7723071887761491 0.789379515561253 0.41544730964332477
0.8172261805710808 0.9090372292745494 0.47501518413025423
0.8972007762069585 0.7839518582247016 0.49885773315507775
0.9043100825359732 0.8831982004031037 0.41791931413981137
-0.027692811223850936 -0.010620484438747064 0.6154473096433248
0.017226180571080767 0.10903722927454938 0.6750151841302543
0.09720077620695838 -0.016048141775298543 0.6988577331550778
0.10431008253597313 0.08319820040310377 0.6179193141398114
0.17230718877614906 -0.010620484438747064 0.6154473096433248
0.21722618057108078 0.10903722927454938 0.6750151841302543
0.2972007762069584 -0.016048141775298543 0.6988577331550778
0.30431008253597314 0.08319820040310377 0.6179193141398114
0.3723071887761491 -0.010620484438747064 0.6154473096433248
0.41722618057108085 0.10903722927454938 0.6750151841302543
0.4972007762069584 -0.016048141775298543 0.6988577331550778
0.5043100825359732 0.08319820040310377 0.6179193141398114
0.5723071887761492 -0.010620484438747064 0.6154473096433248
0.6172261805710808 0.10903722927454938 0.6750151841302543
0.6972007762069584 -0.016048141775298543 0.6988577331550778
0.7043100825359732 0.08319820040310377 0.6179193141398114
0.7723071887761491 -0.010620484438747064 0.6154473096433248
0.8172261805710808 0.10903722927454938 0.6750151841302543
0.8972007762069585 -0.016048141775298543 0.6988577331550778
0.9043100825359732 0.08319820040310377 0.6179193141398114
-0.027692811223850936 0.18937951556125296 0.6154473096433248
0.017226180571080767 0.3090372292745494 0.6750151841302543
0.09720077620695838 0.18395185822470148 0.6988577331550778
0.10431008253597313 0.2831982004031038 0.6179193141398114
0.17230718877614906 0.18937951556125296 0.6154473096433248
0.21722618057108078 0.3090372292745494 0.6750151841302543
0.2972007762069584 0.18395185822470148 0.6988577331550778
0.30431008253597314 0.2831982004031038 0.6179193141398114
0.3723071887761491 0.18937951556125296 0.6154473096433248
0.41722618057108085 0.3090372292745494 0.6750151841302543
0.4972007762069584 0.18395185822470148 0.6988577331550778
0.5043100825359732 0.2831982004031038 0.6179193141398114
0.5723071887761492 0.18937951556125296 0.6154473096433248
0.6172261805710808 0.3090372292745494 0.6750151841302543
0.6972007762069584 0.18395185822470148 0.6988577331550778
0.7043100825359732 0.2831982004031038 0.6179193141398114
0.7723071887761491 0.18937951556125296 0.6154473096433248
0.8172261805710808 0.3090372292745494 0.6750151841302543
0.8972007762069585 0.18395185822470148 0.6988577331550778
0.9043100825359732 0.2831982004031038 0.6179193141398114
-0.027692811223850936 0.38937951556125294 0.6154473096433248
0.017226180571080767 0.5090372292745494 0.6750151841302543
0.09720077620695838 0.38395185822470146 0.6988577331550778
0.10431008253597313 0.4831982004031038 0.6179193141398114
0.17230718877614906 0.38937951556125294 0.6154473096433248
0.21722618057108078 0.5090372292745494 0.6750151841302543
0.2972007762069584 0.38395185822470146 0.6988577331550778
0.30431008253597314 0.4831982004031038 0.6179193141398114
0.3723071887761491 0.38937951556125294 0.6154473096433248
0.41722618057108085 0.5090372292745494 0.6750151841302543
0.4972007762069584 0.38395185822470146 0.6988577331550778
0.5043100825359732 0.4831982004031038 0.6179193141398114
0.5723071887761492 0.38937951556125294 0.6154473096433248
0.6172261805710808 0.5090372292745494 0.6750151841302543
0.6972007762069584 0.38395185822470146 0.6988577331550778
0.7043100825359732 0.4831982004031038 0.6179193141398114
0.7723071887761491 0.38937951556125294 0.6154473096433248
0.8172261805710808 0.5090372292745494 0.6750151841302543
0.8972007762069585 0.38395185822470146 0.6988577331550778
0.9043100825359732 0.4831982004031038 0.6179193141398114
-0.027692811223850936 0.5893795155612529 0.6154473096433248
0.017226180571080767 0.7090372292745495 0.6750151841302543
0.09720077620695838 0.5839518582247015 0.6988577331550778
0.10431008253597313 0.6831982004031039 0.6179193141398114
0.17230718877614906 0.5893795155612529 0.6154473096433248
0.21722618057108078 0.7090372292745495 0.6750151841302543
0.2972007762069584 0.5839518582247015 0.6988577331550778
0.30431008253597314 0.6831982004031039 0.6179193141398114
0.3723071887761491 0.5893795155612529 0.6154473096433248
0.41722618057108085 0.7090372292745495 0.6750151841302543
0.4972007762069584 0.5839518582247015 0.6988577331550778
0.5043100825359732 0.6831982004031039 0.6179193141398114
0.5723071887761492 0.5893795155612529 0.6154473096433248
0.6172261805710808 0.7090372292745495 0.6750151841302543
0.6972007762069584 0.5839518582247015 0.6988577331550778
0.7043100825359732 0.6831982004031039 0.6179193141398114
0.7723071887761491 0.5893795155612529 0.6154473096433248
0.8172261805710808 0.7090372292745495 0.6750151841302543
0.8972007762069585 0.5839518582247015 0.6988577331550778
0.9043100825359732 0.6831982004031039 0.6179193141398114
-0.027692811223850936 0.789379515561253 0.6154473096433248
0.017226180571080767 0.9090372292745494 0.6750151841302543
0.09720077620695838 0.7839518582247016 0.6988577331550778
0.10431008253597313 0.8831982004031037 0.6179193141398114
0.17230718877614906 0.789379515561253 0.6154473096433248
0.21722618057108078 0.9090372292745494 0.6750151841302543
0.2972007762069584 0.7839518582247016 0.6988577331550778
0.30431008253597314 0.8831982004031037 0.6179193141398114
0.3723071887761491 0.789379515561253 0.6154473096433248
0.41722618057108085 0.9090372292745494 0.6750151841302543
0.4972007762069584 0.7839518582247016 0.6988577331550778
0.5043100825359732 0.8831982004031037 0.6179193141398114
0.5723071887761492 0.789379515561253 0.6154473096433248
0.6172261805710808 0.9090372292745494 0.6750151841302543
0.6972007762069584 0.7839518582247016 0.6988577331550778
0.7043100825359732 0.8831982004031037 0.6179193141398114
0.7723071887761491 0.789379515561253 0.6154473096433248
0.8172261805710808 0.9090372292745494 0.6750151841302543
0.8972007762069585 0.7839518582247016 0.6988577331550778
0.9043100825359732 0.8831982004031037 0.6179193141398114
-0.027692811223850936 -0.010620484438747064 0.8154473096433247
0.017226180571080767 0.10903722927454938 0.8750151841302544
0.09720077620695838 -0.016048141775298543 0.8988577331550778
0.10431008253597313 0.08319820040310377 0.8179193141398114
0.17230718877614906 -0.010620484438747064 0.8154473096433247
0.21722618057108078 0.10903722927454938 0.8750151841302544
0.2972007762069584 -0.016048141775298543 0.8988577331550778
0.30431008253597314 0.08319820040310377 0.8179193141398114
0.3723071887761491 -0.010620484438747064 0.8154473096433247
0.41722618057108085 0.10903722927454938 0.8750151841302544
0.4972007762069584 -0.016048141775298543 0.8988577331550778
0.5043100825359732 0.08319820040310377 0.8179193141398114
0.5723071887761492 -0.010620484438747064 0.8154473096433247
0.6172261805710808 0.10903722927454938 0.8750151841302544
0.6972007762069584 -0.016048141775298543 0.8988577331550778
0.7043100825359732 0.08319820040310377 0.8179193141398114
0.7723071887761491 -0.010620484438747064 0.8154473096433247
0.8172261805710808 0.10903722927454938 0.8750151841302544
0.8972007762069585 -0.016048141775298543 0.8988577331550778
0.9043100825359732 0.08319820040310377 0.8179193141398114
-0.027692811223850936 0.18937951556125296 0.8154473096433247
0.017226180571080767 0.3090372292745494 0.8750151841302544
0.09720077620695838 0.18395185822470148 0.8988577331550778
0.10431008253597313 0.2831982004031038 0.8179193141398114
0.17230718877614906 0.18937951556125296 0.8154473096433247
0.21722618057108078 0.3090372292745494 0.8750151841302544
0.2972007762069584 0.18395185822470148 0.8988577331550778
0.30431008253597314 0.2831982004031038 0.8179193141398114
0.3723071887761491 0.18937951556125296 0.8154473096433247
0.41722618057108085 0.3090372292745494 0.8750151841302544
0.4972007762069584 0.18395185822470148 0.8988577331550778
0.5043100825359732 0.2831982004031038 0.8179193141398114
0.5723071887761492 0.18937951556125296 0.8154473096433247
0.6172261805710808 0.3090372292745494 0.8750151841302544
0.6972007762069584 0.18395185822470148 0.8988577331550778
0.7043100825359732 0.2831982004031038 0.8179193141398114
0.7723071887761491 0.18937951556125296 0.8154473096433247
0.8172261805710808 0.3090372292745494 0.8750151841302544
0.8972007762069585 0.18395185822470148 0.8988577331550778
0.9043100825359732 0.2831982004031038 0.8179193141398114
-0.027692811223850936 0.38937951556125294 0.8154473096433247
0.017226180571080767 0.5090372292745494 0.8750151841302544
0.09720077620695838 0.38395185822470146 0.8988577331550778
0.10431008253597313 0.4831982004031038 0.8179193141398114
0.17230718877614906 0.38937951556125294 0.8154473096433247
0.21722618057108078 0.5090372292745494 0.8750151841302544
0.2972007762069584 0.38395185822470146 0.8988577331550778
0.30431008253597314 0.4831982004031038 0.8179193141398114
0.3723071887761491 0.38937951556125294 0.8154473096433247
0.41722618057108085 0.5090372292745494 0.8750151841302544
0.4972007762069584 0.38395185822470146 0.8988577331550778
0.5043100825359732 0.4831982004031038 0.8179193141398114
0.5723071887761492 0.38937951556125294 0.8154473096433247
0.6172261805710808 0.5090372292745494 0.8750151841302544
0.6972007762069584 0.38395185822470146 0.8988577331550778
0.7043100825359732 0.4831982004031038 0.8179193141398114
0.7723071887761491 0.38937951556125294 0.8154473096433247
0.8172261805710808 0.5090372292745494 0.8750151841302544
0.8972007762069585 0.38395185822470146 0.8988577331550778
0.9043100825359732 0.4831982004031038 0.8179193141398114
-0.027692811223850936 0.5893795155612529 0.8154473096433247
0.017226180571080767 0.7090372292745495 0.8750151841302544
0.09720077620695838 0.5839518582247015 0.8988577331550778
0.10431008253597313 0.6831982004031039 0.8179193141398114
0.17230718877614906 0.5893795155612529 0.8154473096433247
0.21722618057108078 0.7090372292745495 0.8750151841302544
0.2972007762069584 0.5839518582247015 0.8988577331550778
0.30431008253597314 0.6831982004031039 0.8179193141398114
0.3723071887761491 0.5893795155612529 0.8154473096433247
0.41722618057108085 0.7090372292745495 0.8750151841302544
0.4972007762069584 0.5839518582247015 0.8988577331550778
0.5043100825359732 0.6831982004031039 0.8179193141398114
0.5723071887761492 0.5893795155612529 0.8154473096433247
0.6172261805710808 0.7090372292745495 0.8750151841302544
0.6972007762069584 0.5839518582247015 0.8988577331550778
0.7043100825359732 0.6831982004031039 0.8179193141398114
0.7723071887761491 0.5893795155612529 0.8154473096433247
0.8172261805710808 0.7090372292745495 0.8750151841302544
0.8972007762069585 0.5839518582247015 0.8988577331550778
0.9043100825359732 0.6831982004031039 0.8179193141398114
-0.027692811223850936 0.789379515561253 0.8154473096433247
0.017226180571080767 0.9090372292745494 0.8750151841302544
0.09720077620695838 0.7839518582247016 0.8988577331550778
0.10431008253597313 0.8831982004031037 0.8179193141398114
0.17230718877614906 0.789379515561253 0.8154473096433247
0.21722618057108078 0.9090372292745494 0.8750151841302544
0.2972007762069584 0.7839518582247016 0.8988577331550778
0.30431008253597314 0.8831982004031037 0.8179193141398114
0.3723071887761491 0.789379515561253 0.8154473096433247
0.41722618057108085 0.9090372292745494 0.8750151841302544
0.4972007762069584 0.7839518582247016 0.8988577331550778
0.5043100825359732 0.8831982004031037 0.8179193141398114
0.5723071887761492 0.789379515561253 0.8154473096433247
0.6172261805710808 0.9090372292745494 0.8750151841302544
0.6972007762069584 0.7839518582247016 0.8988577331550778
0.7043100825359732 0.8831982004031037 0.8179193141398114
0.7723071887761491 0.789379515561253 0.8154473096433247
0.8172261805710808 0.9090372292745494 0.8750151841302544
0.8972007762069585 0.7839518582247016 0.8988577331550778
0.9043100825359732 0.8831982004031037 0.8179193141398114
0.09392828486769543 -0.025330711593737627 0.003404777100569129
0.0009203108663934289 0.07795059367533842 -0.004578117005502842
0.025699134274605257 -0.00541613910087347 0.11294202111277026
0.1153415549265747 0.10937701303920627 0.11998401215048277
0.2939282848676954 -0.025330711593737627 0.003404777100569129
0.20092031086639342 0.07795059367533842 -0.004578117005502842
0.22569913427460528 -0.00541613910087347 0.11294202111277026
0.31534155492657473 0.10937701303920627 0.11998401215048277
0.4939282848676954 -0.025330711593737627 0.003404777100569129
0.40092031086639346 0.07795059367533842 -0.004578117005502842
0.42569913427460526 -0.00541613910087347 0.11294202111277026
0.5153415549265746 0.10937701303920627 0.11998401215048277
0.6939282848676954 -0.025330711593737627 0.003404777100569129
0.6009203108663934 0.07795059367533842 -0.004578117005502842
0.6256991342746052 -0.00541613910087347 0.11294202111277026
0.7153415549265747 0.10937701303920627 0.11998401215048277
0.8939282848676955 -0.025330711593737627 0.003404777100569129
0.8009203108663935 0.07795059367533842 -0.004578117005502842
0.8256991342746054 -0.00541613910087347 0.11294202111277026
0.9153415549265747 0.10937701303920627 0.11998401215048277
0.09392828486769543 0.1746692884062624 0.003404777100569129
0.0009203108663934289 0.2779505936753384 -0.004578117005502842
0.025699134274605257 0.19458386089912655 0.11294202111277026
0.1153415549265747 0.3093770130392063 0.11998401215048277
0.2939282848676954 0.1746692884062624 0.003404777100569129
0.20092031086639342 0.2779505936753384 -0.004578117005502842
0.22569913427460528 0.19458386089912655 0.11294202111277026
0.31534155492657473 0.3093770130392063 0.11998401215048277
0.4939282848676954 0.1746692884062624 0.003404777100569129
0.40092031086639346 0.2779505936753384 -0.004578117005502842
0.42569913427460526 0.19458386089912655 0.11294202111277026
0.5153415549265746 0.3093770130392063 0.11998401215048277
0.6939282848676954 0.1746692884062624 0.003404777100569129
0.6009203108663934 0.2779505936753384 -0.004578117005502842
0.6256991342746052 0.19458386089912655 0.11294202111277026
0.7153415549265747 0.3093770130392063 0.11998401215048277
0.8939282848676955 0.1746692884062624 0.003404777100569129
0.8009203108663935 0.2779505936753384 -0.004578117005502842
0.8256991342746054 0.19458386089912655 0.11294202111277026
0.9153415549265747 0.3093770130392063 0.11998401215048277
0.09392828486769543 0.3746692884062624 0.003404777100569129
0.0009203108663934289 0.4779505936753385 -0.004578117005502842
0.025699134274605257 0.39458386089912656 0.11294202111277026
0.1153415549265747 0.5093770130392062 0.11998401215048277
0.2939282848676954 0.3746692884062624 0.003404777100569129
0.20092031086639342 0.4779505936753385 -0.004578117005502842
0.22569913427460528 0.39458386089912656 0.11294202111277026
0.31534155492657473 0.5093770130392062 0.11998401215048277
0.4939282848676954 0.3746692884062624 0.003404777100569129
0.40092031086639346 0.4779505936753385 -0.004578117005502842
0.42569913427460526 0.39458386089912656 0.11294202111277026
0.5153415549265746 0.5093770130392062 0.11998401215048277
0.6939282848676954 0.3746692884062624 0.003404777100569129
0.6009203108663934 0.4779505936753385 -0.004578117005502842
0.6256991342746052 0.39458386089912656 0.11294202111277026
0.7153415549265747 0.5093770130392062 0.11998401215048277
0.8939282848676955 0.3746692884062624 0.003404777100569129
0.8009203108663935 0.4779505936753385 -0.004578117005502842
0.8256991342746054 0.39458386089912656 0.11294202111277026
0.9153415549265747 0.5093770130392062 0.11998401215048277
0.09392828486769543 0.5746692884062624 0.003404777100569129
0.0009203108663934289 0.6779505936753385 -0.004578117005502842
0.025699134274605257 0.5945838608991266 0.11294202111277026
0.1153415549265747 0.7093770130392063 0.11998401215048277
0.2939282848676954 0.5746692884062624 0.003404777100569129
0.20092031086639342 0.6779505936753385 -0.004578117005502842
0.22569913427460528 0.5945838608991266 0.11294202111277026
0.31534155492657473 0.7093770130392063 0.11998401215048277
0.4939282848676954 0.5746692884062624 0.003404777100569129
0.40092031086639346 0.6779505936753385 -0.004578117005502842
0.42569913427460526 0.5945838608991266 0.11294202111277026
0.5153415549265746 0.7093770130392063 0.11998401215048277
0.6939282848676954 0.5746692884062624 0.003404777100569129
0.6009203108663934 0.6779505936753385 -0.004578117005502842
0.6256991342746052 0.5945838608991266 0.11294202111277026
0.7153415549265747 0.7093770130392063 0.11998401215048277
0.8939282848676955 0.5746692884062624 0.003404777100569129
0.8009203108663935 0.6779505936753385 -0.004578117005502842
0.8256991342746054 0.5945838608991266 0.11294202111277026
0.9153415549265747 0.7093770130392063 0.11998401215048277
0.09392828486769543 0.7746692884062624 0.003404777100569129
0.0009203108663934289 0.8779505936753385 -0.004578117005502842
0.025699134274605257 0.7945838608991266 0.11294202111277026
0.1153415549265747 0.9093770130392063 0.11998401215048277
0.2939282848676954 0.7746692884062624 0.003404777100569129
0.20092031086639342 0.8779505936753385 -0.004578117005502842
0.22569913427460528 0.7945838608991266 0.11294202111277026
0.31534155492657473 0.9093770130392063 0.11998401215048277
0.4939282848676954 0.7746692884062624 0.003404777100569129
0.40092031086639346 0.8779505936753385 -0.004578117005502842
0.42569913427460526 0.7945838608991266 0.11294202111277026
0.5153415549265746 0.9093770130392063 0.11998401215048277
0.6939282848676954 0.7746692884062624 0.003404777100569129
0.6009203108663934 0.8779505936753385 -0.004578117005502842
0.6256991342746052 0.7945838608991266 0.11294202111277026
0.7153415549265747 0.9093770130392063 0.11998401215048277
0.8939282848676955 0.7746692884062624 0.003404777100569129
0.8009203108663935 0.8779505936753385 -0.004578117005502842
0.8256991342746054 0.7945838608991266 0.11294202111277026
0.9153415549265747 0.9093770130392063 0.11998401215048277
0.09392828486769543 -0.025330711593737627 0.20340477710056915
0.0009203108663934289 0.07795059367533842 0.19542188299449717
0.025699134274605257 -0.00541613910087347 0.31294202111277025
0.1153415549265747 0.10937701303920627 0.3199840121504828
0.2939282848676954 -0.025330711593737627 0.20340477710056915
0.20092031086639342 0.07795059367533842 0.19542188299449717
0.22569913427460528 -0.00541613910087347 0.31294202111277025
0.31534155492657473 0.10937701303920627 0.3199840121504828
0.4939282848676954 -0.025330711593737627 0.20340477710056915
0.40092031086639346 0.07795059367533842 0.19542188299449717
0.42569913427460526 -0.00541613910087347 0.31294202111277025
0.5153415549265746 0.10937701303920627 0.3199840121504828
0.6939282848676954 -0.025330711593737627 0.20340477710056915
0.6009203108663934 0.07795059367533842 0.19542188299449717
0.6256991342746052 -0.00541613910087347 0.31294202111277025
0.7153415549265747 0.10937701303920627 0.3199840121504828
0.8939282848676955 -0.025330711593737627 0.20340477710056915
0.8009203108663935 0.07795059367533842 0.19542188299449717
0.8256991342746054 -0.00541613910087347 0.31294202111277025
0.9153415549265747 0.10937701303920627 0.3199840121504828
0.09392828486769543 0.1746692884062624 0.20340477710056915
0.0009203108663934289 0.2779505936753384 0.19542188299449717
0.025699134274605257 0.19458386089912655 0.31294202111277025
0.1153415549265747 0.3093770130392063 0.3199840121504828
0.2939282848676954 0.1746692884062624 0.20340477710056915
0.20092031086639342 0.2779505936753384 0.19542188299449717
0.22569913427460528 0.19458386089912655 0.31294202111277025
0.31534155492657473 0.3093770130392063 0.3199840121504828
0.4939282848676954 0.1746692884062624 0.20340477710056915
0.40092031086639346 0.2779505936753384 0.19542188299449717
0.42569913427460526 0.19458386089912655 0.31294202111277025
0.5153415549265746 0.3093770130392063 0.3199840121504828
0.6939282848676954 0.1746692884062624 0.20340477710056915
0.6009203108663934 0.2779505936753384 0.19542188299449717
0.6256991342746052 0.19458386089912655 0.31294202111277025
0.7153415549265747 0.3093770130392063 0.3199840121504828
0.8939282848676955 0.1746692884062624 0.20340477710056915
0.8009203108663935 0.2779505936753384 0.19542188299449717
0.8256991342746054 0.19458386089912655 0.31294202111277025
0.9153415549265747 0.3093770130392063 0.3199840121504828
0.09392828486769543 0.3746692884062624 0.20340477710056915
0.0009203108663934289 0.4779505936753385 0.19542188299449717
0.025699134274605257 0.39458386089912656 0.31294202111277025
0.1153415549265747 0.5093770130392062 0.3199840121504828
0.2939282848676954 0.3746692884062624 0.20340477710056915
0.20092031086639342 0.4779505936753385 0.19542188299449717
0.22569913427460528 0.39458386089912656 0.31294202111277025
0.31534155492657473 0.5093770130392062 0.3199840121504828
0.4939282848676954 0.3746692884062624 0.20340477710056915
0.40092031086639346 0.4779505936753385 0.19542188299449717
0.42569913427460526 0.39458386089912656 0.31294202111277025
0.5153415549265746 0.5093770130392062 0.3199840121504828
0.6939282848676954 0.3746692884062624 0.20340477710056915
0.6009203108663934 0.4779505936753385 0.19542188299449717
0.6256991342746052 0.39458386089912656 0.31294202111277025
0.7153415549265747 0.5093770130392062 0.3199840121504828
0.8939282848676955 0.3746692884062624 0.20340477710056915
0.8009203108663935 0.4779505936753385 0.19542188299449717
0.8256991342746054 0.39458386089912656 0.31294202111277025
0.9153415549265747 0.5093770130392062 0.3199840121504828
0.09392828486769543 0.5746692884062624 0.20340477710056915
0.0009203108663934289 0.6779505936753385 0.19542188299449717
0.025699134274605257 0.5945838608991266 0.31294202111277025
0.1153415549265747 0.7093770130392063 0.3199840121504828
0.2939282848676954 0.5746692884062624 0.20340477710056915
0.20092031086639342 0.6779505936753385 0.19542188299449717
0.22569913427460528 0.5945838608991266 0.31294202111277025
0.31534155492657473 0.7093770130392063 0.3199840121504828
0.4939282848676954 0.5746692884062624 0.20340477710056915
0.40092031086639346 0.6779505936753385 0.19542188299449717
0.42569913427460526 0.5945838608991266 0.31294202111277025
0.5153415549265746 0.7093770130392063 0.3199840121504828
0.6939282848676954 0.5746692884062624 0.20340477710056915
0.6009203108663934 0.6779505936753385 0.19542188299449717
0.6256991342746052 0.5945838608991266 0.31294202111277025
0.7153415549265747 0.7093770130392063 0.3199840121504828
0.8939282848676955 0.5746692884062624 0.20340477710056915
0.8009203108663935 0.6779505936753385 0.19542188299449717
0.8256991342746054 0.5945838608991266 0.31294202111277025
0.9153415549265747 0.7093770130392063 0.3199840121504828
0.09392828486769543 0.7746692884062624 0.20340477710056915
0.0009203108663934289 0.8779505936753385 0.19542188299449717
0.025699134274605257 0.7945838608991266 0.31294202111277025
0.1153415549265747 0.9093770130392063 0.3199840121504828
0.2939282848676954 0.7746692884062624 0.20340477710056915
0.20092031086639342 0.8779505936753385 0.19542188299449717
0.22569913427460528 0.7945838608991266 0.31294202111277025
0.31534155492657473 0.9093770130392063 0.3199840121504828
0.4939282848676954 0.7746692884062624 0.20340477710056915
0.40092031086639346 0.8779505936753385 0.19542188299449717
0.42569913427460526 0.7945838608991266 0.31294202111277025
0.5153415549265746 0.9093770130392063 0.3199840121504828
0.6939282848676954 0.7746692884062624 0.20340477710056915
0.6009203108663934 0.8779505936753385 0.19542188299449717
0.6256991342746052 0.7945838608991266 0.31294202111277025
0.7153415549265747 0.9093770130392063 0.3199840121504828
0.8939282848676955 0.7746692884062624 0.20340477710056915
0.8009203108663935 0.8779505936753385 0.19542188299449717
0.8256991342746054 0.7945838608991266 0.31294202111277025
0.9153415549265747 0.9093770130392063 0.3199840121504828
0.09392828486769543 -0.025330711593737627 0.40340477710056916
0.0009203108663934289 0.07795059367533842 0.39542188299449715
0.025699134274605257 -0.00541613910087347 0.5129420211127703
0.1153415549265747 0.10937701303920627 0.5199840121504827
0.2939282848676954 -0.025330711593737627 0.40340477710056916
0.20092031086639342 0.07795059367533842 0.39542188299449715
0.22569913427460528 -0.00541613910087347 0.5129420211127703
0.31534155492657473 0.10937701303920627 0.5199840121504827
0.4939282848676954 -0.025330711593737627 0.40340477710056916
0.40092031086639346 0.07795059367533842 0.39542188299449715
0.42569913427460526 -0.00541613910087347 0.5129420211127703
0.5153415549265746 0.10937701303920627 0.5199840121504827
0.6939282848676954 -0.025330711593737627 0.40340477710056916
0.6009203108663934 0.07795059367533842 0.39542188299449715
0.6256991342746052 -0.00541613910087347 0.5129420211127703
0.7153415549265747 0.10937701303920627 0.5199840121504827
0.8939282848676955 -0.025330711593737627 0.40340477710056916
0.8009203108663935 0.07795059367533842 0.39542188299449715
0.8256991342746054 -0.00541613910087347 0.5129420211127703
0.9153415549265747 0.10937701303920627 0.5199840121504827
0.09392828486769543 0.1746692884062624 0.40340477710056916
0.0009203108663934289 0.2779505936753384 0.39542188299449715
0.025699134274605257 0.19458386089912655 0.5129420211127703
0.1153415549265747 0.3093770130392063 0.5199840121504827
0.2939282848676954 0.1746692884062624 0.40340477710056916
0.20092031086639342 0.2779505936753384 0.39542188299449715
0.22569913427460528 0.19458386089912655 0.5129420211127703
0.31534155492657473 0.3093770130392063 0.5199840121504827
0.4939282848676954 0.1746692884062624 0.40340477710056916
0.40092031086639346 0.2779505936753384 0.39542188299449715
0.42569913427460526 0.19458386089912655 0.5129420211127703
0.5153415549265746 0.3093770130392063 0.5199840121504827
0.6939282848676954 0.1746692884062624 0.40340477710056916
0.6009203108663934 0.2779505936753384 0.39542188299449715
0.6256991342746052 0.19458386089912655 0.5129420211127703
0.7153415549265747 0.3093770130392063 0.5199840121504827
0.8939282848676955 0.1746692884062624 0.40340477710056916
0.8009203108663935 0.2779505936753384 0.39542188299449715
0.8256991342746054 0.19458386089912655 0.5129420211127703
0.9153415549265747 0.3093770130392063 0.5199840121504827
0.09392828486769543 0.3746692884062624 0.40340477710056916
0.0009203108663934289 0.4779505936753385 0.39542188299449715
0.025699134274605257 0.39458386089912656 0.5129420211127703
0.1153415549265747 0.5093770130392062 0.5199840121504827
0.2939282848676954 0.3746692884062624 0.40340477710056916
0.20092031086639342 0.4779505936753385 0.39542188299449715
0.22569913427460528 0.39458386089912656 0.5129420211127703
0.31534155492657473 0.5093770130392062 0.5199840121504827
0.4939282848676954 0.3746692884062624 0.40340477710056916
0.40092031086639346 0.4779505936753385 0.39542188299449715
0.42569913427460526 0.39458386089912656 0.5129420211127703
0.5153415549265746 0.5093770130392062 0.5199840121504827
0.6939282848676954 0.3746692884062624 0.40340477710056916
0.6009203108663934 0.4779505936753385 0.39542188299449715
0.6256991342746052 0.39458386089912656 0.5129420211127703
0.7153415549265747 0.5093770130392062 0.5199840121504827
0.8939282848676955 0.3746692884062624 0.40340477710056916
0.8009203108663935 0.4779505936753385 0.39542188299449715
0.8256991342746054 0.39458386089912656 0.5129420211127703
0.9153415549265747 0.5093770130392062 0.5199840121504827
0.09392828486769543 0.5746692884062624 0.40340477710056916
0.0009203108663934289 0.6779505936753385 0.39542188299449715
0.025699134274605257 0.5945838608991266 0.5129420211127703
0.1153415549265747 0.7093770130392063 0.5199840121504827
0.2939282848676954 0.5746692884062624 0.40340477710056916
0.20092031086639342 0.6779505936753385 0.39542188299449715
0.22569913427460528 0.5945838608991266 0.5129420211127703
0.31534155492657473 0.7093770130392063 0.5199840121504827
0.4939282848676954 0.5746692884062624 0.40340477710056916
0.40092031086639346 0.6779505936753385 0.39542188299449715
0.42569913427460526 0.5945838608991266 0.5129420211127703
0.5153415549265746 0.7093770130392063 0.5199840121504827
0.6939282848676954 0.5746692884062624 0.40340477710056916
0.6009203108663934 0.6779505936753385 0.39542188299449715
0.6256991342746052 0.5945838608991266 0.5129420211127703
0.7153415549265747 0.7093770130392063 0.5199840121504827
0.8939282848676955 0.5746692884062624 0.40340477710056916
0.8009203108663935 0.6779505936753385 0.39542188299449715
0.8256991342746054 0.5945838608991266 0.5129420211127703
0.9153415549265747 0.7093770130392063 0.5199840121504827
0.09392828486769543 0.7746692884062624 0.40340477710056916
0.0009203108663934289 0.8779505936753385 0.39542188299449715
0.025699134274605257 0.7945838608991266 0.5129420211127703
0.1153415549265747 0.9093770130392063 0.5199840121504827
0.2939282848676954 0.7746692884062624 0.40340477710056916
0.20092031086639342 0.8779505936753385 0.39542188299449715
0.22569913427460528 0.7945838608991266 0.5129420211127703
0.31534155492657473 0.9093770130392063 0.5199840121504827
0.4939282848676954 0.7746692884062624 0.40340477710056916
0.40092031086639346 0.8779505936753385 0.39542188299449715
0.42569913427460526 0.7945838608991266 0.5129420211127703
0.5153415549265746 0.9093770130392063 0.5199840121504827
0.6939282848676954 0.7746692884062624 0.40340477710056916
0.6009203108663934 0.8779505936753385 0.39542188299449715
0.6256991342746052 0.7945838608991266 0.5129420211127703
0.7153415549265747 0.9093770130392063 0.5199840121504827
0.8939282848676955 0.7746692884062624 0.40340477710056916
0.8009203108663935 0.8779505936753385 0.39542188299449715
0.8256991342746054 0.7945838608991266 0.5129420211127703
0.9153415549265747 0.9093770130392063 0.5199840121504827
0.09392828486769543 -0.025330711593737627 0.6034047771005692
0.0009203108663934289 0.07795059367533842 0.5954218829944972
0.025699134274605257 -0.00541613910087347 0.7129420211127703
0.1153415549265747 0.10937701303920627 0.7199840121504828
0.2939282848676954 -0.025330711593737627 0.6034047771005692
0.20092031086639342 0.07795059367533842 0.5954218829944972
0.22569913427460528 -0.00541613910087347 0.7129420211127703
0.31534155492657473 0.10937701303920627 0.7199840121504828
0.4939282848676954 -0.025330711593737627 0.6034047771005692
0.40092031086639346 0.07795059367533842 0.5954218829944972
0.42569913427460526 -0.00541613910087347 0.7129420211127703
0.5153415549265746 0.10937701303920627 0.7199840121504828
0.6939282848676954 -0.025330711593737627 0.6034047771005692
0.6009203108663934 0.07795059367533842 0.5954218829944972
0.6256991342746052 -0.00541613910087347 0.7129420211127703
0.7153415549265747 0.10937701303920627 0.7199840121504828
0.8939282848676955 -0.025330711593737627 0.6034047771005692
0.8009203108663935 0.07795059367533842 0.5954218829944972
0.8256991342746054 -0.00541613910087347 0.7129420211127703
0.9153415549265747 0.10937701303920627 0.7199840121504828
0.09392828486769543 0.1746692884062624 0.6034047771005692
0.0009203108663934289 0.2779505936753384 0.5954218829944972
0.025699134274605257 0.19458386089912655 0.7129420211127703
0.1153415549265747 0.3093770130392063 0.7199840121504828
0.2939282848676954 0.1746692884062624 0.6034047771005692
0.20092031086639342 0.2779505936753384 0.5954218829944972
0.22569913427460528 0.19458386089912655 0.7129420211127703
0.31534155492657473 0.3093770130392063 0.7199840121504828
0.4939282848676954 0.1746692884062624 0.6034047771005692
0.40092031086639346 0.2779505936753384 0.5954218829944972
0.42569913427460526 0.19458386089912655 0.7129420211127703
0.5153415549265746 0.3093770130392063 0.7199840121504828
0.6939282848676954 0.1746692884062624 0.6034047771005692
0.6009203108663934 0.2779505936753384 0.5954218829944972
0.6256991342746052 0.19458386089912655 0.7129420211127703
0.7153415549265747 0.3093770130392063 0.7199840121504828
0.8939282848676955 0.1746692884062624 0.6034047771005692
0.8009203108663935 0.2779505936753384 0.5954218829944972
0.8256991342746054 0.19458386089912655 0.7129420211127703
0.9153415549265747 0.3093770130392063 0.7199840121504828
0.09392828486769543 0.3746692884062624 0.6034047771005692
0.0009203108663934289 0.4779505936753385 0.5954218829944972
0.025699134274605257 0.39458386089912656 0.7129420211127703
0.1153415549265747 0.5093770130392062 0.7199840121504828
0.2939282848676954 0.3746692884062624 0.6034047771005692
0.20092031086639342 0.4779505936753385 0.5954218829944972
0.22569913427460528 0.39458386089912656 0.7129420211127703
0.31534155492657473 0.5093770130392062 0.7199840121504828
0.4939282848676954 0.3746692884062624 0.6034047771005692
0.40092031086639346 0.4779505936753385 0.5954218829944972
0.42569913427460526 0.39458386089912656 0.7129420211127703
0.5153415549265746 0.5093770130392062 0.7199840121504828
0.6939282848676954 0.3746692884062624 0.6034047771005692
0.6009203108663934 0.4779505936753385 0.5954218829944972
0.6256991342746052 0.39458386089912656 0.7129420211127703
0.7153415549265747 0.5093770130392062 0.7199840121504828
0.8939282848676955 0.3746692884062624 0.6034047771005692
0.8009203108663935 0.4779505936753385 0.5954218829944972
0.8256991342746054 0.39458386089912656 0.7129420211127703
0.9153415549265747 0.5093770130392062 0.7199840121504828
0.09392828486769543 0.5746692884062624 0.6034047771005692
0.0009203108663934289 0.6779505936753385 0.5954218829944972
0.025699134274605257 0.5945838608991266 0.7129420211127703
0.1153415549265747 0.7093770130392063 0.7199840121504828
0.2939282848676954 0.5746692884062624 0.6034047771005692
0.20092031086639342 0.6779505936753385 0.5954218829944972
0.22569913427460528 0.5945838608991266 0.7129420211127703
0.31534155492657473 0.7093770130392063 0.7199840121504828
0.4939282848676954 0.5746692884062624 0.6034047771005692
0.40092031086639346 0.6779505936753385 0.5954218829944972
0.42569913427460526 0.5945838608991266 0.7129420211127703
0.5153415549265746 0.7093770130392063 0.7199840121504828
0.6939282848676954 0.5746692884062624 0.6034047771005692
0.6009203108663934 0.6779505936753385 0.5954218829944972
0.6256991342746052 0.5945838608991266 0.7129420211127703
0.7153415549265747 0.7093770130392063 0.7199840121504828
0.8939282848676955 0.5746692884062624 0.6034047771005692
0.8009203108663935 0.6779505936753385 0.5954218829944972
0.8256991342746054 0.5945838608991266 0.7129420211127703
0.9153415549265747 0.7093770130392063 0.7199840121504828
0.09392828486769543 0.7746692884062624 0.6034047771005692
0.0009203108663934289 0.8779505936753385 0.5954218829944972
0.025699134274605257 0.7945838608991266 0.7129420211127703
0.1153415549265747 0.9093770130392063 0.7199840121504828
0.2939282848676954 0.7746692884062624 0.6034047771005692
0.20092031086639342 0.8779505936753385 0.5954218829944972
0.22569913427460528 0.7945838608991266 0.7129420211127703
0.31534155492657473 0.9093770130392063 0.7199840121504828
0.4939282848676954 0.7746692884062624 0.6034047771005692
0.40092031086639346 0.8779505936753385 0.5954218829944972
0.42569913427460526 0.7945838608991266 0.7129420211127703
0.5153415549265746 0.9093770130392063 0.7199840121504828
0.6939282848676954 0.7746692884062624 0.6034047771005692
0.6009203108663934 0.8779505936753385 0.5954218829944972
0.6256991342746052 0.7945838608991266 0.7129420211127703
0.7153415549265747 0.9093770130392063 0.7199840121504828
0.8939282848676955 0.7746692884062624 0.6034047771005692
0.8009203108663935 0.8779505936753385 0.5954218829944972
0.8256991342746054 0.7945838608991266 0.7129420211127703
0.9153415549265747 0.9093770130392063 0.7199840121504828
0.09392828486769543 -0.025330711593737627 0.8034047771005691
0.0009203108663934289 0.07795059367533842 0.7954218829944972
0.025699134274605257 -0.00541613910087347 0.9129420211127702
0.1153415549265747 0.10937701303920627 0.9199840121504828
0.2939282848676954 -0.025330711593737627 0.8034047771005691
0.20092031086639342 0.07795059367533842 0.7954218829944972
0.22569913427460528 -0.00541613910087347 0.9129420211127702
0.31534155492657473 0.10937701303920627 0.9199840121504828
0.4939282848676954 -0.025330711593737627 0.8034047771005691
0.40092031086639346 0.07795059367533842 0.7954218829944972
0.42569913427460526 -0.00541613910087347 0.9129420211127702
0.5153415549265746 0.10937701303920627 0.9199840121504828
0.6939282848676954 -0.025330711593737627 0.8034047771005691
0.6009203108663934 0.07795059367533842 0.7954218829944972
0.6256991342746052 -0.00541613910087347 0.9129420211127702
0.7153415549265747 0.10937701303920627 0.9199840121504828
0.8939282848676955 -0.025330711593737627 0.8034047771005691
0.8009203108663935 0.07795059367533842 0.7954218829944972
0.8256991342746054 -0.00541613910087347 0.9129420211127702
0.9153415549265747 0.10937701303920627 0.9199840121504828
0.09392828486769543 0.1746692884062624 0.8034047771005691
0.0009203108663934289 0.2779505936753384 0.7954218829944972
0.025699134274605257 0.19458386089912655 0.9129420211127702
0.1153415549265747 0.3093770130392063 0.9199840121504828
0.2939282848676954 0.1746692884062624 0.8034047771005691
0.20092031086639342 0.2779505936753384 0.7954218829944972
0.22569913427460528 0.19458386089912655 0.9129420211127702
0.31534155492657473 0.3093770130392063 0.9199840121504828
0.4939282848676954 0.1746692884062624 0.8034047771005691
0.40092031086639346 0.2779505936753384 0.7954218829944972
0.42569913427460526 0.19458386089912655 0.9129420211127702
0.5153415549265746 0.3093770130392063 0.9199840121504828
0.6939282848676954 0.1746692884062624 0.8034047771005691
0.6009203108663934 0.2779505936753384 0.7954218829944972
0.6256991342746052 0.19458386089912655 0.9129420211127702
0.7153415549265747 0.3093770130392063 0.9199840121504828
0.8939282848676955 0.1746692884062624 0.8034047771005691
0.8009203108663935 0.2779505936753384 0.7954218829944972
0.8256991342746054 0.19458386089912655 0.9129420211127702
0.9153415549265747 0.3093770130392063 0.9199840121504828
0.09392828486769543 0.3746692884062624 0.8034047771005691
0.0009203108663934289 0.4779505936753385 0.7954218829944972
0.025699134274605257 0.39458386089912656 0.9129420211127702
0.1153415549265747 0.5093770130392062 0.9199840121504828
0.2939282848676954 0.3746692884062624 0.8034047771005691
0.20092031086639342 0.4779505936753385 0.7954218829944972
0.22569913427460528 0.39458386089912656 0.9129420211127702
0.31534155492657473 0.5093770130392062 0.9199840121504828
0.4939282848676954 0.3746692884062624 0.8034047771005691
0.40092031086639346 0.4779505936753385 0.7954218829944972
0.42569913427460526 0.39458386089912656 0.9129420211127702
0.5153415549265746 0.5093770130392062 0.9199840121504828
0.6939282848676954 0.3746692884062624 0.8034047771005691
0.6009203108663934 0.4779505936753385 0.7954218829944972
0.6256991342746052 0.39458386089912656 0.9129420211127702
0.7153415549265747 0.5093770130392062 0.9199840121504828
0.8939282848676955 0.3746692884062624 0.8034047771005691
0.8009203108663935 0.4779505936753385 0.7954218829944972
0.8256991342746054 0.39458386089912656 0.9129420211127702
0.9153415549265747 0.5093770130392062 0.9199840121504828
0.09392828486769543 0.5746692884062624 0.8034047771005691
0.0009203108663934289 0.6779505936753385 0.7954218829944972
0.025699134274605257 0.5945838608991266 0.9129420211127702
0.1153415549265747 0.7093770130392063 0.9199840121504828
0.2939282848676954 0.5746692884062624 0.8034047771005691
0.20092031086639342 0.6779505936753385 0.7954218829944972
0.22569913427460528 0.5945838608991266 0.9129420211127702
0.31534155492657473 0.7093770130392063 0.9199840121504828
0.4939282848676954 0.5746692884062624 0.8034047771005691
0.40092031086639346 0.6779505936753385 0.7954218829944972
0.42569913427460526 0.5945838608991266 0.9129420211127702
0.5153415549265746 0.7093770130392063 0.9199840121504828
0.6939282848676954 0.5746692884062624 0.8034047771005691
0.6009203108663934 0.6779505936753385 0.7954218829944972
0.6256991342746052 0.5945838608991266 0.9129420211127702
0.7153415549265747 0.7093770130392063 0.9199840121504828
0.8939282848676955 0.5746692884062624 0.8034047771005691
0.8009203108663935 0.6779505936753385 0.7954218829944972
0.8256991342746054 0.5945838608991266 0.9129420211127702
0.9153415549265747 0.7093770130392063 0.9199840121504828
0.09392828486769543 0.7746692884062624 0.8034047771005691
0.0009203108663934289 0.8779505936753385 0.7954218829944972
0.025699134274605257 0.7945838608991266 0.9129420211127702
0.1153415549265747 0.9093770130392063 0.9199840121504828
0.2939282848676954 0.7746692884062624 0.8034047771005691
0.20092031086639342 0.8779505936753385 0.7954218829944972
0.22569913427460528 0.7945838608991266 0.9129420211127702
0.31534155492657473 0.9093770130392063 0.9199840121504828
0.4939282848676954 0.7746692884062624 0.8034047771005691
0.40092031086639346 0.8779505936753385 0.7954218829944972
0.42569913427460526 0.7945838608991266 0.9129420211127702
0.5153415549265746 0.9093770130392063 0.9199840121504828
0.6939282848676954 0.7746692884062624 0.8034047771005691
0.6009203108663934 0.8779505936753385 0.7954218829944972
0.6256991342746052 0.7945838608991266 0.9129420211127702
0.7153415549265747 0.9093770130392063 0.9199840121504828
0.8939282848676955 0.7746692884062624 0.8034047771005691
0.8009203108663935 0.8779505936753385 0.7954218829944972
0.8256991342746054 0.7945838608991266 0.9129420211127702
0.9153415549265747 0.9093770130392063 0.9199840121504828
