FCC BaO
5.61604
3.0 0.0 0.0
0.0 3.0 0.0
0.0 0.0 3.0
Ba O 
108 108 
Direct
-0.2474015723472388 -0.017388385842160233 0.051300172293246404
0.03232697991180175 0.33889610963357164 0.3057173862404221
0.021564241004814508 0.09236973558254824 0.25997234310079
0.3097568352890007 0.35921149165475164 -0.19786428265845757
0.08593176098609452 -0.017388385842160233 0.051300172293246404
0.3656603132451351 0.33889610963357164 0.3057173862404221
0.35489757433814784 0.09236973558254824 0.25997234310079
0.643090168622334 0.35921149165475164 -0.19786428265845757
0.4192650943194279 -0.017388385842160233 0.051300172293246404
0.6989936465784684 0.33889610963357164 0.3057173862404221
0.6882309076714811 0.09236973558254824 0.25997234310079
0.9764235019556674 0.35921149165475164 -0.19786428265845757
-0.2474015723472388 0.3159449474911731 0.051300172293246404
0.03232697991180175 0.6722294429669049 0.3057173862404221
0.021564241004814508 0.4257030689158815 0.25997234310079
0.3097568352890007 0.692544824988085 -0.19786428265845757
0.08593176098609452 0.3159449474911731 0.051300172293246404
0.3656603132451351 0.6722294429669049 0.3057173862404221
0.35489757433814784 0.4257030689158815 0.25997234310079
0.643090168622334 0.692544824988085 -0.19786428265845757
0.4192650943194279 0.3159449474911731 0.051300172293246404
0.6989936465784684 0.6722294429669049 0.3057173862404221
0.6882309076714811 0.4257030689158815 0.25997234310079
0.9764235019556674 0.692544824988085 -0.19786428265845757
-0.2474015723472388 0.6492782808245063 0.051300172293246404
0.03232697991180175 1.0055627763002382 0.3057173862404221
0.021564241004814508 0.7590364022492149 0.25997234310079
0.3097568352890007 1.0258781583214183 -0.19786428265845757
0.08593176098609452 0.6492782808245063 0.051300172293246404
0.3656603132451351 1.0055627763002382 0.3057173862404221
0.35489757433814784 0.7590364022492149 0.25997234310079
0.643090168622334 1.0258781583214183 -0.19786428265845757
0.4192650943194279 0.6492782808245063 0.051300172293246404
0.6989936465784684 1.0055627763002382 0.3057173862404221
0.6882309076714811 0.7590364022492149 0.25997234310079
0.9764235019556674 1.0258781583214183 -0.19786428265845757
-0.2474015723472388 -0.017388385842160233 0.3846335056265797
0.03232697991180175 0.33889610963357164 0.6390507195737555
0.021564241004814508 0.09236973558254824 0.5933056764341234
0.3097568352890007 0.35921149165475164 0.13546905067487575
0.08593176098609452 -0.017388385842160233 0.3846335056265797
0.3656603132451351 0.33889610963357164 0.6390507195737555
0.35489757433814784 0.09236973558254824 0.5933056764341234
0.643090168622334 0.35921149165475164 0.13546905067487575
0.4192650943194279 -0.017388385842160233 0.3846335056265797
0.6989936465784684 0.33889610963357164 0.6390507195737555
0.6882309076714811 0.09236973558254824 0.5933056764341234
0.9764235019556674 0.35921149165475164 0.13546905067487575
-0.2474015723472388 0.3159449474911731 0.3846335056265797
0.03232697991180175 0.6722294429669049 0.6390507195737555
0.021564241004814508 0.4257030689158815 0.5933056764341234
0.3097568352890007 0.692544824988085 0.13546905067487575
0.08593176098609452 0.3159449474911731 0.3846335056265797
0.3656603132451351 0.6722294429669049 0.6390507195737555
0.35489757433814784 0.4257030689158815 0.5933056764341234
0.643090168622334 0.692544824988085 0.13546905067487575
0.4192650943194279 0.3159449474911731 0.3846335056265797
0.6989936465784684 0.6722294429669049 0.6390507195737555
0.6882309076714811 0.4257030689158815 0.5933056764341234
0.9764235019556674 0.692544824988085 0.13546905067487575
-0.2474015723472388 0.6492782808245063 0.3846335056265797
0.03232697991180175 1.0055627763002382 0.6390507195737555
0.021564241004814508 0.7590364022492149 0.5933056764341234
0.3097568352890007 1.0258781583214183 0.13546905067487575
0.08593176098609452 0.6492782808245063 0.3846335056265797
0.3656603132451351 1.0055627763002382 0.6390507195737555
0.35489757433814784 0.7590364022492149 0.5933056764341234
0.643090168622334 1.0258781583214183 0.13546905067487575
0.4192650943194279 0.6492782808245063 0.3846335056265797
0.6989936465784684 1.0055627763002382 0.6390507195737555
0.6882309076714811 0.7590364022492149 0.5933056764341234
0.9764235019556674 1.0258781583214183 0.13546905067487575
-0.2474015723472388 -0.017388385842160233 0.717966838959913
0.03232697991180175 0.33889610963357164 0.9723840529070888
0.021564241004814508 0.09236973558254824 0.9266390097674566
0.3097568352890007 0.35921149165475164 0.46880238400820906
0.08593176098609452 -0.017388385842160233 0.717966838959913
0.3656603132451351 0.33889610963357164 0.9723840529070888
0.35489757433814784 0.09236973558254824 0.9266390097674566
0.643090168622334 0.35921149165475164 0.46880238400820906
0.4192650943194279 -0.017388385842160233 0.717966838959913
0.6989936465784684 0.33889610963357164 0.9723840529070888
0.6882309076714811 0.09236973558254824 0.9266390097674566
0.9764235019556674 0.35921149165475164 0.46880238400820906
-0.2474015723472388 0.3159449474911731 0.717966838959913
0.03232697991180175 0.6722294429669049 0.9723840529070888
0.021564241004814508 0.4257030689158815 0.9266390097674566
0.3097568352890007 0.692544824988085 0.46880238400820906
0.08593176098609452 0.3159449474911731 0.717966838959913
0.3656603132451351 0.6722294429669049 0.9723840529070888
0.35489757433814784 0.4257030689158815 0.9266390097674566
0.643090168622334 0.692544824988085 0.46880238400820906
0.4192650943194279 0.3159449474911731 0.717966838959913
0.6989936465784684 0.6722294429669049 0.9723840529070888
0.6882309076714811 0.4257030689158815 0.9266390097674566
0.9764235019556674 0.692544824988085 0.46880238400820906
-0.2474015723472388 0.6492782808245063 0.717966838959913
0.03232697991180175 1.0055627763002382 0.9723840529070888
0.021564241004814508 0.7590364022492149 0.9266390097674566
0.3097568352890007 1.0258781583214183 0.46880238400820906
0.08593176098609452 0.6492782808245063 0.717966838959913
0.3656603132451351 1.0055627763002382 0.9723840529070888
0.35489757433814784 0.7590364022492149 0.9266390097674566
0.643090168622334 1.0258781583214183 0.46880238400820906
0.4192650943194279 0.6492782808245063 0.717966838959913
0.6989936465784684 1.0055627763002382 0.9723840529070888
0.6882309076714811 0.7590364022492149 0.9266390097674566
0.9764235019556674 1.0258781583214183 0.46880238400820906
0.2460609397774398 0.08783983423694375 0.008528563953507626
0.05912273236499485 0.11242102791860849 -0.1557233657636521
-0.17664494293246474 0.1539071764603922 0.3575066502605271
0.09585380985708106 0.08108933743627846 0.07990904726156198
0.5793942731107731 0.08783983423694375 0.008528563953507626
0.39245606569832814 0.11242102791860849 -0.1557233657636521
0.15668839040086857 0.1539071764603922 0.3575066502605271
0.4291871431904144 0.08108933743627846 0.07990904726156198
0.9127276064441064 0.08783983423694375 0.008528563953507626
0.7257893990316615 0.11242102791860849 -0.1557233657636521
0.49002172373420194 0.1539071764603922 0.3575066502605271
0.7625204765237477 0.08108933743627846 0.07990904726156198
0.2460609397774398 0.42117316757027706 0.008528563953507626
0.05912273236499485 0.4457543612519418 -0.1557233657636521
-0.17664494293246474 0.4872405097937256 0.3575066502605271
0.09585380985708106 0.41442267076961176 0.07990904726156198
0.5793942731107731 0.42117316757027706 0.008528563953507626
0.39245606569832814 0.4457543612519418 -0.1557233657636521
0.15668839040086857 0.4872405097937256 0.3575066502605271
0.4291871431904144 0.41442267076961176 0.07990904726156198
0.9127276064441064 0.42117316757027706 0.008528563953507626
0.7257893990316615 0.4457543612519418 -0.1557233657636521
0.49002172373420194 0.4872405097937256 0.3575066502605271
0.7625204765237477 0.41442267076961176 0.07990904726156198
0.2460609397774398 0.7545065009036104 0.008528563953507626
0.05912273236499485 0.7790876945852752 -0.1557233657636521
-0.17664494293246474 0.8205738431270588 0.3575066502605271
0.09585380985708106 0.7477560041029451 0.07990904726156198
0.5793942731107731 0.7545065009036104 0.008528563953507626
0.39245606569832814 0.7790876945852752 -0.1557233657636521
0.15668839040086857 0.8205738431270588 0.3575066502605271
0.4291871431904144 0.7477560041029451 0.07990904726156198
0.9127276064441064 0.7545065009036104 0.008528563953507626
0.7257893990316615 0.7790876945852752 -0.1557233657636521
0.49002172373420194 0.8205738431270588 0.3575066502605271
0.7625204765237477 0.7477560041029451 0.07990904726156198
0.2460609397774398 0.08783983423694375 0.3418618972868409
0.05912273236499485 0.11242102791860849 0.17760996756968123
-0.17664494293246474 0.1539071764603922 0.6908399835938603
0.09585380985708106 0.08108933743627846 0.4132423805948953
0.5793942731107731 0.08783983423694375 0.3418618972868409
0.39245606569832814 0.11242102791860849 0.17760996756968123
0.15668839040086857 0.1539071764603922 0.6908399835938603
0.4291871431904144 0.08108933743627846 0.4132423805948953
0.9127276064441064 0.08783983423694375 0.3418618972868409
0.7257893990316615 0.11242102791860849 0.17760996756968123
0.49002172373420194 0.1539071764603922 0.6908399835938603
0.7625204765237477 0.08108933743627846 0.4132423805948953
0.2460609397774398 0.42117316757027706 0.3418618972868409
0.05912273236499485 0.4457543612519418 0.17760996756968123
-0.17664494293246474 0.4872405097937256 0.6908399835938603
0.09585380985708106 0.41442267076961176 0.4132423805948953
0.5793942731107731 0.42117316757027706 0.3418618972868409
0.39245606569832814 0.4457543612519418 0.17760996756968123
0.15668839040086857 0.4872405097937256 0.6908399835938603
0.4291871431904144 0.41442267076961176 0.4132423805948953
0.9127276064441064 0.42117316757027706 0.3418618972868409
0.7257893990316615 0.4457543612519418 0.17760996756968123
0.49002172373420194 0.4872405097937256 0.6908399835938603
0.7625204765237477 0.41442267076961176 0.4132423805948953
0.2460609397774398 0.7545065009036104 0.3418618972868409
0.05912273236499485 0.7790876945852752 0.17760996756968123
-0.17664494293246474 0.8205738431270588 0.6908399835938603
0.09585380985708106 0.7477560041029451 0.4132423805948953
0.5793942731107731 0.7545065009036104 0.3418618972868409
0.39245606569832814 0.7790876945852752 0.17760996756968123
0.15668839040086857 0.8205738431270588 0.6908399835938603
0.4291871431904144 0.7477560041029451 0.4132423805948953
0.9127276064441064 0.7545065009036104 0.3418618972868409
0.7257893990316615 0.7790876945852752 0.17760996756968123
0.49002172373420194 0.8205738431270588 0.6908399835938603
0.7625204765237477 0.7477560041029451 0.4132423805948953
0.2460609397774398 0.08783983423694375 0.6751952306201743
0.05912273236499485 0.11242102791860849 0.5109433009030145
-0.17664494293246474 0.1539071764603922 1.0241733169271936
0.09585380985708106 0.08108933743627846 0.7465757139282286
0.5793942731107731 0.08783983423694375 0.6751952306201743
0.39245606569832814 0.11242102791860849 0.5109433009030145
0.15668839040086857 0.1539071764603922 1.0241733169271936
0.4291871431904144 0.08108933743627846 0.7465757139282286
0.9127276064441064 0.08783983423694375 0.6751952306201743
0.7257893990316615 0.11242102791860849 0.5109433009030145
0.49002172373420194 0.1539071764603922 1.0241733169271936
0.7625204765237477 0.08108933743627846 0.7465757139282286
0.2460609397774398 0.42117316757027706 0.6751952306201743
0.05912273236499485 0.4457543612519418 0.5109433009030145
-0.17664494293246474 0.4872405097937256 1.0241733169271936
0.09585380985708106 0.41442267076961176 0.7465757139282286
0.5793942731107731 0.42117316757027706 0.6751952306201743
0.39245606569832814 0.4457543612519418 0.5109433009030145
0.15668839040086857 0.4872405097937256 1.0241733169271936
0.4291871431904144 0.41442267076961176 0.7465757139282286
0.9127276064441064 0.42117316757027706 0.6751952306201743
0.7257893990316615 0.4457543612519418 0.5109433009030145
0.49002172373420194 0.4872405097937256 1.0241733169271936
0.7625204765237477 0.41442267076961176 0.7465757139282286
0.2460609397774398 0.7545065009036104 0.6751952306201743
0.05912273236499485 0.7790876945852752 0.5109433009030145
-0.17664494293246474 0.8205738431270588 1.0241733169271936
0.09585380985708106 0.7477560041029451 0.7465757139282286
0.5793942731107731 0.7545065009036104 0.6751952306201743
0.39245606569832814 0.7790876945852752 0.5109433009030145
0.15668839040086857 0.8205738431270588 1.0241733169271936
0.4291871431904144 0.7477560041029451 0.7465757139282286
0.9127276064441064 0.7545065009036104 0.6751952306201743
0.7257893990316615 0.7790876945852752 0.5109433009030145
0.49002172373420194 0.8205738431270588 1.0241733169271936
0.7625204765237477 0.7477560041029451 0.7465757139282286
