FCC BaO
3.971
5.0 0.0 0.0
0.0 5.0 0.0
0.0 0.0 5.0
Ba O 
500 500 
Direct
0.014953723131753955 0.004248854668946193 -0.015378978332744542
-0.01267067045782023 0.12705954960885296 0.12883955951980186
0.08201392001336442 -0.006606074387878815 0.082826369591137
0.10824987691314965 0.0980809461394764 0.019581177529363447
0.21495372313175395 0.004248854668946193 -0.015378978332744542
0.1873293295421798 0.12705954960885296 0.12883955951980186
0.2820139200133644 -0.006606074387878815 0.082826369591137
0.30824987691314965 0.0980809461394764 0.019581177529363447
0.414953723131754 0.004248854668946193 -0.015378978332744542
0.3873293295421798 0.12705954960885296 0.12883955951980186
0.4820139200133644 -0.006606074387878815 0.082826369591137
0.5082498769131497 0.0980809461394764 0.019581177529363447
0.614953723131754 0.004248854668946193 -0.015378978332744542
0.5873293295421798 0.12705954960885296 0.12883955951980186
0.6820139200133645 -0.006606074387878815 0.082826369591137
0.7082498769131497 0.0980809461394764 0.019581177529363447
0.8149537231317541 0.004248854668946193 -0.015378978332744542
0.7873293295421798 0.12705954960885296 0.12883955951980186
0.8820139200133644 -0.006606074387878815 0.082826369591137
0.9082498769131497 0.0980809461394764 0.019581177529363447
0.014953723131753955 0.20424885466894618 -0.015378978332744542
-0.01267067045782023 0.327059549608853 0.12883955951980186
0.08201392001336442 0.1933939256121212 0.082826369591137
0.10824987691314965 0.2980809461394764 0.019581177529363447
0.21495372313175395 0.20424885466894618 -0.015378978332744542
0.1873293295421798 0.327059549608853 0.12883955951980186
0.2820139200133644 0.1933939256121212 0.082826369591137
0.30824987691314965 0.2980809461394764 0.019581177529363447
0.414953723131754 0.20424885466894618 -0.015378978332744542
0.3873293295421798 0.327059549608853 0.12883955951980186
0.4820139200133644 0.1933939256121212 0.082826369591137
0.5082498769131497 0.2980809461394764 0.019581177529363447
0.614953723131754 0.20424885466894618 -0.015378978332744542
0.5873293295421798 0.327059549608853 0.12883955951980186
0.6820139200133645 0.1933939256121212 0.082826369591137
0.7082498769131497 0.2980809461394764 0.019581177529363447
0.8149537231317541 0.20424885466894618 -0.015378978332744542
0.7873293295421798 0.327059549608853 0.12883955951980186
0.8820139200133644 0.1933939256121212 0.082826369591137
0.9082498769131497 0.2980809461394764 0.019581177529363447
0.014953723131753955 0.4042488546689462 -0.015378978332744542
-0.01267067045782023 0.5270595496088529 0.12883955951980186
0.08201392001336442 0.3933939256121212 0.082826369591137
0.10824987691314965 0.4980809461394764 0.019581177529363447
0.21495372313175395 0.4042488546689462 -0.015378978332744542
0.1873293295421798 0.5270595496088529 0.12883955951980186
0.2820139200133644 0.3933939256121212 0.082826369591137
0.30824987691314965 0.4980809461394764 0.019581177529363447
0.414953723131754 0.4042488546689462 -0.015378978332744542
0.3873293295421798 0.5270595496088529 0.12883955951980186
0.4820139200133644 0.3933939256121212 0.082826369591137
0.5082498769131497 0.4980809461394764 0.019581177529363447
0.614953723131754 0.4042488546689462 -0.015378978332744542
0.5873293295421798 0.5270595496088529 0.12883955951980186
0.6820139200133645 0.3933939256121212 0.082826369591137
0.7082498769131497 0.4980809461394764 0.019581177529363447
0.8149537231317541 0.4042488546689462 -0.015378978332744542
0.7873293295421798 0.5270595496088529 0.12883955951980186
0.8820139200133644 0.3933939256121212 0.082826369591137
0.9082498769131497 0.4980809461394764 0.019581177529363447
0.014953723131753955 0.6042488546689463 -0.015378978332744542
-0.01267067045782023 0.727059549608853 0.12883955951980186
0.08201392001336442 0.5933939256121212 0.082826369591137
0.10824987691314965 0.6980809461394765 0.019581177529363447
0.21495372313175395 0.6042488546689463 -0.015378978332744542
0.1873293295421798 0.727059549608853 0.12883955951980186
0.2820139200133644 0.5933939256121212 0.082826369591137
0.30824987691314965 0.6980809461394765 0.019581177529363447
0.414953723131754 0.6042488546689463 -0.015378978332744542
0.3873293295421798 0.727059549608853 0.12883955951980186
0.4820139200133644 0.5933939256121212 0.082826369591137
0.5082498769131497 0.6980809461394765 0.019581177529363447
0.614953723131754 0.6042488546689463 -0.015378978332744542
0.5873293295421798 0.727059549608853 0.12883955951980186
0.6820139200133645 0.5933939256121212 0.082826369591137
0.7082498769131497 0.6980809461394765 0.019581177529363447
0.8149537231317541 0.6042488546689463 -0.015378978332744542
0.7873293295421798 0.727059549608853 0.12883955951980186
0.8820139200133644 0.5933939256121212 0.082826369591137
0.9082498769131497 0.6980809461394765 0.019581177529363447
0.014953723131753955 0.8042488546689462 -0.015378978332744542
-0.01267067045782023 0.927059549608853 0.12883955951980186
0.08201392001336442 0.7933939256121212 0.082826369591137
0.10824987691314965 0.8980809461394763 0.019581177529363447
0.21495372313175395 0.8042488546689462 -0.015378978332744542
0.1873293295421798 0.927059549608853 0.12883955951980186
0.2820139200133644 0.7933939256121212 0.082826369591137
0.30824987691314965 0.8980809461394763 0.019581177529363447
0.414953723131754 0.8042488546689462 -0.015378978332744542
0.3873293295421798 0.927059549608853 0.12883955951980186
0.4820139200133644 0.7933939256121212 0.082826369591137
0.5082498769131497 0.8980809461394763 0.019581177529363447
0.614953723131754 0.8042488546689462 -0.015378978332744542
0.5873293295421798 0.927059549608853 0.12883955951980186
0.6820139200133645 0.7933939256121212 0.082826369591137
0.7082498769131497 0.8980809461394763 0.019581177529363447
0.8149537231317541 0.8042488546689462 -0.015378978332744542
0.7873293295421798 0.927059549608853 0.12883955951980186
0.8820139200133644 0.7933939256121212 0.082826369591137
0.9082498769131497 0.8980809461394763 0.019581177529363447
0.014953723131753955 0.004248854668946193 0.18462102166725547
-0.01267067045782023 0.12705954960885296 0.32883955951980187
0.08201392001336442 -0.006606074387878815 0.282826369591137
0.10824987691314965 0.0980809461394764 0.21958117752936346
0.21495372313175395 0.004248854668946193 0.18462102166725547
0.1873293295421798 0.12705954960885296 0.32883955951980187
0.2820139200133644 -0.006606074387878815 0.282826369591137
0.30824987691314965 0.0980809461394764 0.21958117752936346
0.414953723131754 0.004248854668946193 0.18462102166725547
0.3873293295421798 0.12705954960885296 0.32883955951980187
0.4820139200133644 -0.006606074387878815 0.282826369591137
0.5082498769131497 0.0980809461394764 0.21958117752936346
0.614953723131754 0.004248854668946193 0.18462102166725547
0.5873293295421798 0.12705954960885296 0.32883955951980187
0.6820139200133645 -0.006606074387878815 0.282826369591137
0.7082498769131497 0.0980809461394764 0.21958117752936346
0.8149537231317541 0.004248854668946193 0.18462102166725547
0.7873293295421798 0.12705954960885296 0.32883955951980187
0.8820139200133644 -0.006606074387878815 0.282826369591137
0.9082498769131497 0.0980809461394764 0.21958117752936346
0.014953723131753955 0.20424885466894618 0.18462102166725547
-0.01267067045782023 0.327059549608853 0.32883955951980187
0.08201392001336442 0.1933939256121212 0.282826369591137
0.10824987691314965 0.2980809461394764 0.21958117752936346
0.21495372313175395 0.20424885466894618 0.18462102166725547
0.1873293295421798 0.327059549608853 0.32883955951980187
0.2820139200133644 0.1933939256121212 0.282826369591137
0.30824987691314965 0.2980809461394764 0.21958117752936346
0.414953723131754 0.20424885466894618 0.18462102166725547
0.3873293295421798 0.327059549608853 0.32883955951980187
0.4820139200133644 0.1933939256121212 0.282826369591137
0.5082498769131497 0.2980809461394764 0.21958117752936346
0.614953723131754 0.20424885466894618 0.18462102166725547
0.5873293295421798 0.327059549608853 0.32883955951980187
0.6820139200133645 0.1933939256121212 0.282826369591137
0.7082498769131497 0.2980809461394764 0.21958117752936346
0.8149537231317541 0.20424885466894618 0.18462102166725547
0.7873293295421798 0.327059549608853 0.32883955951980187
0.8820139200133644 0.1933939256121212 0.282826369591137
0.9082498769131497 0.2980809461394764 0.21958117752936346
0.014953723131753955 0.4042488546689462 0.18462102166725547
-0.01267067045782023 0.5270595496088529 0.32883955951980187
0.08201392001336442 0.3933939256121212 0.282826369591137
0.10824987691314965 0.4980809461394764 0.21958117752936346
0.21495372313175395 0.4042488546689462 0.18462102166725547
0.1873293295421798 0.5270595496088529 0.32883955951980187
0.2820139200133644 0.3933939256121212 0.282826369591137
0.30824987691314965 0.4980809461394764 0.21958117752936346
0.414953723131754 0.4042488546689462 0.18462102166725547
0.3873293295421798 0.5270595496088529 0.32883955951980187
0.4820139200133644 0.3933939256121212 0.282826369591137
0.5082498769131497 0.4980809461394764 0.21958117752936346
0.614953723131754 0.4042488546689462 0.18462102166725547
0.5873293295421798 0.5270595496088529 0.32883955951980187
0.6820139200133645 0.3933939256121212 0.282826369591137
0.7082498769131497 0.4980809461394764 0.21958117752936346
0.8149537231317541 0.4042488546689462 0.18462102166725547
0.7873293295421798 0.5270595496088529 0.32883955951980187
0.8820139200133644 0.3933939256121212 0.282826369591137
0.9082498769131497 0.4980809461394764 0.21958117752936346
0.014953723131753955 0.6042488546689463 0.18462102166725547
-0.01267067045782023 0.727059549608853 0.32883955951980187
0.08201392001336442 0.5933939256121212 0.282826369591137
0.10824987691314965 0.6980809461394765 0.21958117752936346
0.21495372313175395 0.6042488546689463 0.18462102166725547
0.1873293295421798 0.727059549608853 0.32883955951980187
0.2820139200133644 0.5933939256121212 0.282826369591137
0.30824987691314965 0.6980809461394765 0.21958117752936346
0.414953723131754 0.6042488546689463 0.18462102166725547
0.3873293295421798 0.727059549608853 0.32883955951980187
0.4820139200133644 0.5933939256121212 0.282826369591137
0.5082498769131497 0.6980809461394765 0.21958117752936346
0.614953723131754 0.6042488546689463 0.18462102166725547
0.5873293295421798 0.727059549608853 0.32883955951980187
0.6820139200133645 0.5933939256121212 0.282826369591137
0.7082498769131497 0.6980809461394765 0.21958117752936346
0.8149537231317541 0.6042488546689463 0.18462102166725547
0.7873293295421798 0.727059549608853 0.32883955951980187
0.8820139200133644 0.5933939256121212 0.282826369591137
0.9082498769131497 0.6980809461394765 0.21958117752936346
0.014953723131753955 0.8042488546689462 0.18462102166725547
-0.01267067045782023 0.927059549608853 0.32883955951980187
0.08201392001336442 0.7933939256121212 0.282826369591137
0.10824987691314965 0.8980809461394763 0.21958117752936346
0.21495372313175395 0.8042488546689462 0.18462102166725547
0.1873293295421798 0.927059549608853 0.32883955951980187
0.2820139200133644 0.7933939256121212 0.282826369591137
0.30824987691314965 0.8980809461394763 0.21958117752936346
0.414953723131754 0.8042488546689462 0.18462102166725547
0.3873293295421798 0.927059549608853 0.32883955951980187
0.4820139200133644 0.7933939256121212 0.282826369591137
0.5082498769131497 0.8980809461394763 0.21958117752936346
0.614953723131754 0.8042488546689462 0.18462102166725547
0.5873293295421798 0.927059549608853 0.32883955951980187
0.6820139200133645 0.7933939256121212 0.282826369591137
0.7082498769131497 0.8980809461394763 0.21958117752936346
0.8149537231317541 0.8042488546689462 0.18462102166725547
0.7873293295421798 0.927059549608853 0.32883955951980187
0.8820139200133644 0.7933939256121212 0.282826369591137
0.9082498769131497 0.8980809461394763 0.21958117752936346
0.014953723131753955 0.004248854668946193 0.3846210216672555
-0.01267067045782023 0.12705954960885296 0.5288395595198019
0.08201392001336442 -0.006606074387878815 0.482826369591137
0.10824987691314965 0.0980809461394764 0.41958117752936347
0.21495372313175395 0.004248854668946193 0.3846210216672555
0.1873293295421798 0.12705954960885296 0.5288395595198019
0.2820139200133644 -0.006606074387878815 0.482826369591137
0.30824987691314965 0.0980809461394764 0.41958117752936347
0.414953723131754 0.004248854668946193 0.3846210216672555
0.3873293295421798 0.12705954960885296 0.5288395595198019
0.4820139200133644 -0.006606074387878815 0.482826369591137
0.5082498769131497 0.0980809461394764 0.41958117752936347
0.614953723131754 0.004248854668946193 0.3846210216672555
0.5873293295421798 0.12705954960885296 0.5288395595198019
0.6820139200133645 -0.006606074387878815 0.482826369591137
0.7082498769131497 0.0980809461394764 0.41958117752936347
0.8149537231317541 0.004248854668946193 0.3846210216672555
0.7873293295421798 0.12705954960885296 0.5288395595198019
0.8820139200133644 -0.006606074387878815 0.482826369591137
0.9082498769131497 0.0980809461394764 0.41958117752936347
0.014953723131753955 0.20424885466894618 0.3846210216672555
-0.01267067045782023 0.327059549608853 0.5288395595198019
0.08201392001336442 0.1933939256121212 0.482826369591137
0.10824987691314965 0.2980809461394764 0.41958117752936347
0.21495372313175395 0.20424885466894618 0.3846210216672555
0.1873293295421798 0.327059549608853 0.5288395595198019
0.2820139200133644 0.1933939256121212 0.482826369591137
0.30824987691314965 0.2980809461394764 0.41958117752936347
0.414953723131754 0.20424885466894618 0.3846210216672555
0.3873293295421798 0.327059549608853 0.5288395595198019
0.4820139200133644 0.1933939256121212 0.482826369591137
0.5082498769131497 0.2980809461394764 0.41958117752936347
0.614953723131754 0.20424885466894618 0.3846210216672555
0.5873293295421798 0.327059549608853 0.5288395595198019
0.6820139200133645 0.1933939256121212 0.482826369591137
0.7082498769131497 0.2980809461394764 0.41958117752936347
0.8149537231317541 0.20424885466894618 0.3846210216672555
0.7873293295421798 0.327059549608853 0.5288395595198019
0.8820139200133644 0.1933939256121212 0.482826369591137
0.9082498769131497 0.2980809461394764 0.41958117752936347
0.014953723131753955 0.4042488546689462 0.3846210216672555
-0.01267067045782023 0.5270595496088529 0.5288395595198019
0.08201392001336442 0.3933939256121212 0.482826369591137
0.10824987691314965 0.4980809461394764 0.41958117752936347
0.21495372313175395 0.4042488546689462 0.3846210216672555
0.1873293295421798 0.5270595496088529 0.5288395595198019
0.2820139200133644 0.3933939256121212 0.482826369591137
0.30824987691314965 0.4980809461394764 0.41958117752936347
0.414953723131754 0.4042488546689462 0.3846210216672555
0.3873293295421798 0.5270595496088529 0.5288395595198019
0.4820139200133644 0.3933939256121212 0.482826369591137
0.5082498769131497 0.4980809461394764 0.41958117752936347
0.614953723131754 0.4042488546689462 0.3846210216672555
0.5873293295421798 0.5270595496088529 0.5288395595198019
0.6820139200133645 0.3933939256121212 0.482826369591137
0.7082498769131497 0.4980809461394764 0.41958117752936347
0.8149537231317541 0.4042488546689462 0.3846210216672555
0.7873293295421798 0.5270595496088529 0.5288395595198019
0.8820139200133644 0.3933939256121212 0.482826369591137
0.9082498769131497 0.4980809461394764 0.41958117752936347
0.014953723131753955 0.6042488546689463 0.3846210216672555
-0.01267067045782023 0.727059549608853 0.5288395595198019
0.08201392001336442 0.5933939256121212 0.482826369591137
0.10824987691314965 0.6980809461394765 0.41958117752936347
0.21495372313175395 0.6042488546689463 0.3846210216672555
0.1873293295421798 0.727059549608853 0.5288395595198019
0.2820139200133644 0.5933939256121212 0.482826369591137
0.30824987691314965 0.6980809461394765 0.41958117752936347
0.414953723131754 0.6042488546689463 0.3846210216672555
0.3873293295421798 0.727059549608853 0.5288395595198019
0.4820139200133644 0.5933939256121212 0.482826369591137
0.5082498769131497 0.6980809461394765 0.41958117752936347
0.614953723131754 0.6042488546689463 0.3846210216672555
0.5873293295421798 0.727059549608853 0.5288395595198019
0.6820139200133645 0.5933939256121212 0.482826369591137
0.7082498769131497 0.6980809461394765 0.41958117752936347
0.8149537231317541 0.6042488546689463 0.3846210216672555
0.7873293295421798 0.727059549608853 0.5288395595198019
0.8820139200133644 0.5933939256121212 0.482826369591137
0.9082498769131497 0.6980809461394765 0.41958117752936347
0.014953723131753955 0.8042488546689462 0.3846210216672555
-0.01267067045782023 0.927059549608853 0.5288395595198019
0.08201392001336442 0.7933939256121212 0.482826369591137
0.10824987691314965 0.8980809461394763 0.41958117752936347
0.21495372313175395 0.8042488546689462 0.3846210216672555
0.1873293295421798 0.927059549608853 0.5288395595198019
0.2820139200133644 0.7933939256121212 0.482826369591137
0.30824987691314965 0.8980809461394763 0.41958117752936347
0.414953723131754 0.8042488546689462 0.3846210216672555
0.3873293295421798 0.927059549608853 0.5288395595198019
0.4820139200133644 0.7933939256121212 0.482826369591137
0.5082498769131497 0.8980809461394763 0.41958117752936347
0.614953723131754 0.8042488546689462 0.3846210216672555
0.5873293295421798 0.927059549608853 0.5288395595198019
0.6820139200133645 0.7933939256121212 0.482826369591137
0.7082498769131497 0.8980809461394763 0.41958117752936347
0.8149537231317541 0.8042488546689462 0.3846210216672555
0.7873293295421798 0.927059549608853 0.5288395595198019
0.8820139200133644 0.7933939256121212 0.482826369591137
0.9082498769131497 0.8980809461394763 0.41958117752936347
0.014953723131753955 0.004248854668946193 0.5846210216672555
-0.01267067045782023 0.12705954960885296 0.7288395595198018
0.08201392001336442 -0.006606074387878815 0.6828263695911371
0.10824987691314965 0.0980809461394764 0.6195811775293635
0.21495372313175395 0.004248854668946193 0.5846210216672555
0.1873293295421798 0.12705954960885296 0.7288395595198018
0.2820139200133644 -0.006606074387878815 0.6828263695911371
0.30824987691314965 0.0980809461394764 0.6195811775293635
0.414953723131754 0.004248854668946193 0.5846210216672555
0.3873293295421798 0.12705954960885296 0.7288395595198018
0.4820139200133644 -0.006606074387878815 0.6828263695911371
0.5082498769131497 0.0980809461394764 0.6195811775293635
0.614953723131754 0.004248854668946193 0.5846210216672555
0.5873293295421798 0.12705954960885296 0.7288395595198018
0.6820139200133645 -0.006606074387878815 0.6828263695911371
0.7082498769131497 0.0980809461394764 0.6195811775293635
0.8149537231317541 0.004248854668946193 0.5846210216672555
0.7873293295421798 0.12705954960885296 0.7288395595198018
0.8820139200133644 -0.006606074387878815 0.6828263695911371
0.9082498769131497 0.0980809461394764 0.6195811775293635
0.014953723131753955 0.20424885466894618 0.5846210216672555
-0.01267067045782023 0.327059549608853 0.7288395595198018
0.08201392001336442 0.1933939256121212 0.6828263695911371
0.10824987691314965 0.2980809461394764 0.6195811775293635
0.21495372313175395 0.20424885466894618 0.5846210216672555
0.1873293295421798 0.327059549608853 0.7288395595198018
0.2820139200133644 0.1933939256121212 0.6828263695911371
0.30824987691314965 0.2980809461394764 0.6195811775293635
0.414953723131754 0.20424885466894618 0.5846210216672555
0.3873293295421798 0.327059549608853 0.7288395595198018
0.4820139200133644 0.1933939256121212 0.6828263695911371
0.5082498769131497 0.2980809461394764 0.6195811775293635
0.614953723131754 0.20424885466894618 0.5846210216672555
0.5873293295421798 0.327059549608853 0.7288395595198018
0.6820139200133645 0.1933939256121212 0.6828263695911371
0.7082498769131497 0.2980809461394764 0.6195811775293635
0.8149537231317541 0.20424885466894618 0.5846210216672555
0.7873293295421798 0.327059549608853 0.7288395595198018
0.8820139200133644 0.1933939256121212 0.6828263695911371
0.9082498769131497 0.2980809461394764 0.6195811775293635
0.014953723131753955 0.4042488546689462 0.5846210216672555
-0.01267067045782023 0.5270595496088529 0.7288395595198018
0.08201392001336442 0.3933939256121212 0.6828263695911371
0.10824987691314965 0.4980809461394764 0.6195811775293635
0.21495372313175395 0.4042488546689462 0.5846210216672555
0.1873293295421798 0.5270595496088529 0.7288395595198018
0.2820139200133644 0.3933939256121212 0.6828263695911371
0.30824987691314965 0.4980809461394764 0.6195811775293635
0.414953723131754 0.4042488546689462 0.5846210216672555
0.3873293295421798 0.5270595496088529 0.7288395595198018
0.4820139200133644 0.3933939256121212 0.6828263695911371
0.5082498769131497 0.4980809461394764 0.6195811775293635
0.614953723131754 0.4042488546689462 0.5846210216672555
0.5873293295421798 0.5270595496088529 0.7288395595198018
0.6820139200133645 0.3933939256121212 0.6828263695911371
0.7082498769131497 0.4980809461394764 0.6195811775293635
0.8149537231317541 0.4042488546689462 0.5846210216672555
0.7873293295421798 0.5270595496088529 0.7288395595198018
0.8820139200133644 0.3933939256121212 0.6828263695911371
0.9082498769131497 0.4980809461394764 0.6195811775293635
0.014953723131753955 0.6042488546689463 0.5846210216672555
-0.01267067045782023 0.727059549608853 0.7288395595198018
0.08201392001336442 0.5933939256121212 0.6828263695911371
0.10824987691314965 0.6980809461394765 0.6195811775293635
0.21495372313175395 0.6042488546689463 0.5846210216672555
0.1873293295421798 0.727059549608853 0.7288395595198018
0.2820139200133644 0.5933939256121212 0.6828263695911371
0.30824987691314965 0.6980809461394765 0.6195811775293635
0.414953723131754 0.6042488546689463 0.5846210216672555
0.3873293295421798 0.727059549608853 0.7288395595198018
0.4820139200133644 0.5933939256121212 0.6828263695911371
0.5082498769131497 0.6980809461394765 0.6195811775293635
0.614953723131754 0.6042488546689463 0.5846210216672555
0.5873293295421798 0.727059549608853 0.7288395595198018
0.6820139200133645 0.5933939256121212 0.6828263695911371
0.7082498769131497 0.6980809461394765 0.6195811775293635
0.8149537231317541 0.6042488546689463 0.5846210216672555
0.7873293295421798 0.727059549608853 0.7288395595198018
0.8820139200133644 0.5933939256121212 0.6828263695911371
0.9082498769131497 0.6980809461394765 0.6195811775293635
0.014953723131753955 0.8042488546689462 0.5846210216672555
-0.01267067045782023 0.927059549608853 0.7288395595198018
0.08201392001336442 0.7933939256121212 0.6828263695911371
0.10824987691314965 0.8980809461394763 0.6195811775293635
0.21495372313175395 0.8042488546689462 0.5846210216672555
0.1873293295421798 0.927059549608853 0.7288395595198018
0.2820139200133644 0.7933939256121212 0.6828263695911371
0.30824987691314965 0.8980809461394763 0.6195811775293635
0.414953723131754 0.8042488546689462 0.5846210216672555
0.3873293295421798 0.927059549608853 0.7288395595198018
0.4820139200133644 0.7933939256121212 0.6828263695911371
0.5082498769131497 0.8980809461394763 0.6195811775293635
0.614953723131754 0.8042488546689462 0.5846210216672555
0.5873293295421798 0.927059549608853 0.7288395595198018
0.6820139200133645 0.7933939256121212 0.6828263695911371
0.7082498769131497 0.8980809461394763 0.6195811775293635
0.8149537231317541 0.8042488546689462 0.5846210216672555
0.7873293295421798 0.927059549608853 0.7288395595198018
0.8820139200133644 0.7933939256121212 0.6828263695911371
0.9082498769131497 0.8980809461394763 0.6195811775293635
0.014953723131753955 0.004248854668946193 0.7846210216672556
-0.01267067045782023 0.12705954960885296 0.9288395595198019
0.08201392001336442 -0.006606074387878815 0.8828263695911369
0.10824987691314965 0.0980809461394764 0.8195811775293635
0.21495372313175395 0.004248854668946193 0.7846210216672556
0.1873293295421798 0.12705954960885296 0.9288395595198019
0.2820139200133644 -0.006606074387878815 0.8828263695911369
0.30824987691314965 0.0980809461394764 0.8195811775293635
0.414953723131754 0.004248854668946193 0.7846210216672556
0.3873293295421798 0.12705954960885296 0.9288395595198019
0.4820139200133644 -0.006606074387878815 0.8828263695911369
0.5082498769131497 0.0980809461394764 0.8195811775293635
0.614953723131754 0.004248854668946193 0.7846210216672556
0.5873293295421798 0.12705954960885296 0.9288395595198019
0.6820139200133645 -0.006606074387878815 0.8828263695911369
0.7082498769131497 0.0980809461394764 0.8195811775293635
0.8149537231317541 0.004248854668946193 0.7846210216672556
0.7873293295421798 0.12705954960885296 0.9288395595198019
0.8820139200133644 -0.006606074387878815 0.8828263695911369
0.9082498769131497 0.0980809461394764 0.8195811775293635
0.014953723131753955 0.20424885466894618 0.7846210216672556
-0.01267067045782023 0.327059549608853 0.9288395595198019
0.08201392001336442 0.1933939256121212 0.8828263695911369
0.10824987691314965 0.2980809461394764 0.8195811775293635
0.21495372313175395 0.20424885466894618 0.7846210216672556
0.1873293295421798 0.327059549608853 0.9288395595198019
0.2820139200133644 0.1933939256121212 0.8828263695911369
0.30824987691314965 0.2980809461394764 0.8195811775293635
0.414953723131754 0.20424885466894618 0.7846210216672556
0.3873293295421798 0.327059549608853 0.9288395595198019
0.4820139200133644 0.1933939256121212 0.8828263695911369
0.5082498769131497 0.2980809461394764 0.8195811775293635
0.614953723131754 0.20424885466894618 0.7846210216672556
0.5873293295421798 0.327059549608853 0.9288395595198019
0.6820139200133645 0.1933939256121212 0.8828263695911369
0.7082498769131497 0.2980809461394764 0.8195811775293635
0.8149537231317541 0.20424885466894618 0.7846210216672556
0.7873293295421798 0.327059549608853 0.9288395595198019
0.8820139200133644 0.1933939256121212 0.8828263695911369
0.9082498769131497 0.2980809461394764 0.8195811775293635
0.014953723131753955 0.4042488546689462 0.7846210216672556
-0.01267067045782023 0.5270595496088529 0.9288395595198019
0.08201392001336442 0.3933939256121212 0.8828263695911369
0.10824987691314965 0.4980809461394764 0.8195811775293635
0.21495372313175395 0.4042488546689462 0.7846210216672556
0.1873293295421798 0.5270595496088529 0.9288395595198019
0.2820139200133644 0.3933939256121212 0.8828263695911369
0.30824987691314965 0.4980809461394764 0.8195811775293635
0.414953723131754 0.4042488546689462 0.7846210216672556
0.3873293295421798 0.5270595496088529 0.9288395595198019
0.4820139200133644 0.3933939256121212 0.8828263695911369
0.5082498769131497 0.4980809461394764 0.8195811775293635
0.614953723131754 0.4042488546689462 0.7846210216672556
0.5873293295421798 0.5270595496088529 0.9288395595198019
0.6820139200133645 0.3933939256121212 0.8828263695911369
0.7082498769131497 0.4980809461394764 0.8195811775293635
0.8149537231317541 0.4042488546689462 0.7846210216672556
0.7873293295421798 0.5270595496088529 0.9288395595198019
0.8820139200133644 0.3933939256121212 0.8828263695911369
0.9082498769131497 0.4980809461394764 0.8195811775293635
0.014953723131753955 0.6042488546689463 0.7846210216672556
-0.01267067045782023 0.727059549608853 0.9288395595198019
0.08201392001336442 0.5933939256121212 0.8828263695911369
0.10824987691314965 0.6980809461394765 0.8195811775293635
0.21495372313175395 0.6042488546689463 0.7846210216672556
0.1873293295421798 0.727059549608853 0.9288395595198019
0.2820139200133644 0.5933939256121212 0.8828263695911369
0.30824987691314965 0.6980809461394765 0.8195811775293635
0.414953723131754 0.6042488546689463 0.7846210216672556
0.3873293295421798 0.727059549608853 0.9288395595198019
0.4820139200133644 0.5933939256121212 0.8828263695911369
0.5082498769131497 0.6980809461394765 0.8195811775293635
0.614953723131754 0.6042488546689463 0.7846210216672556
0.5873293295421798 0.727059549608853 0.9288395595198019
0.6820139200133645 0.5933939256121212 0.8828263695911369
0.7082498769131497 0.6980809461394765 0.8195811775293635
0.8149537231317541 0.6042488546689463 0.7846210216672556
0.7873293295421798 0.727059549608853 0.9288395595198019
0.8820139200133644 0.5933939256121212 0.8828263695911369
0.9082498769131497 0.6980809461394765 0.8195811775293635
0.014953723131753955 0.8042488546689462 0.7846210216672556
-0.01267067045782023 0.927059549608853 0.9288395595198019
0.08201392001336442 0.7933939256121212 0.8828263695911369
0.10824987691314965 0.8980809461394763 0.8195811775293635
0.21495372313175395 0.8042488546689462 0.7846210216672556
0.1873293295421798 0.927059549608853 0.9288395595198019
0.2820139200133644 0.7933939256121212 0.8828263695911369
0.30824987691314965 0.8980809461394763 0.8195811775293635
0.414953723131754 0.8042488546689462 0.7846210216672556
0.3873293295421798 0.927059549608853 0.9288395595198019
0.4820139200133644 0.7933939256121212 0.8828263695911369
0.5082498769131497 0.8980809461394763 0.8195811775293635
0.614953723131754 0.8042488546689462 0.7846210216672556
0.5873293295421798 0.927059549608853 0.9288395595198019
0.6820139200133645 0.7933939256121212 0.8828263695911369
0.7082498769131497 0.8980809461394763 0.8195811775293635
0.8149537231317541 0.8042488546689462 0.7846210216672556
0.7873293295421798 0.927059549608853 0.9288395595198019
0.8820139200133644 0.7933939256121212 0.8828263695911369
0.9082498769131497 0.8980809461394763 0.8195811775293635
0.07982423270496436 0.019718460222987667 0.02254145960265294
0.016992071145873113 0.07698633478507806 -0.0009931445080733482
0.0257399247010903 -0.002794956506130589 0.12880479337937156
0.08602224144406008 0.09825290810172595 0.12561113049185746
0.27982423270496437 0.019718460222987667 0.02254145960265294
0.21699207114587316 0.07698633478507806 -0.0009931445080733482
0.22573992470109028 -0.002794956506130589 0.12880479337937156
0.2860222414440601 0.09825290810172595 0.12561113049185746
0.4798242327049644 0.019718460222987667 0.02254145960265294
0.41699207114587317 0.07698633478507806 -0.0009931445080733482
0.4257399247010903 -0.002794956506130589 0.12880479337937156
0.48602224144406014 0.09825290810172595 0.12561113049185746
0.6798242327049644 0.019718460222987667 0.02254145960265294
0.6169920711458732 0.07698633478507806 -0.0009931445080733482
0.6257399247010903 -0.002794956506130589 0.12880479337937156
0.6860222414440602 0.09825290810172595 0.12561113049185746
0.8798242327049643 0.019718460222987667 0.02254145960265294
0.8169920711458731 0.07698633478507806 -0.0009931445080733482
0.8257399247010904 -0.002794956506130589 0.12880479337937156
0.8860222414440602 0.09825290810172595 0.12561113049185746
0.07982423270496436 0.2197184602229877 0.02254145960265294
0.016992071145873113 0.27698633478507806 -0.0009931445080733482
0.0257399247010903 0.19720504349386941 0.12880479337937156
0.08602224144406008 0.29825290810172594 0.12561113049185746
0.27982423270496437 0.2197184602229877 0.02254145960265294
0.21699207114587316 0.27698633478507806 -0.0009931445080733482
0.22573992470109028 0.19720504349386941 0.12880479337937156
0.2860222414440601 0.29825290810172594 0.12561113049185746
0.4798242327049644 0.2197184602229877 0.02254145960265294
0.41699207114587317 0.27698633478507806 -0.0009931445080733482
0.4257399247010903 0.19720504349386941 0.12880479337937156
0.48602224144406014 0.29825290810172594 0.12561113049185746
0.6798242327049644 0.2197184602229877 0.02254145960265294
0.6169920711458732 0.27698633478507806 -0.0009931445080733482
0.6257399247010903 0.19720504349386941 0.12880479337937156
0.6860222414440602 0.29825290810172594 0.12561113049185746
0.8798242327049643 0.2197184602229877 0.02254145960265294
0.8169920711458731 0.27698633478507806 -0.0009931445080733482
0.8257399247010904 0.19720504349386941 0.12880479337937156
0.8860222414440602 0.29825290810172594 0.12561113049185746
0.07982423270496436 0.4197184602229877 0.02254145960265294
0.016992071145873113 0.476986334785078 -0.0009931445080733482
0.0257399247010903 0.3972050434938694 0.12880479337937156
0.08602224144406008 0.49825290810172596 0.12561113049185746
0.27982423270496437 0.4197184602229877 0.02254145960265294
0.21699207114587316 0.476986334785078 -0.0009931445080733482
0.22573992470109028 0.3972050434938694 0.12880479337937156
0.2860222414440601 0.49825290810172596 0.12561113049185746
0.4798242327049644 0.4197184602229877 0.02254145960265294
0.41699207114587317 0.476986334785078 -0.0009931445080733482
0.4257399247010903 0.3972050434938694 0.12880479337937156
0.48602224144406014 0.49825290810172596 0.12561113049185746
0.6798242327049644 0.4197184602229877 0.02254145960265294
0.6169920711458732 0.476986334785078 -0.0009931445080733482
0.6257399247010903 0.3972050434938694 0.12880479337937156
0.6860222414440602 0.49825290810172596 0.12561113049185746
0.8798242327049643 0.4197184602229877 0.02254145960265294
0.8169920711458731 0.476986334785078 -0.0009931445080733482
0.8257399247010904 0.3972050434938694 0.12880479337937156
0.8860222414440602 0.49825290810172596 0.12561113049185746
0.07982423270496436 0.6197184602229877 0.02254145960265294
0.016992071145873113 0.6769863347850781 -0.0009931445080733482
0.0257399247010903 0.5972050434938695 0.12880479337937156
0.08602224144406008 0.6982529081017259 0.12561113049185746
0.27982423270496437 0.6197184602229877 0.02254145960265294
0.21699207114587316 0.6769863347850781 -0.0009931445080733482
0.22573992470109028 0.5972050434938695 0.12880479337937156
0.2860222414440601 0.6982529081017259 0.12561113049185746
0.4798242327049644 0.6197184602229877 0.02254145960265294
0.41699207114587317 0.6769863347850781 -0.0009931445080733482
0.4257399247010903 0.5972050434938695 0.12880479337937156
0.48602224144406014 0.6982529081017259 0.12561113049185746
0.6798242327049644 0.6197184602229877 0.02254145960265294
0.6169920711458732 0.6769863347850781 -0.0009931445080733482
0.6257399247010903 0.5972050434938695 0.12880479337937156
0.6860222414440602 0.6982529081017259 0.12561113049185746
0.8798242327049643 0.6197184602229877 0.02254145960265294
0.8169920711458731 0.6769863347850781 -0.0009931445080733482
0.8257399247010904 0.5972050434938695 0.12880479337937156
0.8860222414440602 0.6982529081017259 0.12561113049185746
0.07982423270496436 0.8197184602229877 0.02254145960265294
0.016992071145873113 0.876986334785078 -0.0009931445080733482
0.0257399247010903 0.7972050434938694 0.12880479337937156
0.08602224144406008 0.8982529081017261 0.12561113049185746
0.27982423270496437 0.8197184602229877 0.02254145960265294
0.21699207114587316 0.876986334785078 -0.0009931445080733482
0.22573992470109028 0.7972050434938694 0.12880479337937156
0.2860222414440601 0.8982529081017261 0.12561113049185746
0.4798242327049644 0.8197184602229877 0.02254145960265294
0.41699207114587317 0.876986334785078 -0.0009931445080733482
0.4257399247010903 0.7972050434938694 0.12880479337937156
0.48602224144406014 0.8982529081017261 0.12561113049185746
0.6798242327049644 0.8197184602229877 0.02254145960265294
0.6169920711458732 0.876986334785078 -0.0009931445080733482
0.6257399247010903 0.7972050434938694 0.12880479337937156
0.6860222414440602 0.8982529081017261 0.12561113049185746
0.8798242327049643 0.8197184602229877 0.02254145960265294
0.8169920711458731 0.876986334785078 -0.0009931445080733482
0.8257399247010904 0.7972050434938694 0.12880479337937156
0.8860222414440602 0.8982529081017261 0.12561113049185746
0.07982423270496436 0.019718460222987667 0.22254145960265292
0.016992071145873113 0.07698633478507806 0.19900685549192665
0.0257399247010903 -0.002794956506130589 0.32880479337937163
0.08602224144406008 0.09825290810172595 0.32561113049185747
0.27982423270496437 0.019718460222987667 0.22254145960265292
0.21699207114587316 0.07698633478507806 0.19900685549192665
0.22573992470109028 -0.002794956506130589 0.32880479337937163
0.2860222414440601 0.09825290810172595 0.32561113049185747
0.4798242327049644 0.019718460222987667 0.22254145960265292
0.41699207114587317 0.07698633478507806 0.19900685549192665
0.4257399247010903 -0.002794956506130589 0.32880479337937163
0.48602224144406014 0.09825290810172595 0.32561113049185747
0.6798242327049644 0.019718460222987667 0.22254145960265292
0.6169920711458732 0.07698633478507806 0.19900685549192665
0.6257399247010903 -0.002794956506130589 0.32880479337937163
0.6860222414440602 0.09825290810172595 0.32561113049185747
0.8798242327049643 0.019718460222987667 0.22254145960265292
0.8169920711458731 0.07698633478507806 0.19900685549192665
0.8257399247010904 -0.002794956506130589 0.32880479337937163
0.8860222414440602 0.09825290810172595 0.32561113049185747
0.07982423270496436 0.2197184602229877 0.22254145960265292
0.016992071145873113 0.27698633478507806 0.19900685549192665
0.0257399247010903 0.19720504349386941 0.32880479337937163
0.08602224144406008 0.29825290810172594 0.32561113049185747
0.27982423270496437 0.2197184602229877 0.22254145960265292
0.21699207114587316 0.27698633478507806 0.19900685549192665
0.22573992470109028 0.19720504349386941 0.32880479337937163
0.2860222414440601 0.29825290810172594 0.32561113049185747
0.4798242327049644 0.2197184602229877 0.22254145960265292
0.41699207114587317 0.27698633478507806 0.19900685549192665
0.4257399247010903 0.19720504349386941 0.32880479337937163
0.48602224144406014 0.29825290810172594 0.32561113049185747
0.6798242327049644 0.2197184602229877 0.22254145960265292
0.6169920711458732 0.27698633478507806 0.19900685549192665
0.6257399247010903 0.19720504349386941 0.32880479337937163
0.6860222414440602 0.29825290810172594 0.32561113049185747
0.8798242327049643 0.2197184602229877 0.22254145960265292
0.8169920711458731 0.27698633478507806 0.19900685549192665
0.8257399247010904 0.19720504349386941 0.32880479337937163
0.8860222414440602 0.29825290810172594 0.32561113049185747
0.07982423270496436 0.4197184602229877 0.22254145960265292
0.016992071145873113 0.476986334785078 0.19900685549192665
0.0257399247010903 0.3972050434938694 0.32880479337937163
0.08602224144406008 0.49825290810172596 0.32561113049185747
0.27982423270496437 0.4197184602229877 0.22254145960265292
0.21699207114587316 0.476986334785078 0.19900685549192665
0.22573992470109028 0.3972050434938694 0.32880479337937163
0.2860222414440601 0.49825290810172596 0.32561113049185747
0.4798242327049644 0.4197184602229877 0.22254145960265292
0.41699207114587317 0.476986334785078 0.19900685549192665
0.4257399247010903 0.3972050434938694 0.32880479337937163
0.48602224144406014 0.49825290810172596 0.32561113049185747
0.6798242327049644 0.4197184602229877 0.22254145960265292
0.6169920711458732 0.476986334785078 0.19900685549192665
0.6257399247010903 0.3972050434938694 0.32880479337937163
0.6860222414440602 0.49825290810172596 0.32561113049185747
0.8798242327049643 0.4197184602229877 0.22254145960265292
0.8169920711458731 0.476986334785078 0.19900685549192665
0.8257399247010904 0.3972050434938694 0.32880479337937163
0.8860222414440602 0.49825290810172596 0.32561113049185747
0.07982423270496436 0.6197184602229877 0.22254145960265292
0.016992071145873113 0.6769863347850781 0.19900685549192665
0.0257399247010903 0.5972050434938695 0.32880479337937163
0.08602224144406008 0.6982529081017259 0.32561113049185747
0.27982423270496437 0.6197184602229877 0.22254145960265292
0.21699207114587316 0.6769863347850781 0.19900685549192665
0.22573992470109028 0.5972050434938695 0.32880479337937163
0.2860222414440601 0.6982529081017259 0.32561113049185747
0.4798242327049644 0.6197184602229877 0.22254145960265292
0.41699207114587317 0.6769863347850781 0.19900685549192665
0.4257399247010903 0.5972050434938695 0.32880479337937163
0.48602224144406014 0.6982529081017259 0.32561113049185747
0.6798242327049644 0.6197184602229877 0.22254145960265292
0.6169920711458732 0.6769863347850781 0.19900685549192665
0.6257399247010903 0.5972050434938695 0.32880479337937163
0.6860222414440602 0.6982529081017259 0.32561113049185747
0.8798242327049643 0.6197184602229877 0.22254145960265292
0.8169920711458731 0.6769863347850781 0.19900685549192665
0.8257399247010904 0.5972050434938695 0.32880479337937163
0.8860222414440602 0.6982529081017259 0.32561113049185747
0.07982423270496436 0.8197184602229877 0.22254145960265292
0.016992071145873113 0.876986334785078 0.19900685549192665
0.0257399247010903 0.7972050434938694 0.32880479337937163
0.08602224144406008 0.8982529081017261 0.32561113049185747
0.27982423270496437 0.8197184602229877 0.22254145960265292
0.21699207114587316 0.876986334785078 0.19900685549192665
0.22573992470109028 0.7972050434938694 0.32880479337937163
0.2860222414440601 0.8982529081017261 0.32561113049185747
0.4798242327049644 0.8197184602229877 0.22254145960265292
0.41699207114587317 0.876986334785078 0.19900685549192665
0.4257399247010903 0.7972050434938694 0.32880479337937163
0.48602224144406014 0.8982529081017261 0.32561113049185747
0.6798242327049644 0.8197184602229877 0.22254145960265292
0.6169920711458732 0.876986334785078 0.19900685549192665
0.6257399247010903 0.7972050434938694 0.32880479337937163
0.6860222414440602 0.8982529081017261 0.32561113049185747
0.8798242327049643 0.8197184602229877 0.22254145960265292
0.8169920711458731 0.876986334785078 0.19900685549192665
0.8257399247010904 0.7972050434938694 0.32880479337937163
0.8860222414440602 0.8982529081017261 0.32561113049185747
0.07982423270496436 0.019718460222987667 0.42254145960265294
0.016992071145873113 0.07698633478507806 0.39900685549192666
0.0257399247010903 -0.002794956506130589 0.5288047933793716
0.08602224144406008 0.09825290810172595 0.5256111304918575
0.27982423270496437 0.019718460222987667 0.42254145960265294
0.21699207114587316 0.07698633478507806 0.39900685549192666
0.22573992470109028 -0.002794956506130589 0.5288047933793716
0.2860222414440601 0.09825290810172595 0.5256111304918575
0.4798242327049644 0.019718460222987667 0.42254145960265294
0.41699207114587317 0.07698633478507806 0.39900685549192666
0.4257399247010903 -0.002794956506130589 0.5288047933793716
0.48602224144406014 0.09825290810172595 0.5256111304918575
0.6798242327049644 0.019718460222987667 0.42254145960265294
0.6169920711458732 0.07698633478507806 0.39900685549192666
0.6257399247010903 -0.002794956506130589 0.5288047933793716
0.6860222414440602 0.09825290810172595 0.5256111304918575
0.8798242327049643 0.019718460222987667 0.42254145960265294
0.8169920711458731 0.07698633478507806 0.39900685549192666
0.8257399247010904 -0.002794956506130589 0.5288047933793716
0.8860222414440602 0.09825290810172595 0.5256111304918575
0.07982423270496436 0.2197184602229877 0.42254145960265294
0.016992071145873113 0.27698633478507806 0.39900685549192666
0.0257399247010903 0.19720504349386941 0.5288047933793716
0.08602224144406008 0.29825290810172594 0.5256111304918575
0.27982423270496437 0.2197184602229877 0.42254145960265294
0.21699207114587316 0.27698633478507806 0.39900685549192666
0.22573992470109028 0.19720504349386941 0.5288047933793716
0.2860222414440601 0.29825290810172594 0.5256111304918575
0.4798242327049644 0.2197184602229877 0.42254145960265294
0.41699207114587317 0.27698633478507806 0.39900685549192666
0.4257399247010903 0.19720504349386941 0.5288047933793716
0.48602224144406014 0.29825290810172594 0.5256111304918575
0.6798242327049644 0.2197184602229877 0.42254145960265294
0.6169920711458732 0.27698633478507806 0.39900685549192666
0.6257399247010903 0.19720504349386941 0.5288047933793716
0.6860222414440602 0.29825290810172594 0.5256111304918575
0.8798242327049643 0.2197184602229877 0.42254145960265294
0.8169920711458731 0.27698633478507806 0.39900685549192666
0.8257399247010904 0.19720504349386941 0.5288047933793716
0.8860222414440602 0.29825290810172594 0.5256111304918575
0.07982423270496436 0.4197184602229877 0.42254145960265294
0.016992071145873113 0.476986334785078 0.39900685549192666
0.0257399247010903 0.3972050434938694 0.5288047933793716
0.08602224144406008 0.49825290810172596 0.5256111304918575
0.27982423270496437 0.4197184602229877 0.42254145960265294
0.21699207114587316 0.476986334785078 0.39900685549192666
0.22573992470109028 0.3972050434938694 0.5288047933793716
0.2860222414440601 0.49825290810172596 0.5256111304918575
0.4798242327049644 0.4197184602229877 0.42254145960265294
0.41699207114587317 0.476986334785078 0.39900685549192666
0.4257399247010903 0.3972050434938694 0.5288047933793716
0.48602224144406014 0.49825290810172596 0.5256111304918575
0.6798242327049644 0.4197184602229877 0.42254145960265294
0.6169920711458732 0.476986334785078 0.39900685549192666
0.6257399247010903 0.3972050434938694 0.5288047933793716
0.6860222414440602 0.49825290810172596 0.5256111304918575
0.8798242327049643 0.4197184602229877 0.42254145960265294
0.8169920711458731 0.476986334785078 0.39900685549192666
0.8257399247010904 0.3972050434938694 0.5288047933793716
0.8860222414440602 0.49825290810172596 0.5256111304918575
0.07982423270496436 0.6197184602229877 0.42254145960265294
0.016992071145873113 0.6769863347850781 0.39900685549192666
0.0257399247010903 0.5972050434938695 0.5288047933793716
0.08602224144406008 0.6982529081017259 0.5256111304918575
0.27982423270496437 0.6197184602229877 0.42254145960265294
0.21699207114587316 0.6769863347850781 0.39900685549192666
0.22573992470109028 0.5972050434938695 0.5288047933793716
0.2860222414440601 0.6982529081017259 0.5256111304918575
0.4798242327049644 0.6197184602229877 0.42254145960265294
0.41699207114587317 0.6769863347850781 0.39900685549192666
0.4257399247010903 0.5972050434938695 0.5288047933793716
0.48602224144406014 0.6982529081017259 0.5256111304918575
0.6798242327049644 0.6197184602229877 0.42254145960265294
0.6169920711458732 0.6769863347850781 0.39900685549192666
0.6257399247010903 0.5972050434938695 0.5288047933793716
0.6860222414440602 0.6982529081017259 0.5256111304918575
0.8798242327049643 0.6197184602229877 0.42254145960265294
0.8169920711458731 0.6769863347850781 0.39900685549192666
0.8257399247010904 0.5972050434938695 0.5288047933793716
0.8860222414440602 0.6982529081017259 0.5256111304918575
0.07982423270496436 0.8197184602229877 0.42254145960265294
0.016992071145873113 0.876986334785078 0.39900685549192666
0.0257399247010903 0.7972050434938694 0.5288047933793716
0.08602224144406008 0.8982529081017261 0.5256111304918575
0.27982423270496437 0.8197184602229877 0.42254145960265294
0.21699207114587316 0.876986334785078 0.39900685549192666
0.22573992470109028 0.7972050434938694 0.5288047933793716
0.2860222414440601 0.8982529081017261 0.5256111304918575
0.4798242327049644 0.8197184602229877 0.42254145960265294
0.41699207114587317 0.876986334785078 0.39900685549192666
0.4257399247010903 0.7972050434938694 0.5288047933793716
0.48602224144406014 0.8982529081017261 0.5256111304918575
0.6798242327049644 0.8197184602229877 0.42254145960265294
0.6169920711458732 0.876986334785078 0.39900685549192666
0.6257399247010903 0.7972050434938694 0.5288047933793716
0.6860222414440602 0.8982529081017261 0.5256111304918575
0.8798242327049643 0.8197184602229877 0.42254145960265294
0.8169920711458731 0.876986334785078 0.39900685549192666
0.8257399247010904 0.7972050434938694 0.5288047933793716
0.8860222414440602 0.8982529081017261 0.5256111304918575
0.07982423270496436 0.019718460222987667 0.622541459602653
0.016992071145873113 0.07698633478507806 0.5990068554919267
0.0257399247010903 -0.002794956506130589 0.7288047933793717
0.08602224144406008 0.09825290810172595 0.7256111304918575
0.27982423270496437 0.019718460222987667 0.622541459602653
0.21699207114587316 0.07698633478507806 0.5990068554919267
0.22573992470109028 -0.002794956506130589 0.7288047933793717
0.2860222414440601 0.09825290810172595 0.7256111304918575
0.4798242327049644 0.019718460222987667 0.622541459602653
0.41699207114587317 0.07698633478507806 0.5990068554919267
0.4257399247010903 -0.002794956506130589 0.7288047933793717
0.48602224144406014 0.09825290810172595 0.7256111304918575
0.6798242327049644 0.019718460222987667 0.622541459602653
0.6169920711458732 0.07698633478507806 0.5990068554919267
0.6257399247010903 -0.002794956506130589 0.7288047933793717
0.6860222414440602 0.09825290810172595 0.7256111304918575
0.8798242327049643 0.019718460222987667 0.622541459602653
0.8169920711458731 0.07698633478507806 0.5990068554919267
0.8257399247010904 -0.002794956506130589 0.7288047933793717
0.8860222414440602 0.09825290810172595 0.7256111304918575
0.07982423270496436 0.2197184602229877 0.622541459602653
0.016992071145873113 0.27698633478507806 0.5990068554919267
0.0257399247010903 0.19720504349386941 0.7288047933793717
0.08602224144406008 0.29825290810172594 0.7256111304918575
0.27982423270496437 0.2197184602229877 0.622541459602653
0.21699207114587316 0.27698633478507806 0.5990068554919267
0.22573992470109028 0.19720504349386941 0.7288047933793717
0.2860222414440601 0.29825290810172594 0.7256111304918575
0.4798242327049644 0.2197184602229877 0.622541459602653
0.41699207114587317 0.27698633478507806 0.5990068554919267
0.4257399247010903 0.19720504349386941 0.7288047933793717
0.48602224144406014 0.29825290810172594 0.7256111304918575
0.6798242327049644 0.2197184602229877 0.622541459602653
0.6169920711458732 0.27698633478507806 0.5990068554919267
0.6257399247010903 0.19720504349386941 0.7288047933793717
0.6860222414440602 0.29825290810172594 0.7256111304918575
0.8798242327049643 0.2197184602229877 0.622541459602653
0.8169920711458731 0.27698633478507806 0.5990068554919267
0.8257399247010904 0.19720504349386941 0.7288047933793717
0.8860222414440602 0.29825290810172594 0.7256111304918575
0.07982423270496436 0.4197184602229877 0.622541459602653
0.016992071145873113 0.476986334785078 0.5990068554919267
0.0257399247010903 0.3972050434938694 0.7288047933793717
0.08602224144406008 0.49825290810172596 0.7256111304918575
0.27982423270496437 0.4197184602229877 0.622541459602653
0.21699207114587316 0.476986334785078 0.5990068554919267
0.22573992470109028 0.3972050434938694 0.7288047933793717
0.2860222414440601 0.49825290810172596 0.7256111304918575
0.4798242327049644 0.4197184602229877 0.622541459602653
0.41699207114587317 0.476986334785078 0.5990068554919267
0.4257399247010903 0.3972050434938694 0.7288047933793717
0.48602224144406014 0.49825290810172596 0.7256111304918575
0.6798242327049644 0.4197184602229877 0.622541459602653
0.6169920711458732 0.476986334785078 0.5990068554919267
0.6257399247010903 0.3972050434938694 0.7288047933793717
0.6860222414440602 0.49825290810172596 0.7256111304918575
0.8798242327049643 0.4197184602229877 0.622541459602653
0.8169920711458731 0.476986334785078 0.5990068554919267
0.8257399247010904 0.3972050434938694 0.7288047933793717
0.8860222414440602 0.49825290810172596 0.7256111304918575
0.07982423270496436 0.6197184602229877 0.622541459602653
0.016992071145873113 0.6769863347850781 0.5990068554919267
0.0257399247010903 0.5972050434938695 0.7288047933793717
0.08602224144406008 0.6982529081017259 0.7256111304918575
0.27982423270496437 0.6197184602229877 0.622541459602653
0.21699207114587316 0.6769863347850781 0.5990068554919267
0.22573992470109028 0.5972050434938695 0.7288047933793717
0.2860222414440601 0.6982529081017259 0.7256111304918575
0.4798242327049644 0.6197184602229877 0.622541459602653
0.41699207114587317 0.6769863347850781 0.5990068554919267
0.4257399247010903 0.5972050434938695 0.7288047933793717
0.48602224144406014 0.6982529081017259 0.7256111304918575
0.6798242327049644 0.6197184602229877 0.622541459602653
0.6169920711458732 0.6769863347850781 0.5990068554919267
0.6257399247010903 0.5972050434938695 0.7288047933793717
0.6860222414440602 0.6982529081017259 0.7256111304918575
0.8798242327049643 0.6197184602229877 0.622541459602653
0.8169920711458731 0.6769863347850781 0.5990068554919267
0.8257399247010904 0.5972050434938695 0.7288047933793717
0.8860222414440602 0.6982529081017259 0.7256111304918575
0.07982423270496436 0.8197184602229877 0.622541459602653
0.016992071145873113 0.876986334785078 0.5990068554919267
0.0257399247010903 0.7972050434938694 0.7288047933793717
0.08602224144406008 0.8982529081017261 0.7256111304918575
0.27982423270496437 0.8197184602229877 0.622541459602653
0.21699207114587316 0.876986334785078 0.5990068554919267
0.22573992470109028 0.7972050434938694 0.7288047933793717
0.2860222414440601 0.8982529081017261 0.7256111304918575
0.4798242327049644 0.8197184602229877 0.622541459602653
0.41699207114587317 0.876986334785078 0.5990068554919267
0.4257399247010903 0.7972050434938694 0.7288047933793717
0.48602224144406014 0.8982529081017261 0.7256111304918575
0.6798242327049644 0.8197184602229877 0.622541459602653
0.6169920711458732 0.876986334785078 0.5990068554919267
0.6257399247010903 0.7972050434938694 0.7288047933793717
0.6860222414440602 0.8982529081017261 0.7256111304918575
0.8798242327049643 0.8197184602229877 0.622541459602653
0.8169920711458731 0.876986334785078 0.5990068554919267
0.8257399247010904 0.7972050434938694 0.7288047933793717
0.8860222414440602 0.8982529081017261 0.7256111304918575
0.07982423270496436 0.019718460222987667 0.822541459602653
0.016992071145873113 0.07698633478507806 0.7990068554919267
0.0257399247010903 -0.002794956506130589 0.9288047933793715
0.08602224144406008 0.09825290810172595 0.9256111304918575
0.27982423270496437 0.019718460222987667 0.822541459602653
0.21699207114587316 0.07698633478507806 0.7990068554919267
0.22573992470109028 -0.002794956506130589 0.9288047933793715
0.2860222414440601 0.09825290810172595 0.9256111304918575
0.4798242327049644 0.019718460222987667 0.822541459602653
0.41699207114587317 0.07698633478507806 0.7990068554919267
0.4257399247010903 -0.002794956506130589 0.9288047933793715
0.48602224144406014 0.09825290810172595 0.9256111304918575
0.6798242327049644 0.019718460222987667 0.822541459602653
0.6169920711458732 0.07698633478507806 0.7990068554919267
0.6257399247010903 -0.002794956506130589 0.9288047933793715
0.6860222414440602 0.09825290810172595 0.9256111304918575
0.8798242327049643 0.019718460222987667 0.822541459602653
0.8169920711458731 0.07698633478507806 0.7990068554919267
0.8257399247010904 -0.002794956506130589 0.9288047933793715
0.8860222414440602 0.09825290810172595 0.9256111304918575
0.07982423270496436 0.2197184602229877 0.822541459602653
0.016992071145873113 0.27698633478507806 0.7990068554919267
0.0257399247010903 0.19720504349386941 0.9288047933793715
0.08602224144406008 0.29825290810172594 0.9256111304918575
0.27982423270496437 0.2197184602229877 0.822541459602653
0.21699207114587316 0.27698633478507806 0.7990068554919267
0.22573992470109028 0.19720504349386941 0.9288047933793715
0.2860222414440601 0.29825290810172594 0.9256111304918575
0.4798242327049644 0.2197184602229877 0.822541459602653
0.41699207114587317 0.27698633478507806 0.7990068554919267
0.4257399247010903 0.19720504349386941 0.9288047933793715
0.48602224144406014 0.29825290810172594 0.9256111304918575
0.6798242327049644 0.2197184602229877 0.822541459602653
0.6169920711458732 0.27698633478507806 0.7990068554919267
0.6257399247010903 0.19720504349386941 0.9288047933793715
0.6860222414440602 0.29825290810172594 0.9256111304918575
0.8798242327049643 0.2197184602229877 0.822541459602653
0.8169920711458731 0.27698633478507806 0.7990068554919267
0.8257399247010904 0.19720504349386941 0.9288047933793715
0.8860222414440602 0.29825290810172594 0.9256111304918575
0.07982423270496436 0.4197184602229877 0.822541459602653
0.016992071145873113 0.476986334785078 0.7990068554919267
0.0257399247010903 0.3972050434938694 0.9288047933793715
0.08602224144406008 0.49825290810172596 0.9256111304918575
0.27982423270496437 0.4197184602229877 0.822541459602653
0.21699207114587316 0.476986334785078 0.7990068554919267
0.22573992470109028 0.3972050434938694 0.9288047933793715
0.2860222414440601 0.49825290810172596 0.9256111304918575
0.4798242327049644 0.4197184602229877 0.822541459602653
0.41699207114587317 0.476986334785078 0.7990068554919267
0.4257399247010903 0.3972050434938694 0.9288047933793715
0.48602224144406014 0.49825290810172596 0.9256111304918575
0.6798242327049644 0.4197184602229877 0.822541459602653
0.6169920711458732 0.476986334785078 0.7990068554919267
0.6257399247010903 0.3972050434938694 0.9288047933793715
0.6860222414440602 0.49825290810172596 0.9256111304918575
0.8798242327049643 0.4197184602229877 0.822541459602653
0.8169920711458731 0.476986334785078 0.7990068554919267
0.8257399247010904 0.3972050434938694 0.9288047933793715
0.8860222414440602 0.49825290810172596 0.9256111304918575
0.07982423270496436 0.6197184602229877 0.822541459602653
0.016992071145873113 0.6769863347850781 0.7990068554919267
0.0257399247010903 0.5972050434938695 0.9288047933793715
0.08602224144406008 0.6982529081017259 0.9256111304918575
0.27982423270496437 0.6197184602229877 0.822541459602653
0.21699207114587316 0.6769863347850781 0.7990068554919267
0.22573992470109028 0.5972050434938695 0.9288047933793715
0.2860222414440601 0.6982529081017259 0.9256111304918575
0.4798242327049644 0.6197184602229877 0.822541459602653
0.41699207114587317 0.6769863347850781 0.7990068554919267
0.4257399247010903 0.5972050434938695 0.9288047933793715
0.48602224144406014 0.6982529081017259 0.9256111304918575
0.6798242327049644 0.6197184602229877 0.822541459602653
0.6169920711458732 0.6769863347850781 0.7990068554919267
0.6257399247010903 0.5972050434938695 0.9288047933793715
0.6860222414440602 0.6982529081017259 0.9256111304918575
0.8798242327049643 0.6197184602229877 0.822541459602653
0.8169920711458731 0.6769863347850781 0.7990068554919267
0.8257399247010904 0.5972050434938695 0.9288047933793715
0.8860222414440602 0.6982529081017259 0.9256111304918575
0.07982423270496436 0.8197184602229877 0.822541459602653
0.016992071145873113 0.876986334785078 0.7990068554919267
0.0257399247010903 0.7972050434938694 0.9288047933793715
0.08602224144406008 0.8982529081017261 0.9256111304918575
0.27982423270496437 0.8197184602229877 0.822541459602653
0.21699207114587316 0.876986334785078 0.7990068554919267
0.22573992470109028 0.7972050434938694 0.9288047933793715
0.2860222414440601 0.8982529081017261 0.9256111304918575
0.4798242327049644 0.8197184602229877 0.822541459602653
0.41699207114587317 0.876986334785078 0.7990068554919267
0.4257399247010903 0.7972050434938694 0.9288047933793715
0.48602224144406014 0.8982529081017261 0.9256111304918575
0.6798242327049644 0.8197184602229877 0.822541459602653
0.6169920711458732 0.876986334785078 0.7990068554919267
0.6257399247010903 0.7972050434938694 0.9288047933793715
0.6860222414440602 0.8982529081017261 0.9256111304918575
0.8798242327049643 0.8197184602229877 0.822541459602653
0.8169920711458731 0.876986334785078 0.7990068554919267
0.8257399247010904 0.7972050434938694 0.9288047933793715
0.8860222414440602 0.8982529081017261 0.9256111304918575
