FCC BaO
3.971
5.0 0.0 0.0
0.0 5.0 0.0
0.0 0.0 5.0
Ba O 
500 500 
Direct
-0.0034143218703521754 0.010521431719572375 0.008404149165434254
-0.024802180388443118 0.09188800647422513 0.08615044467016691
0.12710723541508503 -0.028635949808979995 0.12675947622126352
0.10693568143946586 0.09574410081318512 -0.013402718145488785
0.19658567812964783 0.010521431719572375 0.008404149165434254
0.1751978196115569 0.09188800647422513 0.08615044467016691
0.327107235415085 -0.028635949808979995 0.12675947622126352
0.30693568143946587 0.09574410081318512 -0.013402718145488785
0.39658567812964785 0.010521431719572375 0.008404149165434254
0.3751978196115569 0.09188800647422513 0.08615044467016691
0.5271072354150851 -0.028635949808979995 0.12675947622126352
0.5069356814394659 0.09574410081318512 -0.013402718145488785
0.5965856781296479 0.010521431719572375 0.008404149165434254
0.5751978196115569 0.09188800647422513 0.08615044467016691
0.727107235415085 -0.028635949808979995 0.12675947622126352
0.7069356814394658 0.09574410081318512 -0.013402718145488785
0.7965856781296479 0.010521431719572375 0.008404149165434254
0.7751978196115569 0.09188800647422513 0.08615044467016691
0.927107235415085 -0.028635949808979995 0.12675947622126352
0.906935681439466 0.09574410081318512 -0.013402718145488785
-0.0034143218703521754 0.21052143171957238 0.008404149165434254
-0.024802180388443118 0.29188800647422514 0.08615044467016691
0.12710723541508503 0.17136405019102002 0.12675947622126352
0.10693568143946586 0.2957441008131851 -0.013402718145488785
0.19658567812964783 0.21052143171957238 0.008404149165434254
0.1751978196115569 0.29188800647422514 0.08615044467016691
0.327107235415085 0.17136405019102002 0.12675947622126352
0.30693568143946587 0.2957441008131851 -0.013402718145488785
0.39658567812964785 0.21052143171957238 0.008404149165434254
0.3751978196115569 0.29188800647422514 0.08615044467016691
0.5271072354150851 0.17136405019102002 0.12675947622126352
0.5069356814394659 0.2957441008131851 -0.013402718145488785
0.5965856781296479 0.21052143171957238 0.008404149165434254
0.5751978196115569 0.29188800647422514 0.08615044467016691
0.727107235415085 0.17136405019102002 0.12675947622126352
0.7069356814394658 0.2957441008131851 -0.013402718145488785
0.7965856781296479 0.21052143171957238 0.008404149165434254
0.7751978196115569 0.29188800647422514 0.08615044467016691
0.927107235415085 0.17136405019102002 0.12675947622126352
0.906935681439466 0.2957441008131851 -0.013402718145488785
-0.0034143218703521754 0.41052143171957245 0.008404149165434254
-0.024802180388443118 0.49188800647422515 0.08615044467016691
0.12710723541508503 0.37136405019102003 0.12675947622126352
0.10693568143946586 0.4957441008131851 -0.013402718145488785
0.19658567812964783 0.41052143171957245 0.008404149165434254
0.1751978196115569 0.49188800647422515 0.08615044467016691
0.327107235415085 0.37136405019102003 0.12675947622126352
0.30693568143946587 0.4957441008131851 -0.013402718145488785
0.39658567812964785 0.41052143171957245 0.008404149165434254
0.3751978196115569 0.49188800647422515 0.08615044467016691
0.5271072354150851 0.37136405019102003 0.12675947622126352
0.5069356814394659 0.4957441008131851 -0.013402718145488785
0.5965856781296479 0.41052143171957245 0.008404149165434254
0.5751978196115569 0.49188800647422515 0.08615044467016691
0.727107235415085 0.37136405019102003 0.12675947622126352
0.7069356814394658 0.4957441008131851 -0.013402718145488785
0.7965856781296479 0.41052143171957245 0.008404149165434254
0.7751978196115569 0.49188800647422515 0.08615044467016691
0.927107235415085 0.37136405019102003 0.12675947622126352
0.906935681439466 0.4957441008131851 -0.013402718145488785
-0.0034143218703521754 0.6105214317195724 0.008404149165434254
-0.024802180388443118 0.6918880064742252 0.08615044467016691
0.12710723541508503 0.5713640501910201 0.12675947622126352
0.10693568143946586 0.6957441008131852 -0.013402718145488785
0.19658567812964783 0.6105214317195724 0.008404149165434254
0.1751978196115569 0.6918880064742252 0.08615044467016691
0.327107235415085 0.5713640501910201 0.12675947622126352
0.30693568143946587 0.6957441008131852 -0.013402718145488785
0.39658567812964785 0.6105214317195724 0.008404149165434254
0.3751978196115569 0.6918880064742252 0.08615044467016691
0.5271072354150851 0.5713640501910201 0.12675947622126352
0.5069356814394659 0.6957441008131852 -0.013402718145488785
0.5965856781296479 0.6105214317195724 0.008404149165434254
0.5751978196115569 0.6918880064742252 0.08615044467016691
0.727107235415085 0.5713640501910201 0.12675947622126352
0.7069356814394658 0.6957441008131852 -0.013402718145488785
0.7965856781296479 0.6105214317195724 0.008404149165434254
0.7751978196115569 0.6918880064742252 0.08615044467016691
0.927107235415085 0.5713640501910201 0.12675947622126352
0.906935681439466 0.6957441008131852 -0.013402718145488785
-0.0034143218703521754 0.8105214317195725 0.008404149165434254
-0.024802180388443118 0.8918880064742251 0.08615044467016691
0.12710723541508503 0.7713640501910201 0.12675947622126352
0.10693568143946586 0.8957441008131852 -0.013402718145488785
0.19658567812964783 0.8105214317195725 0.008404149165434254
0.1751978196115569 0.8918880064742251 0.08615044467016691
0.327107235415085 0.7713640501910201 0.12675947622126352
0.30693568143946587 0.8957441008131852 -0.013402718145488785
0.39658567812964785 0.8105214317195725 0.008404149165434254
0.3751978196115569 0.8918880064742251 0.08615044467016691
0.5271072354150851 0.7713640501910201 0.12675947622126352
0.5069356814394659 0.8957441008131852 -0.013402718145488785
0.5965856781296479 0.8105214317195725 0.008404149165434254
0.5751978196115569 0.8918880064742251 0.08615044467016691
0.727107235415085 0.7713640501910201 0.12675947622126352
0.7069356814394658 0.8957441008131852 -0.013402718145488785
0.7965856781296479 0.8105214317195725 0.008404149165434254
0.7751978196115569 0.8918880064742251 0.08615044467016691
0.927107235415085 0.7713640501910201 0.12675947622126352
0.906935681439466 0.8957441008131852 -0.013402718145488785
-0.0034143218703521754 0.010521431719572375 0.20840414916543426
-0.024802180388443118 0.09188800647422513 0.2861504446701669
0.12710723541508503 -0.028635949808979995 0.32675947622126356
0.10693568143946586 0.09574410081318512 0.18659728185451122
0.19658567812964783 0.010521431719572375 0.20840414916543426
0.1751978196115569 0.09188800647422513 0.2861504446701669
0.327107235415085 -0.028635949808979995 0.32675947622126356
0.30693568143946587 0.09574410081318512 0.18659728185451122
0.39658567812964785 0.010521431719572375 0.20840414916543426
0.3751978196115569 0.09188800647422513 0.2861504446701669
0.5271072354150851 -0.028635949808979995 0.32675947622126356
0.5069356814394659 0.09574410081318512 0.18659728185451122
0.5965856781296479 0.010521431719572375 0.20840414916543426
0.5751978196115569 0.09188800647422513 0.2861504446701669
0.727107235415085 -0.028635949808979995 0.32675947622126356
0.7069356814394658 0.09574410081318512 0.18659728185451122
0.7965856781296479 0.010521431719572375 0.20840414916543426
0.7751978196115569 0.09188800647422513 0.2861504446701669
0.927107235415085 -0.028635949808979995 0.32675947622126356
0.906935681439466 0.09574410081318512 0.18659728185451122
-0.0034143218703521754 0.21052143171957238 0.20840414916543426
-0.024802180388443118 0.29188800647422514 0.2861504446701669
0.12710723541508503 0.17136405019102002 0.32675947622126356
0.10693568143946586 0.2957441008131851 0.18659728185451122
0.19658567812964783 0.21052143171957238 0.20840414916543426
0.1751978196115569 0.29188800647422514 0.2861504446701669
0.327107235415085 0.17136405019102002 0.32675947622126356
0.30693568143946587 0.2957441008131851 0.18659728185451122
0.39658567812964785 0.21052143171957238 0.20840414916543426
0.3751978196115569 0.29188800647422514 0.2861504446701669
0.5271072354150851 0.17136405019102002 0.32675947622126356
0.5069356814394659 0.2957441008131851 0.18659728185451122
0.5965856781296479 0.21052143171957238 0.20840414916543426
0.5751978196115569 0.29188800647422514 0.2861504446701669
0.727107235415085 0.17136405019102002 0.32675947622126356
0.7069356814394658 0.2957441008131851 0.18659728185451122
0.7965856781296479 0.21052143171957238 0.20840414916543426
0.7751978196115569 0.29188800647422514 0.2861504446701669
0.927107235415085 0.17136405019102002 0.32675947622126356
0.906935681439466 0.2957441008131851 0.18659728185451122
-0.0034143218703521754 0.41052143171957245 0.20840414916543426
-0.024802180388443118 0.49188800647422515 0.2861504446701669
0.12710723541508503 0.37136405019102003 0.32675947622126356
0.10693568143946586 0.4957441008131851 0.18659728185451122
0.19658567812964783 0.41052143171957245 0.20840414916543426
0.1751978196115569 0.49188800647422515 0.2861504446701669
0.327107235415085 0.37136405019102003 0.32675947622126356
0.30693568143946587 0.4957441008131851 0.18659728185451122
0.39658567812964785 0.41052143171957245 0.20840414916543426
0.3751978196115569 0.49188800647422515 0.2861504446701669
0.5271072354150851 0.37136405019102003 0.32675947622126356
0.5069356814394659 0.4957441008131851 0.18659728185451122
0.5965856781296479 0.41052143171957245 0.20840414916543426
0.5751978196115569 0.49188800647422515 0.2861504446701669
0.727107235415085 0.37136405019102003 0.32675947622126356
0.7069356814394658 0.4957441008131851 0.18659728185451122
0.7965856781296479 0.41052143171957245 0.20840414916543426
0.7751978196115569 0.49188800647422515 0.2861504446701669
0.927107235415085 0.37136405019102003 0.32675947622126356
0.906935681439466 0.4957441008131851 0.18659728185451122
-0.0034143218703521754 0.6105214317195724 0.20840414916543426
-0.024802180388443118 0.6918880064742252 0.2861504446701669
0.12710723541508503 0.5713640501910201 0.32675947622126356
0.10693568143946586 0.6957441008131852 0.18659728185451122
0.19658567812964783 0.6105214317195724 0.20840414916543426
0.1751978196115569 0.6918880064742252 0.2861504446701669
0.327107235415085 0.5713640501910201 0.32675947622126356
0.30693568143946587 0.6957441008131852 0.18659728185451122
0.39658567812964785 0.6105214317195724 0.20840414916543426
0.3751978196115569 0.6918880064742252 0.2861504446701669
0.5271072354150851 0.5713640501910201 0.32675947622126356
0.5069356814394659 0.6957441008131852 0.18659728185451122
0.5965856781296479 0.6105214317195724 0.20840414916543426
0.5751978196115569 0.6918880064742252 0.2861504446701669
0.727107235415085 0.5713640501910201 0.32675947622126356
0.7069356814394658 0.6957441008131852 0.18659728185451122
0.7965856781296479 0.6105214317195724 0.20840414916543426
0.7751978196115569 0.6918880064742252 0.2861504446701669
0.927107235415085 0.5713640501910201 0.32675947622126356
0.906935681439466 0.6957441008131852 0.18659728185451122
-0.0034143218703521754 0.8105214317195725 0.20840414916543426
-0.024802180388443118 0.8918880064742251 0.2861504446701669
0.12710723541508503 0.7713640501910201 0.32675947622126356
0.10693568143946586 0.8957441008131852 0.18659728185451122
0.19658567812964783 0.8105214317195725 0.20840414916543426
0.1751978196115569 0.8918880064742251 0.2861504446701669
0.327107235415085 0.7713640501910201 0.32675947622126356
0.30693568143946587 0.8957441008131852 0.18659728185451122
0.39658567812964785 0.8105214317195725 0.20840414916543426
0.3751978196115569 0.8918880064742251 0.2861504446701669
0.5271072354150851 0.7713640501910201 0.32675947622126356
0.5069356814394659 0.8957441008131852 0.18659728185451122
0.5965856781296479 0.8105214317195725 0.20840414916543426
0.5751978196115569 0.8918880064742251 0.2861504446701669
0.727107235415085 0.7713640501910201 0.32675947622126356
0.7069356814394658 0.8957441008131852 0.18659728185451122
0.7965856781296479 0.8105214317195725 0.20840414916543426
0.7751978196115569 0.8918880064742251 0.2861504446701669
0.927107235415085 0.7713640501910201 0.32675947622126356
0.906935681439466 0.8957441008131852 0.18659728185451122
-0.0034143218703521754 0.010521431719572375 0.4084041491654342
-0.024802180388443118 0.09188800647422513 0.486150444670167
0.12710723541508503 -0.028635949808979995 0.5267594762212635
0.10693568143946586 0.09574410081318512 0.38659728185451125
0.19658567812964783 0.010521431719572375 0.4084041491654342
0.1751978196115569 0.09188800647422513 0.486150444670167
0.327107235415085 -0.028635949808979995 0.5267594762212635
0.30693568143946587 0.09574410081318512 0.38659728185451125
0.39658567812964785 0.010521431719572375 0.4084041491654342
0.3751978196115569 0.09188800647422513 0.486150444670167
0.5271072354150851 -0.028635949808979995 0.5267594762212635
0.5069356814394659 0.09574410081318512 0.38659728185451125
0.5965856781296479 0.010521431719572375 0.4084041491654342
0.5751978196115569 0.09188800647422513 0.486150444670167
0.727107235415085 -0.028635949808979995 0.5267594762212635
0.7069356814394658 0.09574410081318512 0.38659728185451125
0.7965856781296479 0.010521431719572375 0.4084041491654342
0.7751978196115569 0.09188800647422513 0.486150444670167
0.927107235415085 -0.028635949808979995 0.5267594762212635
0.906935681439466 0.09574410081318512 0.38659728185451125
-0.0034143218703521754 0.21052143171957238 0.4084041491654342
-0.024802180388443118 0.29188800647422514 0.486150444670167
0.12710723541508503 0.17136405019102002 0.5267594762212635
0.10693568143946586 0.2957441008131851 0.38659728185451125
0.19658567812964783 0.21052143171957238 0.4084041491654342
0.1751978196115569 0.29188800647422514 0.486150444670167
0.327107235415085 0.17136405019102002 0.5267594762212635
0.30693568143946587 0.2957441008131851 0.38659728185451125
0.39658567812964785 0.21052143171957238 0.4084041491654342
0.3751978196115569 0.29188800647422514 0.486150444670167
0.5271072354150851 0.17136405019102002 0.5267594762212635
0.5069356814394659 0.2957441008131851 0.38659728185451125
0.5965856781296479 0.21052143171957238 0.4084041491654342
0.5751978196115569 0.29188800647422514 0.486150444670167
0.727107235415085 0.17136405019102002 0.5267594762212635
0.7069356814394658 0.2957441008131851 0.38659728185451125
0.7965856781296479 0.21052143171957238 0.4084041491654342
0.7751978196115569 0.29188800647422514 0.486150444670167
0.927107235415085 0.17136405019102002 0.5267594762212635
0.906935681439466 0.2957441008131851 0.38659728185451125
-0.0034143218703521754 0.41052143171957245 0.4084041491654342
-0.024802180388443118 0.49188800647422515 0.486150444670167
0.12710723541508503 0.37136405019102003 0.5267594762212635
0.10693568143946586 0.4957441008131851 0.38659728185451125
0.19658567812964783 0.41052143171957245 0.4084041491654342
0.1751978196115569 0.49188800647422515 0.486150444670167
0.327107235415085 0.37136405019102003 0.5267594762212635
0.30693568143946587 0.4957441008131851 0.38659728185451125
0.39658567812964785 0.41052143171957245 0.4084041491654342
0.3751978196115569 0.49188800647422515 0.486150444670167
0.5271072354150851 0.37136405019102003 0.5267594762212635
0.5069356814394659 0.4957441008131851 0.38659728185451125
0.5965856781296479 0.41052143171957245 0.4084041491654342
0.5751978196115569 0.49188800647422515 0.486150444670167
0.727107235415085 0.37136405019102003 0.5267594762212635
0.7069356814394658 0.4957441008131851 0.38659728185451125
0.7965856781296479 0.41052143171957245 0.4084041491654342
0.7751978196115569 0.49188800647422515 0.486150444670167
0.927107235415085 0.37136405019102003 0.5267594762212635
0.906935681439466 0.4957441008131851 0.38659728185451125
-0.0034143218703521754 0.6105214317195724 0.4084041491654342
-0.024802180388443118 0.6918880064742252 0.486150444670167
0.12710723541508503 0.5713640501910201 0.5267594762212635
0.10693568143946586 0.6957441008131852 0.38659728185451125
0.19658567812964783 0.6105214317195724 0.4084041491654342
0.1751978196115569 0.6918880064742252 0.486150444670167
0.327107235415085 0.5713640501910201 0.5267594762212635
0.30693568143946587 0.6957441008131852 0.38659728185451125
0.39658567812964785 0.6105214317195724 0.4084041491654342
0.3751978196115569 0.6918880064742252 0.486150444670167
0.5271072354150851 0.5713640501910201 0.5267594762212635
0.5069356814394659 0.6957441008131852 0.38659728185451125
0.5965856781296479 0.6105214317195724 0.4084041491654342
0.5751978196115569 0.6918880064742252 0.486150444670167
0.727107235415085 0.5713640501910201 0.5267594762212635
0.7069356814394658 0.6957441008131852 0.38659728185451125
0.7965856781296479 0.6105214317195724 0.4084041491654342
0.7751978196115569 0.6918880064742252 0.486150444670167
0.927107235415085 0.5713640501910201 0.5267594762212635
0.906935681439466 0.6957441008131852 0.38659728185451125
-0.0034143218703521754 0.8105214317195725 0.4084041491654342
-0.024802180388443118 0.8918880064742251 0.486150444670167
0.12710723541508503 0.7713640501910201 0.5267594762212635
0.10693568143946586 0.8957441008131852 0.38659728185451125
0.19658567812964783 0.8105214317195725 0.4084041491654342
0.1751978196115569 0.8918880064742251 0.486150444670167
0.327107235415085 0.7713640501910201 0.5267594762212635
0.30693568143946587 0.8957441008131852 0.38659728185451125
0.39658567812964785 0.8105214317195725 0.4084041491654342
0.3751978196115569 0.8918880064742251 0.486150444670167
0.5271072354150851 0.7713640501910201 0.5267594762212635
0.5069356814394659 0.8957441008131852 0.38659728185451125
0.5965856781296479 0.8105214317195725 0.4084041491654342
0.5751978196115569 0.8918880064742251 0.486150444670167
0.727107235415085 0.7713640501910201 0.5267594762212635
0.7069356814394658 0.8957441008131852 0.38659728185451125
0.7965856781296479 0.8105214317195725 0.4084041491654342
0.7751978196115569 0.8918880064742251 0.486150444670167
0.927107235415085 0.7713640501910201 0.5267594762212635
0.906935681439466 0.8957441008131852 0.38659728185451125
-0.0034143218703521754 0.010521431719572375 0.6084041491654343
-0.024802180388443118 0.09188800647422513 0.686150444670167
0.12710723541508503 -0.028635949808979995 0.7267594762212636
0.10693568143946586 0.09574410081318512 0.5865972818545112
0.19658567812964783 0.010521431719572375 0.6084041491654343
0.1751978196115569 0.09188800647422513 0.686150444670167
0.327107235415085 -0.028635949808979995 0.7267594762212636
0.30693568143946587 0.09574410081318512 0.5865972818545112
0.39658567812964785 0.010521431719572375 0.6084041491654343
0.3751978196115569 0.09188800647422513 0.686150444670167
0.5271072354150851 -0.028635949808979995 0.7267594762212636
0.5069356814394659 0.09574410081318512 0.5865972818545112
0.5965856781296479 0.010521431719572375 0.6084041491654343
0.5751978196115569 0.09188800647422513 0.686150444670167
0.727107235415085 -0.028635949808979995 0.7267594762212636
0.7069356814394658 0.09574410081318512 0.5865972818545112
0.7965856781296479 0.010521431719572375 0.6084041491654343
0.7751978196115569 0.09188800647422513 0.686150444670167
0.927107235415085 -0.028635949808979995 0.7267594762212636
0.906935681439466 0.09574410081318512 0.5865972818545112
-0.0034143218703521754 0.21052143171957238 0.6084041491654343
-0.024802180388443118 0.29188800647422514 0.686150444670167
0.12710723541508503 0.17136405019102002 0.7267594762212636
0.10693568143946586 0.2957441008131851 0.5865972818545112
0.19658567812964783 0.21052143171957238 0.6084041491654343
0.1751978196115569 0.29188800647422514 0.686150444670167
0.327107235415085 0.17136405019102002 0.7267594762212636
0.30693568143946587 0.2957441008131851 0.5865972818545112
0.39658567812964785 0.21052143171957238 0.6084041491654343
0.3751978196115569 0.29188800647422514 0.686150444670167
0.5271072354150851 0.17136405019102002 0.7267594762212636
0.5069356814394659 0.2957441008131851 0.5865972818545112
0.5965856781296479 0.21052143171957238 0.6084041491654343
0.5751978196115569 0.29188800647422514 0.686150444670167
0.727107235415085 0.17136405019102002 0.7267594762212636
0.7069356814394658 0.2957441008131851 0.5865972818545112
0.7965856781296479 0.21052143171957238 0.6084041491654343
0.7751978196115569 0.29188800647422514 0.686150444670167
0.927107235415085 0.17136405019102002 0.7267594762212636
0.906935681439466 0.2957441008131851 0.5865972818545112
-0.0034143218703521754 0.41052143171957245 0.6084041491654343
-0.024802180388443118 0.49188800647422515 0.686150444670167
0.12710723541508503 0.37136405019102003 0.7267594762212636
0.10693568143946586 0.4957441008131851 0.5865972818545112
0.19658567812964783 0.41052143171957245 0.6084041491654343
0.1751978196115569 0.49188800647422515 0.686150444670167
0.327107235415085 0.37136405019102003 0.7267594762212636
0.30693568143946587 0.4957441008131851 0.5865972818545112
0.39658567812964785 0.41052143171957245 0.6084041491654343
0.3751978196115569 0.49188800647422515 0.686150444670167
0.5271072354150851 0.37136405019102003 0.7267594762212636
0.5069356814394659 0.4957441008131851 0.5865972818545112
0.5965856781296479 0.41052143171957245 0.6084041491654343
0.5751978196115569 0.49188800647422515 0.686150444670167
0.727107235415085 0.37136405019102003 0.7267594762212636
0.7069356814394658 0.4957441008131851 0.5865972818545112
0.7965856781296479 0.41052143171957245 0.6084041491654343
0.7751978196115569 0.49188800647422515 0.686150444670167
0.927107235415085 0.37136405019102003 0.7267594762212636
0.906935681439466 0.4957441008131851 0.5865972818545112
-0.0034143218703521754 0.6105214317195724 0.6084041491654343
-0.024802180388443118 0.6918880064742252 0.686150444670167
0.12710723541508503 0.5713640501910201 0.7267594762212636
0.10693568143946586 0.6957441008131852 0.5865972818545112
0.19658567812964783 0.6105214317195724 0.6084041491654343
0.1751978196115569 0.6918880064742252 0.686150444670167
0.327107235415085 0.5713640501910201 0.7267594762212636
0.30693568143946587 0.6957441008131852 0.5865972818545112
0.39658567812964785 0.6105214317195724 0.6084041491654343
0.3751978196115569 0.6918880064742252 0.686150444670167
0.5271072354150851 0.5713640501910201 0.7267594762212636
0.5069356814394659 0.6957441008131852 0.5865972818545112
0.5965856781296479 0.6105214317195724 0.6084041491654343
0.5751978196115569 0.6918880064742252 0.686150444670167
0.727107235415085 0.5713640501910201 0.7267594762212636
0.7069356814394658 0.6957441008131852 0.5865972818545112
0.7965856781296479 0.6105214317195724 0.6084041491654343
0.7751978196115569 0.6918880064742252 0.686150444670167
0.927107235415085 0.5713640501910201 0.7267594762212636
0.906935681439466 0.6957441008131852 0.5865972818545112
-0.0034143218703521754 0.8105214317195725 0.6084041491654343
-0.024802180388443118 0.8918880064742251 0.686150444670167
0.12710723541508503 0.7713640501910201 0.7267594762212636
0.10693568143946586 0.8957441008131852 0.5865972818545112
0.19658567812964783 0.8105214317195725 0.6084041491654343
0.1751978196115569 0.8918880064742251 0.686150444670167
0.327107235415085 0.7713640501910201 0.7267594762212636
0.30693568143946587 0.8957441008131852 0.5865972818545112
0.39658567812964785 0.8105214317195725 0.6084041491654343
0.3751978196115569 0.8918880064742251 0.686150444670167
0.5271072354150851 0.7713640501910201 0.7267594762212636
0.5069356814394659 0.8957441008131852 0.5865972818545112
0.5965856781296479 0.8105214317195725 0.6084041491654343
0.5751978196115569 0.8918880064742251 0.686150444670167
0.727107235415085 0.7713640501910201 0.7267594762212636
0.7069356814394658 0.8957441008131852 0.5865972818545112
0.7965856781296479 0.8105214317195725 0.6084041491654343
0.7751978196115569 0.8918880064742251 0.686150444670167
0.927107235415085 0.7713640501910201 0.7267594762212636
0.906935681439466 0.8957441008131852 0.5865972818545112
-0.0034143218703521754 0.010521431719572375 0.8084041491654343
-0.024802180388443118 0.09188800647422513 0.886150444670167
0.12710723541508503 -0.028635949808979995 0.9267594762212635
0.10693568143946586 0.09574410081318512 0.7865972818545113
0.19658567812964783 0.010521431719572375 0.8084041491654343
0.1751978196115569 0.09188800647422513 0.886150444670167
0.327107235415085 -0.028635949808979995 0.9267594762212635
0.30693568143946587 0.09574410081318512 0.7865972818545113
0.39658567812964785 0.010521431719572375 0.8084041491654343
0.3751978196115569 0.09188800647422513 0.886150444670167
0.5271072354150851 -0.028635949808979995 0.9267594762212635
0.5069356814394659 0.09574410081318512 0.7865972818545113
0.5965856781296479 0.010521431719572375 0.8084041491654343
0.5751978196115569 0.09188800647422513 0.886150444670167
0.727107235415085 -0.028635949808979995 0.9267594762212635
0.7069356814394658 0.09574410081318512 0.7865972818545113
0.7965856781296479 0.010521431719572375 0.8084041491654343
0.7751978196115569 0.09188800647422513 0.886150444670167
0.927107235415085 -0.028635949808979995 0.9267594762212635
0.906935681439466 0.09574410081318512 0.7865972818545113
-0.0034143218703521754 0.21052143171957238 0.8084041491654343
-0.024802180388443118 0.29188800647422514 0.886150444670167
0.12710723541508503 0.17136405019102002 0.9267594762212635
0.10693568143946586 0.2957441008131851 0.7865972818545113
0.19658567812964783 0.21052143171957238 0.8084041491654343
0.1751978196115569 0.29188800647422514 0.886150444670167
0.327107235415085 0.17136405019102002 0.9267594762212635
0.30693568143946587 0.2957441008131851 0.7865972818545113
0.39658567812964785 0.21052143171957238 0.8084041491654343
0.3751978196115569 0.29188800647422514 0.886150444670167
0.5271072354150851 0.17136405019102002 0.9267594762212635
0.5069356814394659 0.2957441008131851 0.7865972818545113
0.5965856781296479 0.21052143171957238 0.8084041491654343
0.5751978196115569 0.29188800647422514 0.886150444670167
0.727107235415085 0.17136405019102002 0.9267594762212635
0.7069356814394658 0.2957441008131851 0.7865972818545113
0.7965856781296479 0.21052143171957238 0.8084041491654343
0.7751978196115569 0.29188800647422514 0.886150444670167
0.927107235415085 0.17136405019102002 0.9267594762212635
0.906935681439466 0.2957441008131851 0.7865972818545113
-0.0034143218703521754 0.41052143171957245 0.8084041491654343
-0.024802180388443118 0.49188800647422515 0.886150444670167
0.12710723541508503 0.37136405019102003 0.9267594762212635
0.10693568143946586 0.4957441008131851 0.7865972818545113
0.19658567812964783 0.41052143171957245 0.8084041491654343
0.1751978196115569 0.49188800647422515 0.886150444670167
0.327107235415085 0.37136405019102003 0.9267594762212635
0.30693568143946587 0.4957441008131851 0.7865972818545113
0.39658567812964785 0.41052143171957245 0.8084041491654343
0.3751978196115569 0.49188800647422515 0.886150444670167
0.5271072354150851 0.37136405019102003 0.9267594762212635
0.5069356814394659 0.4957441008131851 0.7865972818545113
0.5965856781296479 0.41052143171957245 0.8084041491654343
0.5751978196115569 0.49188800647422515 0.886150444670167
0.727107235415085 0.37136405019102003 0.9267594762212635
0.7069356814394658 0.4957441008131851 0.7865972818545113
0.7965856781296479 0.41052143171957245 0.8084041491654343
0.7751978196115569 0.49188800647422515 0.886150444670167
0.927107235415085 0.37136405019102003 0.9267594762212635
0.906935681439466 0.4957441008131851 0.7865972818545113
-0.0034143218703521754 0.6105214317195724 0.8084041491654343
-0.024802180388443118 0.6918880064742252 0.886150444670167
0.12710723541508503 0.5713640501910201 0.9267594762212635
0.10693568143946586 0.6957441008131852 0.7865972818545113
0.19658567812964783 0.6105214317195724 0.8084041491654343
0.1751978196115569 0.6918880064742252 0.886150444670167
0.327107235415085 0.5713640501910201 0.9267594762212635
0.30693568143946587 0.6957441008131852 0.7865972818545113
0.39658567812964785 0.6105214317195724 0.8084041491654343
0.3751978196115569 0.6918880064742252 0.886150444670167
0.5271072354150851 0.5713640501910201 0.9267594762212635
0.5069356814394659 0.6957441008131852 0.7865972818545113
0.5965856781296479 0.6105214317195724 0.8084041491654343
0.5751978196115569 0.6918880064742252 0.886150444670167
0.727107235415085 0.5713640501910201 0.9267594762212635
0.7069356814394658 0.6957441008131852 0.7865972818545113
0.7965856781296479 0.6105214317195724 0.8084041491654343
0.7751978196115569 0.6918880064742252 0.886150444670167
0.927107235415085 0.5713640501910201 0.9267594762212635
0.906935681439466 0.6957441008131852 0.7865972818545113
-0.0034143218703521754 0.8105214317195725 0.8084041491654343
-0.024802180388443118 0.8918880064742251 0.886150444670167
0.12710723541508503 0.7713640501910201 0.9267594762212635
0.10693568143946586 0.8957441008131852 0.7865972818545113
0.19658567812964783 0.8105214317195725 0.8084041491654343
0.1751978196115569 0.8918880064742251 0.886150444670167
0.327107235415085 0.7713640501910201 0.9267594762212635
0.30693568143946587 0.8957441008131852 0.7865972818545113
0.39658567812964785 0.8105214317195725 0.8084041491654343
0.3751978196115569 0.8918880064742251 0.886150444670167
0.5271072354150851 0.7713640501910201 0.9267594762212635
0.5069356814394659 0.8957441008131852 0.7865972818545113
0.5965856781296479 0.8105214317195725 0.8084041491654343
0.5751978196115569 0.8918880064742251 0.886150444670167
0.727107235415085 0.7713640501910201 0.9267594762212635
0.7069356814394658 0.8957441008131852 0.7865972818545113
0.7965856781296479 0.8105214317195725 0.8084041491654343
0.7751978196115569 0.8918880064742251 0.886150444670167
0.927107235415085 0.7713640501910201 0.9267594762212635
0.906935681439466 0.8957441008131852 0.7865972818545113
0.10832744131295824 -0.02987644552554434 2.293727799787537e-05
-0.001183714225499466 0.11780898601199992 0.017296363281343475
0.02541867039550237 -0.029671162641185647 0.11889033891539497
0.11840497739205513 0.07108677528303593 0.08715375910513155
0.30832744131295825 -0.02987644552554434 2.293727799787537e-05
0.19881628577450053 0.11780898601199992 0.017296363281343475
0.2254186703955024 -0.029671162641185647 0.11889033891539497
0.3184049773920552 0.07108677528303593 0.08715375910513155
0.5083274413129583 -0.02987644552554434 2.293727799787537e-05
0.39881628577450057 0.11780898601199992 0.017296363281343475
0.4254186703955024 -0.029671162641185647 0.11889033891539497
0.5184049773920552 0.07108677528303593 0.08715375910513155
0.7083274413129583 -0.02987644552554434 2.293727799787537e-05
0.5988162857745006 0.11780898601199992 0.017296363281343475
0.6254186703955025 -0.029671162641185647 0.11889033891539497
0.7184049773920552 0.07108677528303593 0.08715375910513155
0.9083274413129584 -0.02987644552554434 2.293727799787537e-05
0.7988162857745006 0.11780898601199992 0.017296363281343475
0.8254186703955023 -0.029671162641185647 0.11889033891539497
0.9184049773920551 0.07108677528303593 0.08715375910513155
0.10832744131295824 0.17012355447445568 2.293727799787537e-05
-0.001183714225499466 0.3178089860119999 0.017296363281343475
0.02541867039550237 0.17032883735881438 0.11889033891539497
0.11840497739205513 0.27108677528303593 0.08715375910513155
0.30832744131295825 0.17012355447445568 2.293727799787537e-05
0.19881628577450053 0.3178089860119999 0.017296363281343475
0.2254186703955024 0.17032883735881438 0.11889033891539497
0.3184049773920552 0.27108677528303593 0.08715375910513155
0.5083274413129583 0.17012355447445568 2.293727799787537e-05
0.39881628577450057 0.3178089860119999 0.017296363281343475
0.4254186703955024 0.17032883735881438 0.11889033891539497
0.5184049773920552 0.27108677528303593 0.08715375910513155
0.7083274413129583 0.17012355447445568 2.293727799787537e-05
0.5988162857745006 0.3178089860119999 0.017296363281343475
0.6254186703955025 0.17032883735881438 0.11889033891539497
0.7184049773920552 0.27108677528303593 0.08715375910513155
0.9083274413129584 0.17012355447445568 2.293727799787537e-05
0.7988162857745006 0.3178089860119999 0.017296363281343475
0.8254186703955023 0.17032883735881438 0.11889033891539497
0.9184049773920551 0.27108677528303593 0.08715375910513155
0.10832744131295824 0.37012355447445566 2.293727799787537e-05
-0.001183714225499466 0.517808986012 0.017296363281343475
0.02541867039550237 0.3703288373588144 0.11889033891539497
0.11840497739205513 0.47108677528303594 0.08715375910513155
0.30832744131295825 0.37012355447445566 2.293727799787537e-05
0.19881628577450053 0.517808986012 0.017296363281343475
0.2254186703955024 0.3703288373588144 0.11889033891539497
0.3184049773920552 0.47108677528303594 0.08715375910513155
0.5083274413129583 0.37012355447445566 2.293727799787537e-05
0.39881628577450057 0.517808986012 0.017296363281343475
0.4254186703955024 0.3703288373588144 0.11889033891539497
0.5184049773920552 0.47108677528303594 0.08715375910513155
0.7083274413129583 0.37012355447445566 2.293727799787537e-05
0.5988162857745006 0.517808986012 0.017296363281343475
0.6254186703955025 0.3703288373588144 0.11889033891539497
0.7184049773920552 0.47108677528303594 0.08715375910513155
0.9083274413129584 0.37012355447445566 2.293727799787537e-05
0.7988162857745006 0.517808986012 0.017296363281343475
0.8254186703955023 0.3703288373588144 0.11889033891539497
0.9184049773920551 0.47108677528303594 0.08715375910513155
0.10832744131295824 0.5701235544744557 2.293727799787537e-05
-0.001183714225499466 0.7178089860119999 0.017296363281343475
0.02541867039550237 0.5703288373588143 0.11889033891539497
0.11840497739205513 0.671086775283036 0.08715375910513155
0.30832744131295825 0.5701235544744557 2.293727799787537e-05
0.19881628577450053 0.7178089860119999 0.017296363281343475
0.2254186703955024 0.5703288373588143 0.11889033891539497
0.3184049773920552 0.671086775283036 0.08715375910513155
0.5083274413129583 0.5701235544744557 2.293727799787537e-05
0.39881628577450057 0.7178089860119999 0.017296363281343475
0.4254186703955024 0.5703288373588143 0.11889033891539497
0.5184049773920552 0.671086775283036 0.08715375910513155
0.7083274413129583 0.5701235544744557 2.293727799787537e-05
0.5988162857745006 0.7178089860119999 0.017296363281343475
0.6254186703955025 0.5703288373588143 0.11889033891539497
0.7184049773920552 0.671086775283036 0.08715375910513155
0.9083274413129584 0.5701235544744557 2.293727799787537e-05
0.7988162857745006 0.7178089860119999 0.017296363281343475
0.8254186703955023 0.5703288373588143 0.11889033891539497
0.9184049773920551 0.671086775283036 0.08715375910513155
0.10832744131295824 0.7701235544744557 2.293727799787537e-05
-0.001183714225499466 0.917808986012 0.017296363281343475
0.02541867039550237 0.7703288373588144 0.11889033891539497
0.11840497739205513 0.871086775283036 0.08715375910513155
0.30832744131295825 0.7701235544744557 2.293727799787537e-05
0.19881628577450053 0.917808986012 0.017296363281343475
0.2254186703955024 0.7703288373588144 0.11889033891539497
0.3184049773920552 0.871086775283036 0.08715375910513155
0.5083274413129583 0.7701235544744557 2.293727799787537e-05
0.39881628577450057 0.917808986012 0.017296363281343475
0.4254186703955024 0.7703288373588144 0.11889033891539497
0.5184049773920552 0.871086775283036 0.08715375910513155
0.7083274413129583 0.7701235544744557 2.293727799787537e-05
0.5988162857745006 0.917808986012 0.017296363281343475
0.6254186703955025 0.7703288373588144 0.11889033891539497
0.7184049773920552 0.871086775283036 0.08715375910513155
0.9083274413129584 0.7701235544744557 2.293727799787537e-05
0.7988162857745006 0.917808986012 0.017296363281343475
0.8254186703955023 0.7703288373588144 0.11889033891539497
0.9184049773920551 0.871086775283036 0.08715375910513155
0.10832744131295824 -0.02987644552554434 0.20002293727799791
-0.001183714225499466 0.11780898601199992 0.2172963632813435
0.02541867039550237 -0.029671162641185647 0.318890338915395
0.11840497739205513 0.07108677528303593 0.2871537591051316
0.30832744131295825 -0.02987644552554434 0.20002293727799791
0.19881628577450053 0.11780898601199992 0.2172963632813435
0.2254186703955024 -0.029671162641185647 0.318890338915395
0.3184049773920552 0.07108677528303593 0.2871537591051316
0.5083274413129583 -0.02987644552554434 0.20002293727799791
0.39881628577450057 0.11780898601199992 0.2172963632813435
0.4254186703955024 -0.029671162641185647 0.318890338915395
0.5184049773920552 0.07108677528303593 0.2871537591051316
0.7083274413129583 -0.02987644552554434 0.20002293727799791
0.5988162857745006 0.11780898601199992 0.2172963632813435
0.6254186703955025 -0.029671162641185647 0.318890338915395
0.7184049773920552 0.07108677528303593 0.2871537591051316
0.9083274413129584 -0.02987644552554434 0.20002293727799791
0.7988162857745006 0.11780898601199992 0.2172963632813435
0.8254186703955023 -0.029671162641185647 0.318890338915395
0.9184049773920551 0.07108677528303593 0.2871537591051316
0.10832744131295824 0.17012355447445568 0.20002293727799791
-0.001183714225499466 0.3178089860119999 0.2172963632813435
0.02541867039550237 0.17032883735881438 0.318890338915395
0.11840497739205513 0.27108677528303593 0.2871537591051316
0.30832744131295825 0.17012355447445568 0.20002293727799791
0.19881628577450053 0.3178089860119999 0.2172963632813435
0.2254186703955024 0.17032883735881438 0.318890338915395
0.3184049773920552 0.27108677528303593 0.2871537591051316
0.5083274413129583 0.17012355447445568 0.20002293727799791
0.39881628577450057 0.3178089860119999 0.2172963632813435
0.4254186703955024 0.17032883735881438 0.318890338915395
0.5184049773920552 0.27108677528303593 0.2871537591051316
0.7083274413129583 0.17012355447445568 0.20002293727799791
0.5988162857745006 0.3178089860119999 0.2172963632813435
0.6254186703955025 0.17032883735881438 0.318890338915395
0.7184049773920552 0.27108677528303593 0.2871537591051316
0.9083274413129584 0.17012355447445568 0.20002293727799791
0.7988162857745006 0.3178089860119999 0.2172963632813435
0.8254186703955023 0.17032883735881438 0.318890338915395
0.9184049773920551 0.27108677528303593 0.2871537591051316
0.10832744131295824 0.37012355447445566 0.20002293727799791
-0.001183714225499466 0.517808986012 0.2172963632813435
0.02541867039550237 0.3703288373588144 0.318890338915395
0.11840497739205513 0.47108677528303594 0.2871537591051316
0.30832744131295825 0.37012355447445566 0.20002293727799791
0.19881628577450053 0.517808986012 0.2172963632813435
0.2254186703955024 0.3703288373588144 0.318890338915395
0.3184049773920552 0.47108677528303594 0.2871537591051316
0.5083274413129583 0.37012355447445566 0.20002293727799791
0.39881628577450057 0.517808986012 0.2172963632813435
0.4254186703955024 0.3703288373588144 0.318890338915395
0.5184049773920552 0.47108677528303594 0.2871537591051316
0.7083274413129583 0.37012355447445566 0.20002293727799791
0.5988162857745006 0.517808986012 0.2172963632813435
0.6254186703955025 0.3703288373588144 0.318890338915395
0.7184049773920552 0.47108677528303594 0.2871537591051316
0.9083274413129584 0.37012355447445566 0.20002293727799791
0.7988162857745006 0.517808986012 0.2172963632813435
0.8254186703955023 0.3703288373588144 0.318890338915395
0.9184049773920551 0.47108677528303594 0.2871537591051316
0.10832744131295824 0.5701235544744557 0.20002293727799791
-0.001183714225499466 0.7178089860119999 0.2172963632813435
0.02541867039550237 0.5703288373588143 0.318890338915395
0.11840497739205513 0.671086775283036 0.2871537591051316
0.30832744131295825 0.5701235544744557 0.20002293727799791
0.19881628577450053 0.7178089860119999 0.2172963632813435
0.2254186703955024 0.5703288373588143 0.318890338915395
0.3184049773920552 0.671086775283036 0.2871537591051316
0.5083274413129583 0.5701235544744557 0.20002293727799791
0.39881628577450057 0.7178089860119999 0.2172963632813435
0.4254186703955024 0.5703288373588143 0.318890338915395
0.5184049773920552 0.671086775283036 0.2871537591051316
0.7083274413129583 0.5701235544744557 0.20002293727799791
0.5988162857745006 0.7178089860119999 0.2172963632813435
0.6254186703955025 0.5703288373588143 0.318890338915395
0.7184049773920552 0.671086775283036 0.2871537591051316
0.9083274413129584 0.5701235544744557 0.20002293727799791
0.7988162857745006 0.7178089860119999 0.2172963632813435
0.8254186703955023 0.5703288373588143 0.318890338915395
0.9184049773920551 0.671086775283036 0.2871537591051316
0.10832744131295824 0.7701235544744557 0.20002293727799791
-0.001183714225499466 0.917808986012 0.2172963632813435
0.02541867039550237 0.7703288373588144 0.318890338915395
0.11840497739205513 0.871086775283036 0.2871537591051316
0.30832744131295825 0.7701235544744557 0.20002293727799791
0.19881628577450053 0.917808986012 0.2172963632813435
0.2254186703955024 0.7703288373588144 0.318890338915395
0.3184049773920552 0.871086775283036 0.2871537591051316
0.5083274413129583 0.7701235544744557 0.20002293727799791
0.39881628577450057 0.917808986012 0.2172963632813435
0.4254186703955024 0.7703288373588144 0.318890338915395
0.5184049773920552 0.871086775283036 0.2871537591051316
0.7083274413129583 0.7701235544744557 0.20002293727799791
0.5988162857745006 0.917808986012 0.2172963632813435
0.6254186703955025 0.7703288373588144 0.318890338915395
0.7184049773920552 0.871086775283036 0.2871537591051316
0.9083274413129584 0.7701235544744557 0.20002293727799791
0.7988162857745006 0.917808986012 0.2172963632813435
0.8254186703955023 0.7703288373588144 0.318890338915395
0.9184049773920551 0.871086775283036 0.2871537591051316
0.10832744131295824 -0.02987644552554434 0.40002293727799787
-0.001183714225499466 0.11780898601199992 0.4172963632813435
0.02541867039550237 -0.029671162641185647 0.518890338915395
0.11840497739205513 0.07108677528303593 0.4871537591051316
0.30832744131295825 -0.02987644552554434 0.40002293727799787
0.19881628577450053 0.11780898601199992 0.4172963632813435
0.2254186703955024 -0.029671162641185647 0.518890338915395
0.3184049773920552 0.07108677528303593 0.4871537591051316
0.5083274413129583 -0.02987644552554434 0.40002293727799787
0.39881628577450057 0.11780898601199992 0.4172963632813435
0.4254186703955024 -0.029671162641185647 0.518890338915395
0.5184049773920552 0.07108677528303593 0.4871537591051316
0.7083274413129583 -0.02987644552554434 0.40002293727799787
0.5988162857745006 0.11780898601199992 0.4172963632813435
0.6254186703955025 -0.029671162641185647 0.518890338915395
0.7184049773920552 0.07108677528303593 0.4871537591051316
0.9083274413129584 -0.02987644552554434 0.40002293727799787
0.7988162857745006 0.11780898601199992 0.4172963632813435
0.8254186703955023 -0.029671162641185647 0.518890338915395
0.9184049773920551 0.07108677528303593 0.4871537591051316
0.10832744131295824 0.17012355447445568 0.40002293727799787
-0.001183714225499466 0.3178089860119999 0.4172963632813435
0.02541867039550237 0.17032883735881438 0.518890338915395
0.11840497739205513 0.27108677528303593 0.4871537591051316
0.30832744131295825 0.17012355447445568 0.40002293727799787
0.19881628577450053 0.3178089860119999 0.4172963632813435
0.2254186703955024 0.17032883735881438 0.518890338915395
0.3184049773920552 0.27108677528303593 0.4871537591051316
0.5083274413129583 0.17012355447445568 0.40002293727799787
0.39881628577450057 0.3178089860119999 0.4172963632813435
0.4254186703955024 0.17032883735881438 0.518890338915395
0.5184049773920552 0.27108677528303593 0.4871537591051316
0.7083274413129583 0.17012355447445568 0.40002293727799787
0.5988162857745006 0.3178089860119999 0.4172963632813435
0.6254186703955025 0.17032883735881438 0.518890338915395
0.7184049773920552 0.27108677528303593 0.4871537591051316
0.9083274413129584 0.17012355447445568 0.40002293727799787
0.7988162857745006 0.3178089860119999 0.4172963632813435
0.8254186703955023 0.17032883735881438 0.518890338915395
0.9184049773920551 0.27108677528303593 0.4871537591051316
0.10832744131295824 0.37012355447445566 0.40002293727799787
-0.001183714225499466 0.517808986012 0.4172963632813435
0.02541867039550237 0.3703288373588144 0.518890338915395
0.11840497739205513 0.47108677528303594 0.4871537591051316
0.30832744131295825 0.37012355447445566 0.40002293727799787
0.19881628577450053 0.517808986012 0.4172963632813435
0.2254186703955024 0.3703288373588144 0.518890338915395
0.3184049773920552 0.47108677528303594 0.4871537591051316
0.5083274413129583 0.37012355447445566 0.40002293727799787
0.39881628577450057 0.517808986012 0.4172963632813435
0.4254186703955024 0.3703288373588144 0.518890338915395
0.5184049773920552 0.47108677528303594 0.4871537591051316
0.7083274413129583 0.37012355447445566 0.40002293727799787
0.5988162857745006 0.517808986012 0.4172963632813435
0.6254186703955025 0.3703288373588144 0.518890338915395
0.7184049773920552 0.47108677528303594 0.4871537591051316
0.9083274413129584 0.37012355447445566 0.40002293727799787
0.7988162857745006 0.517808986012 0.4172963632813435
0.8254186703955023 0.3703288373588144 0.518890338915395
0.9184049773920551 0.47108677528303594 0.4871537591051316
0.10832744131295824 0.5701235544744557 0.40002293727799787
-0.001183714225499466 0.7178089860119999 0.4172963632813435
0.02541867039550237 0.5703288373588143 0.518890338915395
0.11840497739205513 0.671086775283036 0.4871537591051316
0.30832744131295825 0.5701235544744557 0.40002293727799787
0.19881628577450053 0.7178089860119999 0.4172963632813435
0.2254186703955024 0.5703288373588143 0.518890338915395
0.3184049773920552 0.671086775283036 0.4871537591051316
0.5083274413129583 0.5701235544744557 0.40002293727799787
0.39881628577450057 0.7178089860119999 0.4172963632813435
0.4254186703955024 0.5703288373588143 0.518890338915395
0.5184049773920552 0.671086775283036 0.4871537591051316
0.7083274413129583 0.5701235544744557 0.40002293727799787
0.5988162857745006 0.7178089860119999 0.4172963632813435
0.6254186703955025 0.5703288373588143 0.518890338915395
0.7184049773920552 0.671086775283036 0.4871537591051316
0.9083274413129584 0.5701235544744557 0.40002293727799787
0.7988162857745006 0.7178089860119999 0.4172963632813435
0.8254186703955023 0.5703288373588143 0.518890338915395
0.9184049773920551 0.671086775283036 0.4871537591051316
0.10832744131295824 0.7701235544744557 0.40002293727799787
-0.001183714225499466 0.917808986012 0.4172963632813435
0.02541867039550237 0.7703288373588144 0.518890338915395
0.11840497739205513 0.871086775283036 0.4871537591051316
0.30832744131295825 0.7701235544744557 0.40002293727799787
0.19881628577450053 0.917808986012 0.4172963632813435
0.2254186703955024 0.7703288373588144 0.518890338915395
0.3184049773920552 0.871086775283036 0.4871537591051316
0.5083274413129583 0.7701235544744557 0.40002293727799787
0.39881628577450057 0.917808986012 0.4172963632813435
0.4254186703955024 0.7703288373588144 0.518890338915395
0.5184049773920552 0.871086775283036 0.4871537591051316
0.7083274413129583 0.7701235544744557 0.40002293727799787
0.5988162857745006 0.917808986012 0.4172963632813435
0.6254186703955025 0.7703288373588144 0.518890338915395
0.7184049773920552 0.871086775283036 0.4871537591051316
0.9083274413129584 0.7701235544744557 0.40002293727799787
0.7988162857745006 0.917808986012 0.4172963632813435
0.8254186703955023 0.7703288373588144 0.518890338915395
0.9184049773920551 0.871086775283036 0.4871537591051316
0.10832744131295824 -0.02987644552554434 0.6000229372779979
-0.001183714225499466 0.11780898601199992 0.6172963632813435
0.02541867039550237 -0.029671162641185647 0.718890338915395
0.11840497739205513 0.07108677528303593 0.6871537591051315
0.30832744131295825 -0.02987644552554434 0.6000229372779979
0.19881628577450053 0.11780898601199992 0.6172963632813435
0.2254186703955024 -0.029671162641185647 0.718890338915395
0.3184049773920552 0.07108677528303593 0.6871537591051315
0.5083274413129583 -0.02987644552554434 0.6000229372779979
0.39881628577450057 0.11780898601199992 0.6172963632813435
0.4254186703955024 -0.029671162641185647 0.718890338915395
0.5184049773920552 0.07108677528303593 0.6871537591051315
0.7083274413129583 -0.02987644552554434 0.6000229372779979
0.5988162857745006 0.11780898601199992 0.6172963632813435
0.6254186703955025 -0.029671162641185647 0.718890338915395
0.7184049773920552 0.07108677528303593 0.6871537591051315
0.9083274413129584 -0.02987644552554434 0.6000229372779979
0.7988162857745006 0.11780898601199992 0.6172963632813435
0.8254186703955023 -0.029671162641185647 0.718890338915395
0.9184049773920551 0.07108677528303593 0.6871537591051315
0.10832744131295824 0.17012355447445568 0.6000229372779979
-0.001183714225499466 0.3178089860119999 0.6172963632813435
0.02541867039550237 0.17032883735881438 0.718890338915395
0.11840497739205513 0.27108677528303593 0.6871537591051315
0.30832744131295825 0.17012355447445568 0.6000229372779979
0.19881628577450053 0.3178089860119999 0.6172963632813435
0.2254186703955024 0.17032883735881438 0.718890338915395
0.3184049773920552 0.27108677528303593 0.6871537591051315
0.5083274413129583 0.17012355447445568 0.6000229372779979
0.39881628577450057 0.3178089860119999 0.6172963632813435
0.4254186703955024 0.17032883735881438 0.718890338915395
0.5184049773920552 0.27108677528303593 0.6871537591051315
0.7083274413129583 0.17012355447445568 0.6000229372779979
0.5988162857745006 0.3178089860119999 0.6172963632813435
0.6254186703955025 0.17032883735881438 0.718890338915395
0.7184049773920552 0.27108677528303593 0.6871537591051315
0.9083274413129584 0.17012355447445568 0.6000229372779979
0.7988162857745006 0.3178089860119999 0.6172963632813435
0.8254186703955023 0.17032883735881438 0.718890338915395
0.9184049773920551 0.27108677528303593 0.6871537591051315
0.10832744131295824 0.37012355447445566 0.6000229372779979
-0.001183714225499466 0.517808986012 0.6172963632813435
0.02541867039550237 0.3703288373588144 0.718890338915395
0.11840497739205513 0.47108677528303594 0.6871537591051315
0.30832744131295825 0.37012355447445566 0.6000229372779979
0.19881628577450053 0.517808986012 0.6172963632813435
0.2254186703955024 0.3703288373588144 0.718890338915395
0.3184049773920552 0.47108677528303594 0.6871537591051315
0.5083274413129583 0.37012355447445566 0.6000229372779979
0.39881628577450057 0.517808986012 0.6172963632813435
0.4254186703955024 0.3703288373588144 0.718890338915395
0.5184049773920552 0.47108677528303594 0.6871537591051315
0.7083274413129583 0.37012355447445566 0.6000229372779979
0.5988162857745006 0.517808986012 0.6172963632813435
0.6254186703955025 0.3703288373588144 0.718890338915395
0.7184049773920552 0.47108677528303594 0.6871537591051315
0.9083274413129584 0.37012355447445566 0.6000229372779979
0.7988162857745006 0.517808986012 0.6172963632813435
0.8254186703955023 0.3703288373588144 0.718890338915395
0.9184049773920551 0.47108677528303594 0.6871537591051315
0.10832744131295824 0.5701235544744557 0.6000229372779979
-0.001183714225499466 0.7178089860119999 0.6172963632813435
0.02541867039550237 0.5703288373588143 0.718890338915395
0.11840497739205513 0.671086775283036 0.6871537591051315
0.30832744131295825 0.5701235544744557 0.6000229372779979
0.19881628577450053 0.7178089860119999 0.6172963632813435
0.2254186703955024 0.5703288373588143 0.718890338915395
0.3184049773920552 0.671086775283036 0.6871537591051315
0.5083274413129583 0.5701235544744557 0.6000229372779979
0.39881628577450057 0.7178089860119999 0.6172963632813435
0.4254186703955024 0.5703288373588143 0.718890338915395
0.5184049773920552 0.671086775283036 0.6871537591051315
0.7083274413129583 0.5701235544744557 0.6000229372779979
0.5988162857745006 0.7178089860119999 0.6172963632813435
0.6254186703955025 0.5703288373588143 0.718890338915395
0.7184049773920552 0.671086775283036 0.6871537591051315
0.9083274413129584 0.5701235544744557 0.6000229372779979
0.7988162857745006 0.7178089860119999 0.6172963632813435
0.8254186703955023 0.5703288373588143 0.718890338915395
0.9184049773920551 0.671086775283036 0.6871537591051315
0.10832744131295824 0.7701235544744557 0.6000229372779979
-0.001183714225499466 0.917808986012 0.6172963632813435
0.02541867039550237 0.7703288373588144 0.718890338915395
0.11840497739205513 0.871086775283036 0.6871537591051315
0.30832744131295825 0.7701235544744557 0.6000229372779979
0.19881628577450053 0.917808986012 0.6172963632813435
0.2254186703955024 0.7703288373588144 0.718890338915395
0.3184049773920552 0.871086775283036 0.6871537591051315
0.5083274413129583 0.7701235544744557 0.6000229372779979
0.39881628577450057 0.917808986012 0.6172963632813435
0.4254186703955024 0.7703288373588144 0.718890338915395
0.5184049773920552 0.871086775283036 0.6871537591051315
0.7083274413129583 0.7701235544744557 0.6000229372779979
0.5988162857745006 0.917808986012 0.6172963632813435
0.6254186703955025 0.7703288373588144 0.718890338915395
0.7184049773920552 0.871086775283036 0.6871537591051315
0.9083274413129584 0.7701235544744557 0.6000229372779979
0.7988162857745006 0.917808986012 0.6172963632813435
0.8254186703955023 0.7703288373588144 0.718890338915395
0.9184049773920551 0.871086775283036 0.6871537591051315
0.10832744131295824 -0.02987644552554434 0.8000229372779979
-0.001183714225499466 0.11780898601199992 0.8172963632813435
0.02541867039550237 -0.029671162641185647 0.9188903389153951
0.11840497739205513 0.07108677528303593 0.8871537591051315
0.30832744131295825 -0.02987644552554434 0.8000229372779979
0.19881628577450053 0.11780898601199992 0.8172963632813435
0.2254186703955024 -0.029671162641185647 0.9188903389153951
0.3184049773920552 0.07108677528303593 0.8871537591051315
0.5083274413129583 -0.02987644552554434 0.8000229372779979
0.39881628577450057 0.11780898601199992 0.8172963632813435
0.4254186703955024 -0.029671162641185647 0.9188903389153951
0.5184049773920552 0.07108677528303593 0.8871537591051315
0.7083274413129583 -0.02987644552554434 0.8000229372779979
0.5988162857745006 0.11780898601199992 0.8172963632813435
0.6254186703955025 -0.029671162641185647 0.9188903389153951
0.7184049773920552 0.07108677528303593 0.8871537591051315
0.9083274413129584 -0.02987644552554434 0.8000229372779979
0.7988162857745006 0.11780898601199992 0.8172963632813435
0.8254186703955023 -0.029671162641185647 0.9188903389153951
0.9184049773920551 0.07108677528303593 0.8871537591051315
0.10832744131295824 0.17012355447445568 0.8000229372779979
-0.001183714225499466 0.3178089860119999 0.8172963632813435
0.02541867039550237 0.17032883735881438 0.9188903389153951
0.11840497739205513 0.27108677528303593 0.8871537591051315
0.30832744131295825 0.17012355447445568 0.8000229372779979
0.19881628577450053 0.3178089860119999 0.8172963632813435
0.2254186703955024 0.17032883735881438 0.9188903389153951
0.3184049773920552 0.27108677528303593 0.8871537591051315
0.5083274413129583 0.17012355447445568 0.8000229372779979
0.39881628577450057 0.3178089860119999 0.8172963632813435
0.4254186703955024 0.17032883735881438 0.9188903389153951
0.5184049773920552 0.27108677528303593 0.8871537591051315
0.7083274413129583 0.17012355447445568 0.8000229372779979
0.5988162857745006 0.3178089860119999 0.8172963632813435
0.6254186703955025 0.17032883735881438 0.9188903389153951
0.7184049773920552 0.27108677528303593 0.8871537591051315
0.9083274413129584 0.17012355447445568 0.8000229372779979
0.7988162857745006 0.3178089860119999 0.8172963632813435
0.8254186703955023 0.17032883735881438 0.9188903389153951
0.9184049773920551 0.27108677528303593 0.8871537591051315
0.10832744131295824 0.37012355447445566 0.8000229372779979
-0.001183714225499466 0.517808986012 0.8172963632813435
0.02541867039550237 0.3703288373588144 0.9188903389153951
0.11840497739205513 0.47108677528303594 0.8871537591051315
0.30832744131295825 0.37012355447445566 0.8000229372779979
0.19881628577450053 0.517808986012 0.8172963632813435
0.2254186703955024 0.3703288373588144 0.9188903389153951
0.3184049773920552 0.47108677528303594 0.8871537591051315
0.5083274413129583 0.37012355447445566 0.8000229372779979
0.39881628577450057 0.517808986012 0.8172963632813435
0.4254186703955024 0.3703288373588144 0.9188903389153951
0.5184049773920552 0.47108677528303594 0.8871537591051315
0.7083274413129583 0.37012355447445566 0.8000229372779979
0.5988162857745006 0.517808986012 0.8172963632813435
0.6254186703955025 0.3703288373588144 0.9188903389153951
0.7184049773920552 0.47108677528303594 0.8871537591051315
0.9083274413129584 0.37012355447445566 0.8000229372779979
0.7988162857745006 0.517808986012 0.8172963632813435
0.8254186703955023 0.3703288373588144 0.9188903389153951
0.9184049773920551 0.47108677528303594 0.8871537591051315
0.10832744131295824 0.5701235544744557 0.8000229372779979
-0.001183714225499466 0.7178089860119999 0.8172963632813435
0.02541867039550237 0.5703288373588143 0.9188903389153951
0.11840497739205513 0.671086775283036 0.8871537591051315
0.30832744131295825 0.5701235544744557 0.8000229372779979
0.19881628577450053 0.7178089860119999 0.8172963632813435
0.2254186703955024 0.5703288373588143 0.9188903389153951
0.3184049773920552 0.671086775283036 0.8871537591051315
0.5083274413129583 0.5701235544744557 0.8000229372779979
0.39881628577450057 0.7178089860119999 0.8172963632813435
0.4254186703955024 0.5703288373588143 0.9188903389153951
0.5184049773920552 0.671086775283036 0.8871537591051315
0.7083274413129583 0.5701235544744557 0.8000229372779979
0.5988162857745006 0.7178089860119999 0.8172963632813435
0.6254186703955025 0.5703288373588143 0.9188903389153951
0.7184049773920552 0.671086775283036 0.8871537591051315
0.9083274413129584 0.5701235544744557 0.8000229372779979
0.7988162857745006 0.7178089860119999 0.8172963632813435
0.8254186703955023 0.5703288373588143 0.9188903389153951
0.9184049773920551 0.671086775283036 0.8871537591051315
0.10832744131295824 0.7701235544744557 0.8000229372779979
-0.001183714225499466 0.917808986012 0.8172963632813435
0.02541867039550237 0.7703288373588144 0.9188903389153951
0.11840497739205513 0.871086775283036 0.8871537591051315
0.30832744131295825 0.7701235544744557 0.8000229372779979
0.19881628577450053 0.917808986012 0.8172963632813435
0.2254186703955024 0.7703288373588144 0.9188903389153951
0.3184049773920552 0.871086775283036 0.8871537591051315
0.5083274413129583 0.7701235544744557 0.8000229372779979
0.39881628577450057 0.917808986012 0.8172963632813435
0.4254186703955024 0.7703288373588144 0.9188903389153951
0.5184049773920552 0.871086775283036 0.8871537591051315
0.7083274413129583 0.7701235544744557 0.8000229372779979
0.5988162857745006 0.917808986012 0.8172963632813435
0.6254186703955025 0.7703288373588144 0.9188903389153951
0.7184049773920552 0.871086775283036 0.8871537591051315
0.9083274413129584 0.7701235544744557 0.8000229372779979
0.7988162857745006 0.917808986012 0.8172963632813435
0.8254186703955023 0.7703288373588144 0.9188903389153951
0.9184049773920551 0.871086775283036 0.8871537591051315
