FCC BaO
3.971
5.0 0.0 0.0
0.0 5.0 0.0
0.0 0.0 5.0
Ba O 
500 500 
Direct
0.014907031758031573 -0.024381746810419932 0.015088771723819425
-0.01999714261342157 0.12739752785491487 0.11584487438708482
0.08604709310156622 0.023991000288654522 0.11001093023339781
0.10768472138121417 0.12214160834378802 0.020770666056116632
0.2149070317580316 -0.024381746810419932 0.015088771723819425
0.18000285738657845 0.12739752785491487 0.11584487438708482
0.28604709310156623 0.023991000288654522 0.11001093023339781
0.30768472138121417 0.12214160834378802 0.020770666056116632
0.4149070317580316 -0.024381746810419932 0.015088771723819425
0.38000285738657846 0.12739752785491487 0.11584487438708482
0.48604709310156624 0.023991000288654522 0.11001093023339781
0.5076847213812142 0.12214160834378802 0.020770666056116632
0.6149070317580316 -0.024381746810419932 0.015088771723819425
0.5800028573865784 0.12739752785491487 0.11584487438708482
0.6860470931015663 0.023991000288654522 0.11001093023339781
0.7076847213812143 0.12214160834378802 0.020770666056116632
0.8149070317580316 -0.024381746810419932 0.015088771723819425
0.7800028573865785 0.12739752785491487 0.11584487438708482
0.8860470931015663 0.023991000288654522 0.11001093023339781
0.9076847213812143 0.12214160834378802 0.020770666056116632
0.014907031758031573 0.17561825318958008 0.015088771723819425
-0.01999714261342157 0.3273975278549149 0.11584487438708482
0.08604709310156622 0.22399100028865454 0.11001093023339781
0.10768472138121417 0.322141608343788 0.020770666056116632
0.2149070317580316 0.17561825318958008 0.015088771723819425
0.18000285738657845 0.3273975278549149 0.11584487438708482
0.28604709310156623 0.22399100028865454 0.11001093023339781
0.30768472138121417 0.322141608343788 0.020770666056116632
0.4149070317580316 0.17561825318958008 0.015088771723819425
0.38000285738657846 0.3273975278549149 0.11584487438708482
0.48604709310156624 0.22399100028865454 0.11001093023339781
0.5076847213812142 0.322141608343788 0.020770666056116632
0.6149070317580316 0.17561825318958008 0.015088771723819425
0.5800028573865784 0.3273975278549149 0.11584487438708482
0.6860470931015663 0.22399100028865454 0.11001093023339781
0.7076847213812143 0.322141608343788 0.020770666056116632
0.8149070317580316 0.17561825318958008 0.015088771723819425
0.7800028573865785 0.3273975278549149 0.11584487438708482
0.8860470931015663 0.22399100028865454 0.11001093023339781
0.9076847213812143 0.322141608343788 0.020770666056116632
0.014907031758031573 0.3756182531895801 0.015088771723819425
-0.01999714261342157 0.5273975278549149 0.11584487438708482
0.08604709310156622 0.42399100028865455 0.11001093023339781
0.10768472138121417 0.5221416083437881 0.020770666056116632
0.2149070317580316 0.3756182531895801 0.015088771723819425
0.18000285738657845 0.5273975278549149 0.11584487438708482
0.28604709310156623 0.42399100028865455 0.11001093023339781
0.30768472138121417 0.5221416083437881 0.020770666056116632
0.4149070317580316 0.3756182531895801 0.015088771723819425
0.38000285738657846 0.5273975278549149 0.11584487438708482
0.48604709310156624 0.42399100028865455 0.11001093023339781
0.5076847213812142 0.5221416083437881 0.020770666056116632
0.6149070317580316 0.3756182531895801 0.015088771723819425
0.5800028573865784 0.5273975278549149 0.11584487438708482
0.6860470931015663 0.42399100028865455 0.11001093023339781
0.7076847213812143 0.5221416083437881 0.020770666056116632
0.8149070317580316 0.3756182531895801 0.015088771723819425
0.7800028573865785 0.5273975278549149 0.11584487438708482
0.8860470931015663 0.42399100028865455 0.11001093023339781
0.9076847213812143 0.5221416083437881 0.020770666056116632
0.014907031758031573 0.5756182531895802 0.015088771723819425
-0.01999714261342157 0.7273975278549148 0.11584487438708482
0.08604709310156622 0.6239910002886546 0.11001093023339781
0.10768472138121417 0.722141608343788 0.020770666056116632
0.2149070317580316 0.5756182531895802 0.015088771723819425
0.18000285738657845 0.7273975278549148 0.11584487438708482
0.28604709310156623 0.6239910002886546 0.11001093023339781
0.30768472138121417 0.722141608343788 0.020770666056116632
0.4149070317580316 0.5756182531895802 0.015088771723819425
0.38000285738657846 0.7273975278549148 0.11584487438708482
0.48604709310156624 0.6239910002886546 0.11001093023339781
0.5076847213812142 0.722141608343788 0.020770666056116632
0.6149070317580316 0.5756182531895802 0.015088771723819425
0.5800028573865784 0.7273975278549148 0.11584487438708482
0.6860470931015663 0.6239910002886546 0.11001093023339781
0.7076847213812143 0.722141608343788 0.020770666056116632
0.8149070317580316 0.5756182531895802 0.015088771723819425
0.7800028573865785 0.7273975278549148 0.11584487438708482
0.8860470931015663 0.6239910002886546 0.11001093023339781
0.9076847213812143 0.722141608343788 0.020770666056116632
0.014907031758031573 0.7756182531895801 0.015088771723819425
-0.01999714261342157 0.9273975278549149 0.11584487438708482
0.08604709310156622 0.8239910002886545 0.11001093023339781
0.10768472138121417 0.9221416083437881 0.020770666056116632
0.2149070317580316 0.7756182531895801 0.015088771723819425
0.18000285738657845 0.9273975278549149 0.11584487438708482
0.28604709310156623 0.8239910002886545 0.11001093023339781
0.30768472138121417 0.9221416083437881 0.020770666056116632
0.4149070317580316 0.7756182531895801 0.015088771723819425
0.38000285738657846 0.9273975278549149 0.11584487438708482
0.48604709310156624 0.8239910002886545 0.11001093023339781
0.5076847213812142 0.9221416083437881 0.020770666056116632
0.6149070317580316 0.7756182531895801 0.015088771723819425
0.5800028573865784 0.9273975278549149 0.11584487438708482
0.6860470931015663 0.8239910002886545 0.11001093023339781
0.7076847213812143 0.9221416083437881 0.020770666056116632
0.8149070317580316 0.7756182531895801 0.015088771723819425
0.7800028573865785 0.9273975278549149 0.11584487438708482
0.8860470931015663 0.8239910002886545 0.11001093023339781
0.9076847213812143 0.9221416083437881 0.020770666056116632
0.014907031758031573 -0.024381746810419932 0.21508877172381943
-0.01999714261342157 0.12739752785491487 0.31584487438708486
0.08604709310156622 0.023991000288654522 0.3100109302333978
0.10768472138121417 0.12214160834378802 0.22077066605611662
0.2149070317580316 -0.024381746810419932 0.21508877172381943
0.18000285738657845 0.12739752785491487 0.31584487438708486
0.28604709310156623 0.023991000288654522 0.3100109302333978
0.30768472138121417 0.12214160834378802 0.22077066605611662
0.4149070317580316 -0.024381746810419932 0.21508877172381943
0.38000285738657846 0.12739752785491487 0.31584487438708486
0.48604709310156624 0.023991000288654522 0.3100109302333978
0.5076847213812142 0.12214160834378802 0.22077066605611662
0.6149070317580316 -0.024381746810419932 0.21508877172381943
0.5800028573865784 0.12739752785491487 0.31584487438708486
0.6860470931015663 0.023991000288654522 0.3100109302333978
0.7076847213812143 0.12214160834378802 0.22077066605611662
0.8149070317580316 -0.024381746810419932 0.21508877172381943
0.7800028573865785 0.12739752785491487 0.31584487438708486
0.8860470931015663 0.023991000288654522 0.3100109302333978
0.9076847213812143 0.12214160834378802 0.22077066605611662
0.014907031758031573 0.17561825318958008 0.21508877172381943
-0.01999714261342157 0.3273975278549149 0.31584487438708486
0.08604709310156622 0.22399100028865454 0.3100109302333978
0.10768472138121417 0.322141608343788 0.22077066605611662
0.2149070317580316 0.17561825318958008 0.21508877172381943
0.18000285738657845 0.3273975278549149 0.31584487438708486
0.28604709310156623 0.22399100028865454 0.3100109302333978
0.30768472138121417 0.322141608343788 0.22077066605611662
0.4149070317580316 0.17561825318958008 0.21508877172381943
0.38000285738657846 0.3273975278549149 0.31584487438708486
0.48604709310156624 0.22399100028865454 0.3100109302333978
0.5076847213812142 0.322141608343788 0.22077066605611662
0.6149070317580316 0.17561825318958008 0.21508877172381943
0.5800028573865784 0.3273975278549149 0.31584487438708486
0.6860470931015663 0.22399100028865454 0.3100109302333978
0.7076847213812143 0.322141608343788 0.22077066605611662
0.8149070317580316 0.17561825318958008 0.21508877172381943
0.7800028573865785 0.3273975278549149 0.31584487438708486
0.8860470931015663 0.22399100028865454 0.3100109302333978
0.9076847213812143 0.322141608343788 0.22077066605611662
0.014907031758031573 0.3756182531895801 0.21508877172381943
-0.01999714261342157 0.5273975278549149 0.31584487438708486
0.08604709310156622 0.42399100028865455 0.3100109302333978
0.10768472138121417 0.5221416083437881 0.22077066605611662
0.2149070317580316 0.3756182531895801 0.21508877172381943
0.18000285738657845 0.5273975278549149 0.31584487438708486
0.28604709310156623 0.42399100028865455 0.3100109302333978
0.30768472138121417 0.5221416083437881 0.22077066605611662
0.4149070317580316 0.3756182531895801 0.21508877172381943
0.38000285738657846 0.5273975278549149 0.31584487438708486
0.48604709310156624 0.42399100028865455 0.3100109302333978
0.5076847213812142 0.5221416083437881 0.22077066605611662
0.6149070317580316 0.3756182531895801 0.21508877172381943
0.5800028573865784 0.5273975278549149 0.31584487438708486
0.6860470931015663 0.42399100028865455 0.3100109302333978
0.7076847213812143 0.5221416083437881 0.22077066605611662
0.8149070317580316 0.3756182531895801 0.21508877172381943
0.7800028573865785 0.5273975278549149 0.31584487438708486
0.8860470931015663 0.42399100028865455 0.3100109302333978
0.9076847213812143 0.5221416083437881 0.22077066605611662
0.014907031758031573 0.5756182531895802 0.21508877172381943
-0.01999714261342157 0.7273975278549148 0.31584487438708486
0.08604709310156622 0.6239910002886546 0.3100109302333978
0.10768472138121417 0.722141608343788 0.22077066605611662
0.2149070317580316 0.5756182531895802 0.21508877172381943
0.18000285738657845 0.7273975278549148 0.31584487438708486
0.28604709310156623 0.6239910002886546 0.3100109302333978
0.30768472138121417 0.722141608343788 0.22077066605611662
0.4149070317580316 0.5756182531895802 0.21508877172381943
0.38000285738657846 0.7273975278549148 0.31584487438708486
0.48604709310156624 0.6239910002886546 0.3100109302333978
0.5076847213812142 0.722141608343788 0.22077066605611662
0.6149070317580316 0.5756182531895802 0.21508877172381943
0.5800028573865784 0.7273975278549148 0.31584487438708486
0.6860470931015663 0.6239910002886546 0.3100109302333978
0.7076847213812143 0.722141608343788 0.22077066605611662
0.8149070317580316 0.5756182531895802 0.21508877172381943
0.7800028573865785 0.7273975278549148 0.31584487438708486
0.8860470931015663 0.6239910002886546 0.3100109302333978
0.9076847213812143 0.722141608343788 0.22077066605611662
0.014907031758031573 0.7756182531895801 0.21508877172381943
-0.01999714261342157 0.9273975278549149 0.31584487438708486
0.08604709310156622 0.8239910002886545 0.3100109302333978
0.10768472138121417 0.9221416083437881 0.22077066605611662
0.2149070317580316 0.7756182531895801 0.21508877172381943
0.18000285738657845 0.9273975278549149 0.31584487438708486
0.28604709310156623 0.8239910002886545 0.3100109302333978
0.30768472138121417 0.9221416083437881 0.22077066605611662
0.4149070317580316 0.7756182531895801 0.21508877172381943
0.38000285738657846 0.9273975278549149 0.31584487438708486
0.48604709310156624 0.8239910002886545 0.3100109302333978
0.5076847213812142 0.9221416083437881 0.22077066605611662
0.6149070317580316 0.7756182531895801 0.21508877172381943
0.5800028573865784 0.9273975278549149 0.31584487438708486
0.6860470931015663 0.8239910002886545 0.3100109302333978
0.7076847213812143 0.9221416083437881 0.22077066605611662
0.8149070317580316 0.7756182531895801 0.21508877172381943
0.7800028573865785 0.9273975278549149 0.31584487438708486
0.8860470931015663 0.8239910002886545 0.3100109302333978
0.9076847213812143 0.9221416083437881 0.22077066605611662
0.014907031758031573 -0.024381746810419932 0.4150887717238194
-0.01999714261342157 0.12739752785491487 0.5158448743870848
0.08604709310156622 0.023991000288654522 0.5100109302333978
0.10768472138121417 0.12214160834378802 0.4207706660561167
0.2149070317580316 -0.024381746810419932 0.4150887717238194
0.18000285738657845 0.12739752785491487 0.5158448743870848
0.28604709310156623 0.023991000288654522 0.5100109302333978
0.30768472138121417 0.12214160834378802 0.4207706660561167
0.4149070317580316 -0.024381746810419932 0.4150887717238194
0.38000285738657846 0.12739752785491487 0.5158448743870848
0.48604709310156624 0.023991000288654522 0.5100109302333978
0.5076847213812142 0.12214160834378802 0.4207706660561167
0.6149070317580316 -0.024381746810419932 0.4150887717238194
0.5800028573865784 0.12739752785491487 0.5158448743870848
0.6860470931015663 0.023991000288654522 0.5100109302333978
0.7076847213812143 0.12214160834378802 0.4207706660561167
0.8149070317580316 -0.024381746810419932 0.4150887717238194
0.7800028573865785 0.12739752785491487 0.5158448743870848
0.8860470931015663 0.023991000288654522 0.5100109302333978
0.9076847213812143 0.12214160834378802 0.4207706660561167
0.014907031758031573 0.17561825318958008 0.4150887717238194
-0.01999714261342157 0.3273975278549149 0.5158448743870848
0.08604709310156622 0.22399100028865454 0.5100109302333978
0.10768472138121417 0.322141608343788 0.4207706660561167
0.2149070317580316 0.17561825318958008 0.4150887717238194
0.18000285738657845 0.3273975278549149 0.5158448743870848
0.28604709310156623 0.22399100028865454 0.5100109302333978
0.30768472138121417 0.322141608343788 0.4207706660561167
0.4149070317580316 0.17561825318958008 0.4150887717238194
0.38000285738657846 0.3273975278549149 0.5158448743870848
0.48604709310156624 0.22399100028865454 0.5100109302333978
0.5076847213812142 0.322141608343788 0.4207706660561167
0.6149070317580316 0.17561825318958008 0.4150887717238194
0.5800028573865784 0.3273975278549149 0.5158448743870848
0.6860470931015663 0.22399100028865454 0.5100109302333978
0.7076847213812143 0.322141608343788 0.4207706660561167
0.8149070317580316 0.17561825318958008 0.4150887717238194
0.7800028573865785 0.3273975278549149 0.5158448743870848
0.8860470931015663 0.22399100028865454 0.5100109302333978
0.9076847213812143 0.322141608343788 0.4207706660561167
0.014907031758031573 0.3756182531895801 0.4150887717238194
-0.01999714261342157 0.5273975278549149 0.5158448743870848
0.08604709310156622 0.42399100028865455 0.5100109302333978
0.10768472138121417 0.5221416083437881 0.4207706660561167
0.2149070317580316 0.3756182531895801 0.4150887717238194
0.18000285738657845 0.5273975278549149 0.5158448743870848
0.28604709310156623 0.42399100028865455 0.5100109302333978
0.30768472138121417 0.5221416083437881 0.4207706660561167
0.4149070317580316 0.3756182531895801 0.4150887717238194
0.38000285738657846 0.5273975278549149 0.5158448743870848
0.48604709310156624 0.42399100028865455 0.5100109302333978
0.5076847213812142 0.5221416083437881 0.4207706660561167
0.6149070317580316 0.3756182531895801 0.4150887717238194
0.5800028573865784 0.5273975278549149 0.5158448743870848
0.6860470931015663 0.42399100028865455 0.5100109302333978
0.7076847213812143 0.5221416083437881 0.4207706660561167
0.8149070317580316 0.3756182531895801 0.4150887717238194
0.7800028573865785 0.5273975278549149 0.5158448743870848
0.8860470931015663 0.42399100028865455 0.5100109302333978
0.9076847213812143 0.5221416083437881 0.4207706660561167
0.014907031758031573 0.5756182531895802 0.4150887717238194
-0.01999714261342157 0.7273975278549148 0.5158448743870848
0.08604709310156622 0.6239910002886546 0.5100109302333978
0.10768472138121417 0.722141608343788 0.4207706660561167
0.2149070317580316 0.5756182531895802 0.4150887717238194
0.18000285738657845 0.7273975278549148 0.5158448743870848
0.28604709310156623 0.6239910002886546 0.5100109302333978
0.30768472138121417 0.722141608343788 0.4207706660561167
0.4149070317580316 0.5756182531895802 0.4150887717238194
0.38000285738657846 0.7273975278549148 0.5158448743870848
0.48604709310156624 0.6239910002886546 0.5100109302333978
0.5076847213812142 0.722141608343788 0.4207706660561167
0.6149070317580316 0.5756182531895802 0.4150887717238194
0.5800028573865784 0.7273975278549148 0.5158448743870848
0.6860470931015663 0.6239910002886546 0.5100109302333978
0.7076847213812143 0.722141608343788 0.4207706660561167
0.8149070317580316 0.5756182531895802 0.4150887717238194
0.7800028573865785 0.7273975278549148 0.5158448743870848
0.8860470931015663 0.6239910002886546 0.5100109302333978
0.9076847213812143 0.722141608343788 0.4207706660561167
0.014907031758031573 0.7756182531895801 0.4150887717238194
-0.01999714261342157 0.9273975278549149 0.5158448743870848
0.08604709310156622 0.8239910002886545 0.5100109302333978
0.10768472138121417 0.9221416083437881 0.4207706660561167
0.2149070317580316 0.7756182531895801 0.4150887717238194
0.18000285738657845 0.9273975278549149 0.5158448743870848
0.28604709310156623 0.8239910002886545 0.5100109302333978
0.30768472138121417 0.9221416083437881 0.4207706660561167
0.4149070317580316 0.7756182531895801 0.4150887717238194
0.38000285738657846 0.9273975278549149 0.5158448743870848
0.48604709310156624 0.8239910002886545 0.5100109302333978
0.5076847213812142 0.9221416083437881 0.4207706660561167
0.6149070317580316 0.7756182531895801 0.4150887717238194
0.5800028573865784 0.9273975278549149 0.5158448743870848
0.6860470931015663 0.8239910002886545 0.5100109302333978
0.7076847213812143 0.9221416083437881 0.4207706660561167
0.8149070317580316 0.7756182531895801 0.4150887717238194
0.7800028573865785 0.9273975278549149 0.5158448743870848
0.8860470931015663 0.8239910002886545 0.5100109302333978
0.9076847213812143 0.9221416083437881 0.4207706660561167
0.014907031758031573 -0.024381746810419932 0.6150887717238195
-0.01999714261342157 0.12739752785491487 0.7158448743870849
0.08604709310156622 0.023991000288654522 0.7100109302333979
0.10768472138121417 0.12214160834378802 0.6207706660561167
0.2149070317580316 -0.024381746810419932 0.6150887717238195
0.18000285738657845 0.12739752785491487 0.7158448743870849
0.28604709310156623 0.023991000288654522 0.7100109302333979
0.30768472138121417 0.12214160834378802 0.6207706660561167
0.4149070317580316 -0.024381746810419932 0.6150887717238195
0.38000285738657846 0.12739752785491487 0.7158448743870849
0.48604709310156624 0.023991000288654522 0.7100109302333979
0.5076847213812142 0.12214160834378802 0.6207706660561167
0.6149070317580316 -0.024381746810419932 0.6150887717238195
0.5800028573865784 0.12739752785491487 0.7158448743870849
0.6860470931015663 0.023991000288654522 0.7100109302333979
0.7076847213812143 0.12214160834378802 0.6207706660561167
0.8149070317580316 -0.024381746810419932 0.6150887717238195
0.7800028573865785 0.12739752785491487 0.7158448743870849
0.8860470931015663 0.023991000288654522 0.7100109302333979
0.9076847213812143 0.12214160834378802 0.6207706660561167
0.014907031758031573 0.17561825318958008 0.6150887717238195
-0.01999714261342157 0.3273975278549149 0.7158448743870849
0.08604709310156622 0.22399100028865454 0.7100109302333979
0.10768472138121417 0.322141608343788 0.6207706660561167
0.2149070317580316 0.17561825318958008 0.6150887717238195
0.18000285738657845 0.3273975278549149 0.7158448743870849
0.28604709310156623 0.22399100028865454 0.7100109302333979
0.30768472138121417 0.322141608343788 0.6207706660561167
0.4149070317580316 0.17561825318958008 0.6150887717238195
0.38000285738657846 0.3273975278549149 0.7158448743870849
0.48604709310156624 0.22399100028865454 0.7100109302333979
0.5076847213812142 0.322141608343788 0.6207706660561167
0.6149070317580316 0.17561825318958008 0.6150887717238195
0.5800028573865784 0.3273975278549149 0.7158448743870849
0.6860470931015663 0.22399100028865454 0.7100109302333979
0.7076847213812143 0.322141608343788 0.6207706660561167
0.8149070317580316 0.17561825318958008 0.6150887717238195
0.7800028573865785 0.3273975278549149 0.7158448743870849
0.8860470931015663 0.22399100028865454 0.7100109302333979
0.9076847213812143 0.322141608343788 0.6207706660561167
0.014907031758031573 0.3756182531895801 0.6150887717238195
-0.01999714261342157 0.5273975278549149 0.7158448743870849
0.08604709310156622 0.42399100028865455 0.7100109302333979
0.10768472138121417 0.5221416083437881 0.6207706660561167
0.2149070317580316 0.3756182531895801 0.6150887717238195
0.18000285738657845 0.5273975278549149 0.7158448743870849
0.28604709310156623 0.42399100028865455 0.7100109302333979
0.30768472138121417 0.5221416083437881 0.6207706660561167
0.4149070317580316 0.3756182531895801 0.6150887717238195
0.38000285738657846 0.5273975278549149 0.7158448743870849
0.48604709310156624 0.42399100028865455 0.7100109302333979
0.5076847213812142 0.5221416083437881 0.6207706660561167
0.6149070317580316 0.3756182531895801 0.6150887717238195
0.5800028573865784 0.5273975278549149 0.7158448743870849
0.6860470931015663 0.42399100028865455 0.7100109302333979
0.7076847213812143 0.5221416083437881 0.6207706660561167
0.8149070317580316 0.3756182531895801 0.6150887717238195
0.7800028573865785 0.5273975278549149 0.7158448743870849
0.8860470931015663 0.42399100028865455 0.7100109302333979
0.9076847213812143 0.5221416083437881 0.6207706660561167
0.014907031758031573 0.5756182531895802 0.6150887717238195
-0.01999714261342157 0.7273975278549148 0.7158448743870849
0.08604709310156622 0.6239910002886546 0.7100109302333979
0.10768472138121417 0.722141608343788 0.6207706660561167
0.2149070317580316 0.5756182531895802 0.6150887717238195
0.18000285738657845 0.7273975278549148 0.7158448743870849
0.28604709310156623 0.6239910002886546 0.7100109302333979
0.30768472138121417 0.722141608343788 0.6207706660561167
0.4149070317580316 0.5756182531895802 0.6150887717238195
0.38000285738657846 0.7273975278549148 0.7158448743870849
0.48604709310156624 0.6239910002886546 0.7100109302333979
0.5076847213812142 0.722141608343788 0.6207706660561167
0.6149070317580316 0.5756182531895802 0.6150887717238195
0.5800028573865784 0.7273975278549148 0.7158448743870849
0.6860470931015663 0.6239910002886546 0.7100109302333979
0.7076847213812143 0.722141608343788 0.6207706660561167
0.8149070317580316 0.5756182531895802 0.6150887717238195
0.7800028573865785 0.7273975278549148 0.7158448743870849
0.8860470931015663 0.6239910002886546 0.7100109302333979
0.9076847213812143 0.722141608343788 0.6207706660561167
0.014907031758031573 0.7756182531895801 0.6150887717238195
-0.01999714261342157 0.9273975278549149 0.7158448743870849
0.08604709310156622 0.8239910002886545 0.7100109302333979
0.10768472138121417 0.9221416083437881 0.6207706660561167
0.2149070317580316 0.7756182531895801 0.6150887717238195
0.18000285738657845 0.9273975278549149 0.7158448743870849
0.28604709310156623 0.8239910002886545 0.7100109302333979
0.30768472138121417 0.9221416083437881 0.6207706660561167
0.4149070317580316 0.7756182531895801 0.6150887717238195
0.38000285738657846 0.9273975278549149 0.7158448743870849
0.48604709310156624 0.8239910002886545 0.7100109302333979
0.5076847213812142 0.9221416083437881 0.6207706660561167
0.6149070317580316 0.7756182531895801 0.6150887717238195
0.5800028573865784 0.9273975278549149 0.7158448743870849
0.6860470931015663 0.8239910002886545 0.7100109302333979
0.7076847213812143 0.9221416083437881 0.6207706660561167
0.8149070317580316 0.7756182531895801 0.6150887717238195
0.7800028573865785 0.9273975278549149 0.7158448743870849
0.8860470931015663 0.8239910002886545 0.7100109302333979
0.9076847213812143 0.9221416083437881 0.6207706660561167
0.014907031758031573 -0.024381746810419932 0.8150887717238195
-0.01999714261342157 0.12739752785491487 0.9158448743870848
0.08604709310156622 0.023991000288654522 0.9100109302333979
0.10768472138121417 0.12214160834378802 0.8207706660561167
0.2149070317580316 -0.024381746810419932 0.8150887717238195
0.18000285738657845 0.12739752785491487 0.9158448743870848
0.28604709310156623 0.023991000288654522 0.9100109302333979
0.30768472138121417 0.12214160834378802 0.8207706660561167
0.4149070317580316 -0.024381746810419932 0.8150887717238195
0.38000285738657846 0.12739752785491487 0.9158448743870848
0.48604709310156624 0.023991000288654522 0.9100109302333979
0.5076847213812142 0.12214160834378802 0.8207706660561167
0.6149070317580316 -0.024381746810419932 0.8150887717238195
0.5800028573865784 0.12739752785491487 0.9158448743870848
0.6860470931015663 0.023991000288654522 0.9100109302333979
0.7076847213812143 0.12214160834378802 0.8207706660561167
0.8149070317580316 -0.024381746810419932 0.8150887717238195
0.7800028573865785 0.12739752785491487 0.9158448743870848
0.8860470931015663 0.023991000288654522 0.9100109302333979
0.9076847213812143 0.12214160834378802 0.8207706660561167
0.014907031758031573 0.17561825318958008 0.8150887717238195
-0.01999714261342157 0.3273975278549149 0.9158448743870848
0.08604709310156622 0.22399100028865454 0.9100109302333979
0.10768472138121417 0.322141608343788 0.8207706660561167
0.2149070317580316 0.17561825318958008 0.8150887717238195
0.18000285738657845 0.3273975278549149 0.9158448743870848
0.28604709310156623 0.22399100028865454 0.9100109302333979
0.30768472138121417 0.322141608343788 0.8207706660561167
0.4149070317580316 0.17561825318958008 0.8150887717238195
0.38000285738657846 0.3273975278549149 0.9158448743870848
0.48604709310156624 0.22399100028865454 0.9100109302333979
0.5076847213812142 0.322141608343788 0.8207706660561167
0.6149070317580316 0.17561825318958008 0.8150887717238195
0.5800028573865784 0.3273975278549149 0.9158448743870848
0.6860470931015663 0.22399100028865454 0.9100109302333979
0.7076847213812143 0.322141608343788 0.8207706660561167
0.8149070317580316 0.17561825318958008 0.8150887717238195
0.7800028573865785 0.3273975278549149 0.9158448743870848
0.8860470931015663 0.22399100028865454 0.9100109302333979
0.9076847213812143 0.322141608343788 0.8207706660561167
0.014907031758031573 0.3756182531895801 0.8150887717238195
-0.01999714261342157 0.5273975278549149 0.9158448743870848
0.08604709310156622 0.42399100028865455 0.9100109302333979
0.10768472138121417 0.5221416083437881 0.8207706660561167
0.2149070317580316 0.3756182531895801 0.8150887717238195
0.18000285738657845 0.5273975278549149 0.9158448743870848
0.28604709310156623 0.42399100028865455 0.9100109302333979
0.30768472138121417 0.5221416083437881 0.8207706660561167
0.4149070317580316 0.3756182531895801 0.8150887717238195
0.38000285738657846 0.5273975278549149 0.9158448743870848
0.48604709310156624 0.42399100028865455 0.9100109302333979
0.5076847213812142 0.5221416083437881 0.8207706660561167
0.6149070317580316 0.3756182531895801 0.8150887717238195
0.5800028573865784 0.5273975278549149 0.9158448743870848
0.6860470931015663 0.42399100028865455 0.9100109302333979
0.7076847213812143 0.5221416083437881 0.8207706660561167
0.8149070317580316 0.3756182531895801 0.8150887717238195
0.7800028573865785 0.5273975278549149 0.9158448743870848
0.8860470931015663 0.42399100028865455 0.9100109302333979
0.9076847213812143 0.5221416083437881 0.8207706660561167
0.014907031758031573 0.5756182531895802 0.8150887717238195
-0.01999714261342157 0.7273975278549148 0.9158448743870848
0.08604709310156622 0.6239910002886546 0.9100109302333979
0.10768472138121417 0.722141608343788 0.8207706660561167
0.2149070317580316 0.5756182531895802 0.8150887717238195
0.18000285738657845 0.7273975278549148 0.9158448743870848
0.28604709310156623 0.6239910002886546 0.9100109302333979
0.30768472138121417 0.722141608343788 0.8207706660561167
0.4149070317580316 0.5756182531895802 0.8150887717238195
0.38000285738657846 0.7273975278549148 0.9158448743870848
0.48604709310156624 0.6239910002886546 0.9100109302333979
0.5076847213812142 0.722141608343788 0.8207706660561167
0.6149070317580316 0.5756182531895802 0.8150887717238195
0.5800028573865784 0.7273975278549148 0.9158448743870848
0.6860470931015663 0.6239910002886546 0.9100109302333979
0.7076847213812143 0.722141608343788 0.8207706660561167
0.8149070317580316 0.5756182531895802 0.8150887717238195
0.7800028573865785 0.7273975278549148 0.9158448743870848
0.8860470931015663 0.6239910002886546 0.9100109302333979
0.9076847213812143 0.722141608343788 0.8207706660561167
0.014907031758031573 0.7756182531895801 0.8150887717238195
-0.01999714261342157 0.9273975278549149 0.9158448743870848
0.08604709310156622 0.8239910002886545 0.9100109302333979
0.10768472138121417 0.9221416083437881 0.8207706660561167
0.2149070317580316 0.7756182531895801 0.8150887717238195
0.18000285738657845 0.9273975278549149 0.9158448743870848
0.28604709310156623 0.8239910002886545 0.9100109302333979
0.30768472138121417 0.9221416083437881 0.8207706660561167
0.4149070317580316 0.7756182531895801 0.8150887717238195
0.38000285738657846 0.9273975278549149 0.9158448743870848
0.48604709310156624 0.8239910002886545 0.9100109302333979
0.5076847213812142 0.9221416083437881 0.8207706660561167
0.6149070317580316 0.7756182531895801 0.8150887717238195
0.5800028573865784 0.9273975278549149 0.9158448743870848
0.6860470931015663 0.8239910002886545 0.9100109302333979
0.7076847213812143 0.9221416083437881 0.8207706660561167
0.8149070317580316 0.7756182531895801 0.8150887717238195
0.7800028573865785 0.9273975278549149 0.9158448743870848
0.8860470931015663 0.8239910002886545 0.9100109302333979
0.9076847213812143 0.9221416083437881 0.8207706660561167
0.10585302264952004 0.01989703493898728 0.00130254389879365
-0.02723026703326627 0.08060964510713953 0.013292122566399181
0.0293791345869351 -0.002344823776209568 0.0745675059369869
0.07976797042587892 0.113234699702892 0.12317254307527369
0.3058530226495201 0.01989703493898728 0.00130254389879365
0.17276973296673373 0.08060964510713953 0.013292122566399181
0.22937913458693512 -0.002344823776209568 0.0745675059369869
0.2797679704258789 0.113234699702892 0.12317254307527369
0.50585302264952 0.01989703493898728 0.00130254389879365
0.37276973296673377 0.08060964510713953 0.013292122566399181
0.4293791345869351 -0.002344823776209568 0.0745675059369869
0.479767970425879 0.113234699702892 0.12317254307527369
0.7058530226495201 0.01989703493898728 0.00130254389879365
0.5727697329667337 0.08060964510713953 0.013292122566399181
0.6293791345869351 -0.002344823776209568 0.0745675059369869
0.679767970425879 0.113234699702892 0.12317254307527369
0.9058530226495201 0.01989703493898728 0.00130254389879365
0.7727697329667338 0.08060964510713953 0.013292122566399181
0.8293791345869352 -0.002344823776209568 0.0745675059369869
0.879767970425879 0.113234699702892 0.12317254307527369
0.10585302264952004 0.21989703493898727 0.00130254389879365
-0.02723026703326627 0.28060964510713954 0.013292122566399181
0.0293791345869351 0.19765517622379045 0.0745675059369869
0.07976797042587892 0.313234699702892 0.12317254307527369
0.3058530226495201 0.21989703493898727 0.00130254389879365
0.17276973296673373 0.28060964510713954 0.013292122566399181
0.22937913458693512 0.19765517622379045 0.0745675059369869
0.2797679704258789 0.313234699702892 0.12317254307527369
0.50585302264952 0.21989703493898727 0.00130254389879365
0.37276973296673377 0.28060964510713954 0.013292122566399181
0.4293791345869351 0.19765517622379045 0.0745675059369869
0.479767970425879 0.313234699702892 0.12317254307527369
0.7058530226495201 0.21989703493898727 0.00130254389879365
0.5727697329667337 0.28060964510713954 0.013292122566399181
0.6293791345869351 0.19765517622379045 0.0745675059369869
0.679767970425879 0.313234699702892 0.12317254307527369
0.9058530226495201 0.21989703493898727 0.00130254389879365
0.7727697329667338 0.28060964510713954 0.013292122566399181
0.8293791345869352 0.19765517622379045 0.0745675059369869
0.879767970425879 0.313234699702892 0.12317254307527369
0.10585302264952004 0.4198970349389873 0.00130254389879365
-0.02723026703326627 0.48060964510713955 0.013292122566399181
0.0293791345869351 0.3976551762237905 0.0745675059369869
0.07976797042587892 0.513234699702892 0.12317254307527369
0.3058530226495201 0.4198970349389873 0.00130254389879365
0.17276973296673373 0.48060964510713955 0.013292122566399181
0.22937913458693512 0.3976551762237905 0.0745675059369869
0.2797679704258789 0.513234699702892 0.12317254307527369
0.50585302264952 0.4198970349389873 0.00130254389879365
0.37276973296673377 0.48060964510713955 0.013292122566399181
0.4293791345869351 0.3976551762237905 0.0745675059369869
0.479767970425879 0.513234699702892 0.12317254307527369
0.7058530226495201 0.4198970349389873 0.00130254389879365
0.5727697329667337 0.48060964510713955 0.013292122566399181
0.6293791345869351 0.3976551762237905 0.0745675059369869
0.679767970425879 0.513234699702892 0.12317254307527369
0.9058530226495201 0.4198970349389873 0.00130254389879365
0.7727697329667338 0.48060964510713955 0.013292122566399181
0.8293791345869352 0.3976551762237905 0.0745675059369869
0.879767970425879 0.513234699702892 0.12317254307527369
0.10585302264952004 0.6198970349389873 0.00130254389879365
-0.02723026703326627 0.6806096451071396 0.013292122566399181
0.0293791345869351 0.5976551762237905 0.0745675059369869
0.07976797042587892 0.713234699702892 0.12317254307527369
0.3058530226495201 0.6198970349389873 0.00130254389879365
0.17276973296673373 0.6806096451071396 0.013292122566399181
0.22937913458693512 0.5976551762237905 0.0745675059369869
0.2797679704258789 0.713234699702892 0.12317254307527369
0.50585302264952 0.6198970349389873 0.00130254389879365
0.37276973296673377 0.6806096451071396 0.013292122566399181
0.4293791345869351 0.5976551762237905 0.0745675059369869
0.479767970425879 0.713234699702892 0.12317254307527369
0.7058530226495201 0.6198970349389873 0.00130254389879365
0.5727697329667337 0.6806096451071396 0.013292122566399181
0.6293791345869351 0.5976551762237905 0.0745675059369869
0.679767970425879 0.713234699702892 0.12317254307527369
0.9058530226495201 0.6198970349389873 0.00130254389879365
0.7727697329667338 0.6806096451071396 0.013292122566399181
0.8293791345869352 0.5976551762237905 0.0745675059369869
0.879767970425879 0.713234699702892 0.12317254307527369
0.10585302264952004 0.8198970349389874 0.00130254389879365
-0.02723026703326627 0.8806096451071396 0.013292122566399181
0.0293791345869351 0.7976551762237905 0.0745675059369869
0.07976797042587892 0.9132346997028921 0.12317254307527369
0.3058530226495201 0.8198970349389874 0.00130254389879365
0.17276973296673373 0.8806096451071396 0.013292122566399181
0.22937913458693512 0.7976551762237905 0.0745675059369869
0.2797679704258789 0.9132346997028921 0.12317254307527369
0.50585302264952 0.8198970349389874 0.00130254389879365
0.37276973296673377 0.8806096451071396 0.013292122566399181
0.4293791345869351 0.7976551762237905 0.0745675059369869
0.479767970425879 0.9132346997028921 0.12317254307527369
0.7058530226495201 0.8198970349389874 0.00130254389879365
0.5727697329667337 0.8806096451071396 0.013292122566399181
0.6293791345869351 0.7976551762237905 0.0745675059369869
0.679767970425879 0.9132346997028921 0.12317254307527369
0.9058530226495201 0.8198970349389874 0.00130254389879365
0.7727697329667338 0.8806096451071396 0.013292122566399181
0.8293791345869352 0.7976551762237905 0.0745675059369869
0.879767970425879 0.9132346997028921 0.12317254307527369
0.10585302264952004 0.01989703493898728 0.20130254389879365
-0.02723026703326627 0.08060964510713953 0.2132921225663992
0.0293791345869351 -0.002344823776209568 0.2745675059369869
0.07976797042587892 0.113234699702892 0.32317254307527365
0.3058530226495201 0.01989703493898728 0.20130254389879365
0.17276973296673373 0.08060964510713953 0.2132921225663992
0.22937913458693512 -0.002344823776209568 0.2745675059369869
0.2797679704258789 0.113234699702892 0.32317254307527365
0.50585302264952 0.01989703493898728 0.20130254389879365
0.37276973296673377 0.08060964510713953 0.2132921225663992
0.4293791345869351 -0.002344823776209568 0.2745675059369869
0.479767970425879 0.113234699702892 0.32317254307527365
0.7058530226495201 0.01989703493898728 0.20130254389879365
0.5727697329667337 0.08060964510713953 0.2132921225663992
0.6293791345869351 -0.002344823776209568 0.2745675059369869
0.679767970425879 0.113234699702892 0.32317254307527365
0.9058530226495201 0.01989703493898728 0.20130254389879365
0.7727697329667338 0.08060964510713953 0.2132921225663992
0.8293791345869352 -0.002344823776209568 0.2745675059369869
0.879767970425879 0.113234699702892 0.32317254307527365
0.10585302264952004 0.21989703493898727 0.20130254389879365
-0.02723026703326627 0.28060964510713954 0.2132921225663992
0.0293791345869351 0.19765517622379045 0.2745675059369869
0.07976797042587892 0.313234699702892 0.32317254307527365
0.3058530226495201 0.21989703493898727 0.20130254389879365
0.17276973296673373 0.28060964510713954 0.2132921225663992
0.22937913458693512 0.19765517622379045 0.2745675059369869
0.2797679704258789 0.313234699702892 0.32317254307527365
0.50585302264952 0.21989703493898727 0.20130254389879365
0.37276973296673377 0.28060964510713954 0.2132921225663992
0.4293791345869351 0.19765517622379045 0.2745675059369869
0.479767970425879 0.313234699702892 0.32317254307527365
0.7058530226495201 0.21989703493898727 0.20130254389879365
0.5727697329667337 0.28060964510713954 0.2132921225663992
0.6293791345869351 0.19765517622379045 0.2745675059369869
0.679767970425879 0.313234699702892 0.32317254307527365
0.9058530226495201 0.21989703493898727 0.20130254389879365
0.7727697329667338 0.28060964510713954 0.2132921225663992
0.8293791345869352 0.19765517622379045 0.2745675059369869
0.879767970425879 0.313234699702892 0.32317254307527365
0.10585302264952004 0.4198970349389873 0.20130254389879365
-0.02723026703326627 0.48060964510713955 0.2132921225663992
0.0293791345869351 0.3976551762237905 0.2745675059369869
0.07976797042587892 0.513234699702892 0.32317254307527365
0.3058530226495201 0.4198970349389873 0.20130254389879365
0.17276973296673373 0.48060964510713955 0.2132921225663992
0.22937913458693512 0.3976551762237905 0.2745675059369869
0.2797679704258789 0.513234699702892 0.32317254307527365
0.50585302264952 0.4198970349389873 0.20130254389879365
0.37276973296673377 0.48060964510713955 0.2132921225663992
0.4293791345869351 0.3976551762237905 0.2745675059369869
0.479767970425879 0.513234699702892 0.32317254307527365
0.7058530226495201 0.4198970349389873 0.20130254389879365
0.5727697329667337 0.48060964510713955 0.2132921225663992
0.6293791345869351 0.3976551762237905 0.2745675059369869
0.679767970425879 0.513234699702892 0.32317254307527365
0.9058530226495201 0.4198970349389873 0.20130254389879365
0.7727697329667338 0.48060964510713955 0.2132921225663992
0.8293791345869352 0.3976551762237905 0.2745675059369869
0.879767970425879 0.513234699702892 0.32317254307527365
0.10585302264952004 0.6198970349389873 0.20130254389879365
-0.02723026703326627 0.6806096451071396 0.2132921225663992
0.0293791345869351 0.5976551762237905 0.2745675059369869
0.07976797042587892 0.713234699702892 0.32317254307527365
0.3058530226495201 0.6198970349389873 0.20130254389879365
0.17276973296673373 0.6806096451071396 0.2132921225663992
0.22937913458693512 0.5976551762237905 0.2745675059369869
0.2797679704258789 0.713234699702892 0.32317254307527365
0.50585302264952 0.6198970349389873 0.20130254389879365
0.37276973296673377 0.6806096451071396 0.2132921225663992
0.4293791345869351 0.5976551762237905 0.2745675059369869
0.479767970425879 0.713234699702892 0.32317254307527365
0.7058530226495201 0.6198970349389873 0.20130254389879365
0.5727697329667337 0.6806096451071396 0.2132921225663992
0.6293791345869351 0.5976551762237905 0.2745675059369869
0.679767970425879 0.713234699702892 0.32317254307527365
0.9058530226495201 0.6198970349389873 0.20130254389879365
0.7727697329667338 0.6806096451071396 0.2132921225663992
0.8293791345869352 0.5976551762237905 0.2745675059369869
0.879767970425879 0.713234699702892 0.32317254307527365
0.10585302264952004 0.8198970349389874 0.20130254389879365
-0.02723026703326627 0.8806096451071396 0.2132921225663992
0.0293791345869351 0.7976551762237905 0.2745675059369869
0.07976797042587892 0.9132346997028921 0.32317254307527365
0.3058530226495201 0.8198970349389874 0.20130254389879365
0.17276973296673373 0.8806096451071396 0.2132921225663992
0.22937913458693512 0.7976551762237905 0.2745675059369869
0.2797679704258789 0.9132346997028921 0.32317254307527365
0.50585302264952 0.8198970349389874 0.20130254389879365
0.37276973296673377 0.8806096451071396 0.2132921225663992
0.4293791345869351 0.7976551762237905 0.2745675059369869
0.479767970425879 0.9132346997028921 0.32317254307527365
0.7058530226495201 0.8198970349389874 0.20130254389879365
0.5727697329667337 0.8806096451071396 0.2132921225663992
0.6293791345869351 0.7976551762237905 0.2745675059369869
0.679767970425879 0.9132346997028921 0.32317254307527365
0.9058530226495201 0.8198970349389874 0.20130254389879365
0.7727697329667338 0.8806096451071396 0.2132921225663992
0.8293791345869352 0.7976551762237905 0.2745675059369869
0.879767970425879 0.9132346997028921 0.32317254307527365
0.10585302264952004 0.01989703493898728 0.40130254389879366
-0.02723026703326627 0.08060964510713953 0.41329212256639924
0.0293791345869351 -0.002344823776209568 0.47456750593698693
0.07976797042587892 0.113234699702892 0.5231725430752737
0.3058530226495201 0.01989703493898728 0.40130254389879366
0.17276973296673373 0.08060964510713953 0.41329212256639924
0.22937913458693512 -0.002344823776209568 0.47456750593698693
0.2797679704258789 0.113234699702892 0.5231725430752737
0.50585302264952 0.01989703493898728 0.40130254389879366
0.37276973296673377 0.08060964510713953 0.41329212256639924
0.4293791345869351 -0.002344823776209568 0.47456750593698693
0.479767970425879 0.113234699702892 0.5231725430752737
0.7058530226495201 0.01989703493898728 0.40130254389879366
0.5727697329667337 0.08060964510713953 0.41329212256639924
0.6293791345869351 -0.002344823776209568 0.47456750593698693
0.679767970425879 0.113234699702892 0.5231725430752737
0.9058530226495201 0.01989703493898728 0.40130254389879366
0.7727697329667338 0.08060964510713953 0.41329212256639924
0.8293791345869352 -0.002344823776209568 0.47456750593698693
0.879767970425879 0.113234699702892 0.5231725430752737
0.10585302264952004 0.21989703493898727 0.40130254389879366
-0.02723026703326627 0.28060964510713954 0.41329212256639924
0.0293791345869351 0.19765517622379045 0.47456750593698693
0.07976797042587892 0.313234699702892 0.5231725430752737
0.3058530226495201 0.21989703493898727 0.40130254389879366
0.17276973296673373 0.28060964510713954 0.41329212256639924
0.22937913458693512 0.19765517622379045 0.47456750593698693
0.2797679704258789 0.313234699702892 0.5231725430752737
0.50585302264952 0.21989703493898727 0.40130254389879366
0.37276973296673377 0.28060964510713954 0.41329212256639924
0.4293791345869351 0.19765517622379045 0.47456750593698693
0.479767970425879 0.313234699702892 0.5231725430752737
0.7058530226495201 0.21989703493898727 0.40130254389879366
0.5727697329667337 0.28060964510713954 0.41329212256639924
0.6293791345869351 0.19765517622379045 0.47456750593698693
0.679767970425879 0.313234699702892 0.5231725430752737
0.9058530226495201 0.21989703493898727 0.40130254389879366
0.7727697329667338 0.28060964510713954 0.41329212256639924
0.8293791345869352 0.19765517622379045 0.47456750593698693
0.879767970425879 0.313234699702892 0.5231725430752737
0.10585302264952004 0.4198970349389873 0.40130254389879366
-0.02723026703326627 0.48060964510713955 0.41329212256639924
0.0293791345869351 0.3976551762237905 0.47456750593698693
0.07976797042587892 0.513234699702892 0.5231725430752737
0.3058530226495201 0.4198970349389873 0.40130254389879366
0.17276973296673373 0.48060964510713955 0.41329212256639924
0.22937913458693512 0.3976551762237905 0.47456750593698693
0.2797679704258789 0.513234699702892 0.5231725430752737
0.50585302264952 0.4198970349389873 0.40130254389879366
0.37276973296673377 0.48060964510713955 0.41329212256639924
0.4293791345869351 0.3976551762237905 0.47456750593698693
0.479767970425879 0.513234699702892 0.5231725430752737
0.7058530226495201 0.4198970349389873 0.40130254389879366
0.5727697329667337 0.48060964510713955 0.41329212256639924
0.6293791345869351 0.3976551762237905 0.47456750593698693
0.679767970425879 0.513234699702892 0.5231725430752737
0.9058530226495201 0.4198970349389873 0.40130254389879366
0.7727697329667338 0.48060964510713955 0.41329212256639924
0.8293791345869352 0.3976551762237905 0.47456750593698693
0.879767970425879 0.513234699702892 0.5231725430752737
0.10585302264952004 0.6198970349389873 0.40130254389879366
-0.02723026703326627 0.6806096451071396 0.41329212256639924
0.0293791345869351 0.5976551762237905 0.47456750593698693
0.07976797042587892 0.713234699702892 0.5231725430752737
0.3058530226495201 0.6198970349389873 0.40130254389879366
0.17276973296673373 0.6806096451071396 0.41329212256639924
0.22937913458693512 0.5976551762237905 0.47456750593698693
0.2797679704258789 0.713234699702892 0.5231725430752737
0.50585302264952 0.6198970349389873 0.40130254389879366
0.37276973296673377 0.6806096451071396 0.41329212256639924
0.4293791345869351 0.5976551762237905 0.47456750593698693
0.479767970425879 0.713234699702892 0.5231725430752737
0.7058530226495201 0.6198970349389873 0.40130254389879366
0.5727697329667337 0.6806096451071396 0.41329212256639924
0.6293791345869351 0.5976551762237905 0.47456750593698693
0.679767970425879 0.713234699702892 0.5231725430752737
0.9058530226495201 0.6198970349389873 0.40130254389879366
0.7727697329667338 0.6806096451071396 0.41329212256639924
0.8293791345869352 0.5976551762237905 0.47456750593698693
0.879767970425879 0.713234699702892 0.5231725430752737
0.10585302264952004 0.8198970349389874 0.40130254389879366
-0.02723026703326627 0.8806096451071396 0.41329212256639924
0.0293791345869351 0.7976551762237905 0.47456750593698693
0.07976797042587892 0.9132346997028921 0.5231725430752737
0.3058530226495201 0.8198970349389874 0.40130254389879366
0.17276973296673373 0.8806096451071396 0.41329212256639924
0.22937913458693512 0.7976551762237905 0.47456750593698693
0.2797679704258789 0.9132346997028921 0.5231725430752737
0.50585302264952 0.8198970349389874 0.40130254389879366
0.37276973296673377 0.8806096451071396 0.41329212256639924
0.4293791345869351 0.7976551762237905 0.47456750593698693
0.479767970425879 0.9132346997028921 0.5231725430752737
0.7058530226495201 0.8198970349389874 0.40130254389879366
0.5727697329667337 0.8806096451071396 0.41329212256639924
0.6293791345869351 0.7976551762237905 0.47456750593698693
0.679767970425879 0.9132346997028921 0.5231725430752737
0.9058530226495201 0.8198970349389874 0.40130254389879366
0.7727697329667338 0.8806096451071396 0.41329212256639924
0.8293791345869352 0.7976551762237905 0.47456750593698693
0.879767970425879 0.9132346997028921 0.5231725430752737
0.10585302264952004 0.01989703493898728 0.6013025438987937
-0.02723026703326627 0.08060964510713953 0.6132921225663992
0.0293791345869351 -0.002344823776209568 0.674567505936987
0.07976797042587892 0.113234699702892 0.7231725430752737
0.3058530226495201 0.01989703493898728 0.6013025438987937
0.17276973296673373 0.08060964510713953 0.6132921225663992
0.22937913458693512 -0.002344823776209568 0.674567505936987
0.2797679704258789 0.113234699702892 0.7231725430752737
0.50585302264952 0.01989703493898728 0.6013025438987937
0.37276973296673377 0.08060964510713953 0.6132921225663992
0.4293791345869351 -0.002344823776209568 0.674567505936987
0.479767970425879 0.113234699702892 0.7231725430752737
0.7058530226495201 0.01989703493898728 0.6013025438987937
0.5727697329667337 0.08060964510713953 0.6132921225663992
0.6293791345869351 -0.002344823776209568 0.674567505936987
0.679767970425879 0.113234699702892 0.7231725430752737
0.9058530226495201 0.01989703493898728 0.6013025438987937
0.7727697329667338 0.08060964510713953 0.6132921225663992
0.8293791345869352 -0.002344823776209568 0.674567505936987
0.879767970425879 0.113234699702892 0.7231725430752737
0.10585302264952004 0.21989703493898727 0.6013025438987937
-0.02723026703326627 0.28060964510713954 0.6132921225663992
0.0293791345869351 0.19765517622379045 0.674567505936987
0.07976797042587892 0.313234699702892 0.7231725430752737
0.3058530226495201 0.21989703493898727 0.6013025438987937
0.17276973296673373 0.28060964510713954 0.6132921225663992
0.22937913458693512 0.19765517622379045 0.674567505936987
0.2797679704258789 0.313234699702892 0.7231725430752737
0.50585302264952 0.21989703493898727 0.6013025438987937
0.37276973296673377 0.28060964510713954 0.6132921225663992
0.4293791345869351 0.19765517622379045 0.674567505936987
0.479767970425879 0.313234699702892 0.7231725430752737
0.7058530226495201 0.21989703493898727 0.6013025438987937
0.5727697329667337 0.28060964510713954 0.6132921225663992
0.6293791345869351 0.19765517622379045 0.674567505936987
0.679767970425879 0.313234699702892 0.7231725430752737
0.9058530226495201 0.21989703493898727 0.6013025438987937
0.7727697329667338 0.28060964510713954 0.6132921225663992
0.8293791345869352 0.19765517622379045 0.674567505936987
0.879767970425879 0.313234699702892 0.7231725430752737
0.10585302264952004 0.4198970349389873 0.6013025438987937
-0.02723026703326627 0.48060964510713955 0.6132921225663992
0.0293791345869351 0.3976551762237905 0.674567505936987
0.07976797042587892 0.513234699702892 0.7231725430752737
0.3058530226495201 0.4198970349389873 0.6013025438987937
0.17276973296673373 0.48060964510713955 0.6132921225663992
0.22937913458693512 0.3976551762237905 0.674567505936987
0.2797679704258789 0.513234699702892 0.7231725430752737
0.50585302264952 0.4198970349389873 0.6013025438987937
0.37276973296673377 0.48060964510713955 0.6132921225663992
0.4293791345869351 0.3976551762237905 0.674567505936987
0.479767970425879 0.513234699702892 0.7231725430752737
0.7058530226495201 0.4198970349389873 0.6013025438987937
0.5727697329667337 0.48060964510713955 0.6132921225663992
0.6293791345869351 0.3976551762237905 0.674567505936987
0.679767970425879 0.513234699702892 0.7231725430752737
0.9058530226495201 0.4198970349389873 0.6013025438987937
0.7727697329667338 0.48060964510713955 0.6132921225663992
0.8293791345869352 0.3976551762237905 0.674567505936987
0.879767970425879 0.513234699702892 0.7231725430752737
0.10585302264952004 0.6198970349389873 0.6013025438987937
-0.02723026703326627 0.6806096451071396 0.6132921225663992
0.0293791345869351 0.5976551762237905 0.674567505936987
0.07976797042587892 0.713234699702892 0.7231725430752737
0.3058530226495201 0.6198970349389873 0.6013025438987937
0.17276973296673373 0.6806096451071396 0.6132921225663992
0.22937913458693512 0.5976551762237905 0.674567505936987
0.2797679704258789 0.713234699702892 0.7231725430752737
0.50585302264952 0.6198970349389873 0.6013025438987937
0.37276973296673377 0.6806096451071396 0.6132921225663992
0.4293791345869351 0.5976551762237905 0.674567505936987
0.479767970425879 0.713234699702892 0.7231725430752737
0.7058530226495201 0.6198970349389873 0.6013025438987937
0.5727697329667337 0.6806096451071396 0.6132921225663992
0.6293791345869351 0.5976551762237905 0.674567505936987
0.679767970425879 0.713234699702892 0.7231725430752737
0.9058530226495201 0.6198970349389873 0.6013025438987937
0.7727697329667338 0.6806096451071396 0.6132921225663992
0.8293791345869352 0.5976551762237905 0.674567505936987
0.879767970425879 0.713234699702892 0.7231725430752737
0.10585302264952004 0.8198970349389874 0.6013025438987937
-0.02723026703326627 0.8806096451071396 0.6132921225663992
0.0293791345869351 0.7976551762237905 0.674567505936987
0.07976797042587892 0.9132346997028921 0.7231725430752737
0.3058530226495201 0.8198970349389874 0.6013025438987937
0.17276973296673373 0.8806096451071396 0.6132921225663992
0.22937913458693512 0.7976551762237905 0.674567505936987
0.2797679704258789 0.9132346997028921 0.7231725430752737
0.50585302264952 0.8198970349389874 0.6013025438987937
0.37276973296673377 0.8806096451071396 0.6132921225663992
0.4293791345869351 0.7976551762237905 0.674567505936987
0.479767970425879 0.9132346997028921 0.7231725430752737
0.7058530226495201 0.8198970349389874 0.6013025438987937
0.5727697329667337 0.8806096451071396 0.6132921225663992
0.6293791345869351 0.7976551762237905 0.674567505936987
0.679767970425879 0.9132346997028921 0.7231725430752737
0.9058530226495201 0.8198970349389874 0.6013025438987937
0.7727697329667338 0.8806096451071396 0.6132921225663992
0.8293791345869352 0.7976551762237905 0.674567505936987
0.879767970425879 0.9132346997028921 0.7231725430752737
0.10585302264952004 0.01989703493898728 0.8013025438987937
-0.02723026703326627 0.08060964510713953 0.8132921225663993
0.0293791345869351 -0.002344823776209568 0.874567505936987
0.07976797042587892 0.113234699702892 0.9231725430752737
0.3058530226495201 0.01989703493898728 0.8013025438987937
0.17276973296673373 0.08060964510713953 0.8132921225663993
0.22937913458693512 -0.002344823776209568 0.874567505936987
0.2797679704258789 0.113234699702892 0.9231725430752737
0.50585302264952 0.01989703493898728 0.8013025438987937
0.37276973296673377 0.08060964510713953 0.8132921225663993
0.4293791345869351 -0.002344823776209568 0.874567505936987
0.479767970425879 0.113234699702892 0.9231725430752737
0.7058530226495201 0.01989703493898728 0.8013025438987937
0.5727697329667337 0.08060964510713953 0.8132921225663993
0.6293791345869351 -0.002344823776209568 0.874567505936987
0.679767970425879 0.113234699702892 0.9231725430752737
0.9058530226495201 0.01989703493898728 0.8013025438987937
0.7727697329667338 0.08060964510713953 0.8132921225663993
0.8293791345869352 -0.002344823776209568 0.874567505936987
0.879767970425879 0.113234699702892 0.9231725430752737
0.10585302264952004 0.21989703493898727 0.8013025438987937
-0.02723026703326627 0.28060964510713954 0.8132921225663993
0.0293791345869351 0.19765517622379045 0.874567505936987
0.07976797042587892 0.313234699702892 0.9231725430752737
0.3058530226495201 0.21989703493898727 0.8013025438987937
0.17276973296673373 0.28060964510713954 0.8132921225663993
0.22937913458693512 0.19765517622379045 0.874567505936987
0.2797679704258789 0.313234699702892 0.9231725430752737
0.50585302264952 0.21989703493898727 0.8013025438987937
0.37276973296673377 0.28060964510713954 0.8132921225663993
0.4293791345869351 0.19765517622379045 0.874567505936987
0.479767970425879 0.313234699702892 0.9231725430752737
0.7058530226495201 0.21989703493898727 0.8013025438987937
0.5727697329667337 0.28060964510713954 0.8132921225663993
0.6293791345869351 0.19765517622379045 0.874567505936987
0.679767970425879 0.313234699702892 0.9231725430752737
0.9058530226495201 0.21989703493898727 0.8013025438987937
0.7727697329667338 0.28060964510713954 0.8132921225663993
0.8293791345869352 0.19765517622379045 0.874567505936987
0.879767970425879 0.313234699702892 0.9231725430752737
0.10585302264952004 0.4198970349389873 0.8013025438987937
-0.02723026703326627 0.48060964510713955 0.8132921225663993
0.0293791345869351 0.3976551762237905 0.874567505936987
0.07976797042587892 0.513234699702892 0.9231725430752737
0.3058530226495201 0.4198970349389873 0.8013025438987937
0.17276973296673373 0.48060964510713955 0.8132921225663993
0.22937913458693512 0.3976551762237905 0.874567505936987
0.2797679704258789 0.513234699702892 0.9231725430752737
0.50585302264952 0.4198970349389873 0.8013025438987937
0.37276973296673377 0.48060964510713955 0.8132921225663993
0.4293791345869351 0.3976551762237905 0.874567505936987
0.479767970425879 0.513234699702892 0.9231725430752737
0.7058530226495201 0.4198970349389873 0.8013025438987937
0.5727697329667337 0.48060964510713955 0.8132921225663993
0.6293791345869351 0.3976551762237905 0.874567505936987
0.679767970425879 0.513234699702892 0.9231725430752737
0.9058530226495201 0.4198970349389873 0.8013025438987937
0.7727697329667338 0.48060964510713955 0.8132921225663993
0.8293791345869352 0.3976551762237905 0.874567505936987
0.879767970425879 0.513234699702892 0.9231725430752737
0.10585302264952004 0.6198970349389873 0.8013025438987937
-0.02723026703326627 0.6806096451071396 0.8132921225663993
0.0293791345869351 0.5976551762237905 0.874567505936987
0.07976797042587892 0.713234699702892 0.9231725430752737
0.3058530226495201 0.6198970349389873 0.8013025438987937
0.17276973296673373 0.6806096451071396 0.8132921225663993
0.22937913458693512 0.5976551762237905 0.874567505936987
0.2797679704258789 0.713234699702892 0.9231725430752737
0.50585302264952 0.6198970349389873 0.8013025438987937
0.37276973296673377 0.6806096451071396 0.8132921225663993
0.4293791345869351 0.5976551762237905 0.874567505936987
0.479767970425879 0.713234699702892 0.9231725430752737
0.7058530226495201 0.6198970349389873 0.8013025438987937
0.5727697329667337 0.6806096451071396 0.8132921225663993
0.6293791345869351 0.5976551762237905 0.874567505936987
0.679767970425879 0.713234699702892 0.9231725430752737
0.9058530226495201 0.6198970349389873 0.8013025438987937
0.7727697329667338 0.6806096451071396 0.8132921225663993
0.8293791345869352 0.5976551762237905 0.874567505936987
0.879767970425879 0.713234699702892 0.9231725430752737
0.10585302264952004 0.8198970349389874 0.8013025438987937
-0.02723026703326627 0.8806096451071396 0.8132921225663993
0.0293791345869351 0.7976551762237905 0.874567505936987
0.07976797042587892 0.9132346997028921 0.9231725430752737
0.3058530226495201 0.8198970349389874 0.8013025438987937
0.17276973296673373 0.8806096451071396 0.8132921225663993
0.22937913458693512 0.7976551762237905 0.874567505936987
0.2797679704258789 0.9132346997028921 0.9231725430752737
0.50585302264952 0.8198970349389874 0.8013025438987937
0.37276973296673377 0.8806096451071396 0.8132921225663993
0.4293791345869351 0.7976551762237905 0.874567505936987
0.479767970425879 0.9132346997028921 0.9231725430752737
0.7058530226495201 0.8198970349389874 0.8013025438987937
0.5727697329667337 0.8806096451071396 0.8132921225663993
0.6293791345869351 0.7976551762237905 0.874567505936987
0.679767970425879 0.9132346997028921 0.9231725430752737
0.9058530226495201 0.8198970349389874 0.8013025438987937
0.7727697329667338 0.8806096451071396 0.8132921225663993
0.8293791345869352 0.7976551762237905 0.874567505936987
0.879767970425879 0.9132346997028921 0.9231725430752737
