FCC BaO
3.971
5.0 0.0 0.0
0.0 5.0 0.0
0.0 0.0 5.0
Ba O 
500 500 
Direct
0.016247329115741203 0.021709844412628423 0.016595141101685282
0.008989914426975363 0.11678448967462751 0.07467970848763815
0.11553988619460527 0.001203950035743352 0.11663665496640939
0.08088943487423982 0.08323197106098602 0.02217423965712013
0.21624732911574118 0.021709844412628423 0.016595141101685282
0.20898991442697534 0.11678448967462751 0.07467970848763815
0.31553988619460527 0.001203950035743352 0.11663665496640939
0.28088943487423984 0.08323197106098602 0.02217423965712013
0.41624732911574125 0.021709844412628423 0.016595141101685282
0.40898991442697535 0.11678448967462751 0.07467970848763815
0.5155398861946052 0.001203950035743352 0.11663665496640939
0.48088943487423985 0.08323197106098602 0.02217423965712013
0.6162473291157413 0.021709844412628423 0.016595141101685282
0.6089899144269754 0.11678448967462751 0.07467970848763815
0.7155398861946053 0.001203950035743352 0.11663665496640939
0.6808894348742398 0.08323197106098602 0.02217423965712013
0.8162473291157412 0.021709844412628423 0.016595141101685282
0.8089899144269754 0.11678448967462751 0.07467970848763815
0.9155398861946052 0.001203950035743352 0.11663665496640939
0.88088943487424 0.08323197106098602 0.02217423965712013
0.016247329115741203 0.22170984441262842 0.016595141101685282
0.008989914426975363 0.3167844896746275 0.07467970848763815
0.11553988619460527 0.20120395003574335 0.11663665496640939
0.08088943487423982 0.283231971060986 0.02217423965712013
0.21624732911574118 0.22170984441262842 0.016595141101685282
0.20898991442697534 0.3167844896746275 0.07467970848763815
0.31553988619460527 0.20120395003574335 0.11663665496640939
0.28088943487423984 0.283231971060986 0.02217423965712013
0.41624732911574125 0.22170984441262842 0.016595141101685282
0.40898991442697535 0.3167844896746275 0.07467970848763815
0.5155398861946052 0.20120395003574335 0.11663665496640939
0.48088943487423985 0.283231971060986 0.02217423965712013
0.6162473291157413 0.22170984441262842 0.016595141101685282
0.6089899144269754 0.3167844896746275 0.07467970848763815
0.7155398861946053 0.20120395003574335 0.11663665496640939
0.6808894348742398 0.283231971060986 0.02217423965712013
0.8162473291157412 0.22170984441262842 0.016595141101685282
0.8089899144269754 0.3167844896746275 0.07467970848763815
0.9155398861946052 0.20120395003574335 0.11663665496640939
0.88088943487424 0.283231971060986 0.02217423965712013
0.016247329115741203 0.42170984441262843 0.016595141101685282
0.008989914426975363 0.5167844896746275 0.07467970848763815
0.11553988619460527 0.4012039500357434 0.11663665496640939
0.08088943487423982 0.48323197106098603 0.02217423965712013
0.21624732911574118 0.42170984441262843 0.016595141101685282
0.20898991442697534 0.5167844896746275 0.07467970848763815
0.31553988619460527 0.4012039500357434 0.11663665496640939
0.28088943487423984 0.48323197106098603 0.02217423965712013
0.41624732911574125 0.42170984441262843 0.016595141101685282
0.40898991442697535 0.5167844896746275 0.07467970848763815
0.5155398861946052 0.4012039500357434 0.11663665496640939
0.48088943487423985 0.48323197106098603 0.02217423965712013
0.6162473291157413 0.42170984441262843 0.016595141101685282
0.6089899144269754 0.5167844896746275 0.07467970848763815
0.7155398861946053 0.4012039500357434 0.11663665496640939
0.6808894348742398 0.48323197106098603 0.02217423965712013
0.8162473291157412 0.42170984441262843 0.016595141101685282
0.8089899144269754 0.5167844896746275 0.07467970848763815
0.9155398861946052 0.4012039500357434 0.11663665496640939
0.88088943487424 0.48323197106098603 0.02217423965712013
0.016247329115741203 0.6217098444126284 0.016595141101685282
0.008989914426975363 0.7167844896746276 0.07467970848763815
0.11553988619460527 0.6012039500357433 0.11663665496640939
0.08088943487423982 0.683231971060986 0.02217423965712013
0.21624732911574118 0.6217098444126284 0.016595141101685282
0.20898991442697534 0.7167844896746276 0.07467970848763815
0.31553988619460527 0.6012039500357433 0.11663665496640939
0.28088943487423984 0.683231971060986 0.02217423965712013
0.41624732911574125 0.6217098444126284 0.016595141101685282
0.40898991442697535 0.7167844896746276 0.07467970848763815
0.5155398861946052 0.6012039500357433 0.11663665496640939
0.48088943487423985 0.683231971060986 0.02217423965712013
0.6162473291157413 0.6217098444126284 0.016595141101685282
0.6089899144269754 0.7167844896746276 0.07467970848763815
0.7155398861946053 0.6012039500357433 0.11663665496640939
0.6808894348742398 0.683231971060986 0.02217423965712013
0.8162473291157412 0.6217098444126284 0.016595141101685282
0.8089899144269754 0.7167844896746276 0.07467970848763815
0.9155398861946052 0.6012039500357433 0.11663665496640939
0.88088943487424 0.683231971060986 0.02217423965712013
0.016247329115741203 0.8217098444126285 0.016595141101685282
0.008989914426975363 0.9167844896746274 0.07467970848763815
0.11553988619460527 0.8012039500357434 0.11663665496640939
0.08088943487423982 0.8832319710609862 0.02217423965712013
0.21624732911574118 0.8217098444126285 0.016595141101685282
0.20898991442697534 0.9167844896746274 0.07467970848763815
0.31553988619460527 0.8012039500357434 0.11663665496640939
0.28088943487423984 0.8832319710609862 0.02217423965712013
0.41624732911574125 0.8217098444126285 0.016595141101685282
0.40898991442697535 0.9167844896746274 0.07467970848763815
0.5155398861946052 0.8012039500357434 0.11663665496640939
0.48088943487423985 0.8832319710609862 0.02217423965712013
0.6162473291157413 0.8217098444126285 0.016595141101685282
0.6089899144269754 0.9167844896746274 0.07467970848763815
0.7155398861946053 0.8012039500357434 0.11663665496640939
0.6808894348742398 0.8832319710609862 0.02217423965712013
0.8162473291157412 0.8217098444126285 0.016595141101685282
0.8089899144269754 0.9167844896746274 0.07467970848763815
0.9155398861946052 0.8012039500357434 0.11663665496640939
0.88088943487424 0.8832319710609862 0.02217423965712013
0.016247329115741203 0.021709844412628423 0.2165951411016853
0.008989914426975363 0.11678448967462751 0.2746797084876382
0.11553988619460527 0.001203950035743352 0.3166366549664094
0.08088943487423982 0.08323197106098602 0.22217423965712013
0.21624732911574118 0.021709844412628423 0.2165951411016853
0.20898991442697534 0.11678448967462751 0.2746797084876382
0.31553988619460527 0.001203950035743352 0.3166366549664094
0.28088943487423984 0.08323197106098602 0.22217423965712013
0.41624732911574125 0.021709844412628423 0.2165951411016853
0.40898991442697535 0.11678448967462751 0.2746797084876382
0.5155398861946052 0.001203950035743352 0.3166366549664094
0.48088943487423985 0.08323197106098602 0.22217423965712013
0.6162473291157413 0.021709844412628423 0.2165951411016853
0.6089899144269754 0.11678448967462751 0.2746797084876382
0.7155398861946053 0.001203950035743352 0.3166366549664094
0.6808894348742398 0.08323197106098602 0.22217423965712013
0.8162473291157412 0.021709844412628423 0.2165951411016853
0.8089899144269754 0.11678448967462751 0.2746797084876382
0.9155398861946052 0.001203950035743352 0.3166366549664094
0.88088943487424 0.08323197106098602 0.22217423965712013
0.016247329115741203 0.22170984441262842 0.2165951411016853
0.008989914426975363 0.3167844896746275 0.2746797084876382
0.11553988619460527 0.20120395003574335 0.3166366549664094
0.08088943487423982 0.283231971060986 0.22217423965712013
0.21624732911574118 0.22170984441262842 0.2165951411016853
0.20898991442697534 0.3167844896746275 0.2746797084876382
0.31553988619460527 0.20120395003574335 0.3166366549664094
0.28088943487423984 0.283231971060986 0.22217423965712013
0.41624732911574125 0.22170984441262842 0.2165951411016853
0.40898991442697535 0.3167844896746275 0.2746797084876382
0.5155398861946052 0.20120395003574335 0.3166366549664094
0.48088943487423985 0.283231971060986 0.22217423965712013
0.6162473291157413 0.22170984441262842 0.2165951411016853
0.6089899144269754 0.3167844896746275 0.2746797084876382
0.7155398861946053 0.20120395003574335 0.3166366549664094
0.6808894348742398 0.283231971060986 0.22217423965712013
0.8162473291157412 0.22170984441262842 0.2165951411016853
0.8089899144269754 0.3167844896746275 0.2746797084876382
0.9155398861946052 0.20120395003574335 0.3166366549664094
0.88088943487424 0.283231971060986 0.22217423965712013
0.016247329115741203 0.42170984441262843 0.2165951411016853
0.008989914426975363 0.5167844896746275 0.2746797084876382
0.11553988619460527 0.4012039500357434 0.3166366549664094
0.08088943487423982 0.48323197106098603 0.22217423965712013
0.21624732911574118 0.42170984441262843 0.2165951411016853
0.20898991442697534 0.5167844896746275 0.2746797084876382
0.31553988619460527 0.4012039500357434 0.3166366549664094
0.28088943487423984 0.48323197106098603 0.22217423965712013
0.41624732911574125 0.42170984441262843 0.2165951411016853
0.40898991442697535 0.5167844896746275 0.2746797084876382
0.5155398861946052 0.4012039500357434 0.3166366549664094
0.48088943487423985 0.48323197106098603 0.22217423965712013
0.6162473291157413 0.42170984441262843 0.2165951411016853
0.6089899144269754 0.5167844896746275 0.2746797084876382
0.7155398861946053 0.4012039500357434 0.3166366549664094
0.6808894348742398 0.48323197106098603 0.22217423965712013
0.8162473291157412 0.42170984441262843 0.2165951411016853
0.8089899144269754 0.5167844896746275 0.2746797084876382
0.9155398861946052 0.4012039500357434 0.3166366549664094
0.88088943487424 0.48323197106098603 0.22217423965712013
0.016247329115741203 0.6217098444126284 0.2165951411016853
0.008989914426975363 0.7167844896746276 0.2746797084876382
0.11553988619460527 0.6012039500357433 0.3166366549664094
0.08088943487423982 0.683231971060986 0.22217423965712013
0.21624732911574118 0.6217098444126284 0.2165951411016853
0.20898991442697534 0.7167844896746276 0.2746797084876382
0.31553988619460527 0.6012039500357433 0.3166366549664094
0.28088943487423984 0.683231971060986 0.22217423965712013
0.41624732911574125 0.6217098444126284 0.2165951411016853
0.40898991442697535 0.7167844896746276 0.2746797084876382
0.5155398861946052 0.6012039500357433 0.3166366549664094
0.48088943487423985 0.683231971060986 0.22217423965712013
0.6162473291157413 0.6217098444126284 0.2165951411016853
0.6089899144269754 0.7167844896746276 0.2746797084876382
0.7155398861946053 0.6012039500357433 0.3166366549664094
0.6808894348742398 0.683231971060986 0.22217423965712013
0.8162473291157412 0.6217098444126284 0.2165951411016853
0.8089899144269754 0.7167844896746276 0.2746797084876382
0.9155398861946052 0.6012039500357433 0.3166366549664094
0.88088943487424 0.683231971060986 0.22217423965712013
0.016247329115741203 0.8217098444126285 0.2165951411016853
0.008989914426975363 0.9167844896746274 0.2746797084876382
0.11553988619460527 0.8012039500357434 0.3166366549664094
0.08088943487423982 0.8832319710609862 0.22217423965712013
0.21624732911574118 0.8217098444126285 0.2165951411016853
0.20898991442697534 0.9167844896746274 0.2746797084876382
0.31553988619460527 0.8012039500357434 0.3166366549664094
0.28088943487423984 0.8832319710609862 0.22217423965712013
0.41624732911574125 0.8217098444126285 0.2165951411016853
0.40898991442697535 0.9167844896746274 0.2746797084876382
0.5155398861946052 0.8012039500357434 0.3166366549664094
0.48088943487423985 0.8832319710609862 0.22217423965712013
0.6162473291157413 0.8217098444126285 0.2165951411016853
0.6089899144269754 0.9167844896746274 0.2746797084876382
0.7155398861946053 0.8012039500357434 0.3166366549664094
0.6808894348742398 0.8832319710609862 0.22217423965712013
0.8162473291157412 0.8217098444126285 0.2165951411016853
0.8089899144269754 0.9167844896746274 0.2746797084876382
0.9155398861946052 0.8012039500357434 0.3166366549664094
0.88088943487424 0.8832319710609862 0.22217423965712013
0.016247329115741203 0.021709844412628423 0.41659514110168533
0.008989914426975363 0.11678448967462751 0.4746797084876382
0.11553988619460527 0.001203950035743352 0.5166366549664094
0.08088943487423982 0.08323197106098602 0.4221742396571202
0.21624732911574118 0.021709844412628423 0.41659514110168533
0.20898991442697534 0.11678448967462751 0.4746797084876382
0.31553988619460527 0.001203950035743352 0.5166366549664094
0.28088943487423984 0.08323197106098602 0.4221742396571202
0.41624732911574125 0.021709844412628423 0.41659514110168533
0.40898991442697535 0.11678448967462751 0.4746797084876382
0.5155398861946052 0.001203950035743352 0.5166366549664094
0.48088943487423985 0.08323197106098602 0.4221742396571202
0.6162473291157413 0.021709844412628423 0.41659514110168533
0.6089899144269754 0.11678448967462751 0.4746797084876382
0.7155398861946053 0.001203950035743352 0.5166366549664094
0.6808894348742398 0.08323197106098602 0.4221742396571202
0.8162473291157412 0.021709844412628423 0.41659514110168533
0.8089899144269754 0.11678448967462751 0.4746797084876382
0.9155398861946052 0.001203950035743352 0.5166366549664094
0.88088943487424 0.08323197106098602 0.4221742396571202
0.016247329115741203 0.22170984441262842 0.41659514110168533
0.008989914426975363 0.3167844896746275 0.4746797084876382
0.11553988619460527 0.20120395003574335 0.5166366549664094
0.08088943487423982 0.283231971060986 0.4221742396571202
0.21624732911574118 0.22170984441262842 0.41659514110168533
0.20898991442697534 0.3167844896746275 0.4746797084876382
0.31553988619460527 0.20120395003574335 0.5166366549664094
0.28088943487423984 0.283231971060986 0.4221742396571202
0.41624732911574125 0.22170984441262842 0.41659514110168533
0.40898991442697535 0.3167844896746275 0.4746797084876382
0.5155398861946052 0.20120395003574335 0.5166366549664094
0.48088943487423985 0.283231971060986 0.4221742396571202
0.6162473291157413 0.22170984441262842 0.41659514110168533
0.6089899144269754 0.3167844896746275 0.4746797084876382
0.7155398861946053 0.20120395003574335 0.5166366549664094
0.6808894348742398 0.283231971060986 0.4221742396571202
0.8162473291157412 0.22170984441262842 0.41659514110168533
0.8089899144269754 0.3167844896746275 0.4746797084876382
0.9155398861946052 0.20120395003574335 0.5166366549664094
0.88088943487424 0.283231971060986 0.4221742396571202
0.016247329115741203 0.42170984441262843 0.41659514110168533
0.008989914426975363 0.5167844896746275 0.4746797084876382
0.11553988619460527 0.4012039500357434 0.5166366549664094
0.08088943487423982 0.48323197106098603 0.4221742396571202
0.21624732911574118 0.42170984441262843 0.41659514110168533
0.20898991442697534 0.5167844896746275 0.4746797084876382
0.31553988619460527 0.4012039500357434 0.5166366549664094
0.28088943487423984 0.48323197106098603 0.4221742396571202
0.41624732911574125 0.42170984441262843 0.41659514110168533
0.40898991442697535 0.5167844896746275 0.4746797084876382
0.5155398861946052 0.4012039500357434 0.5166366549664094
0.48088943487423985 0.48323197106098603 0.4221742396571202
0.6162473291157413 0.42170984441262843 0.41659514110168533
0.6089899144269754 0.5167844896746275 0.4746797084876382
0.7155398861946053 0.4012039500357434 0.5166366549664094
0.6808894348742398 0.48323197106098603 0.4221742396571202
0.8162473291157412 0.42170984441262843 0.41659514110168533
0.8089899144269754 0.5167844896746275 0.4746797084876382
0.9155398861946052 0.4012039500357434 0.5166366549664094
0.88088943487424 0.48323197106098603 0.4221742396571202
0.016247329115741203 0.6217098444126284 0.41659514110168533
0.008989914426975363 0.7167844896746276 0.4746797084876382
0.11553988619460527 0.6012039500357433 0.5166366549664094
0.08088943487423982 0.683231971060986 0.4221742396571202
0.21624732911574118 0.6217098444126284 0.41659514110168533
0.20898991442697534 0.7167844896746276 0.4746797084876382
0.31553988619460527 0.6012039500357433 0.5166366549664094
0.28088943487423984 0.683231971060986 0.4221742396571202
0.41624732911574125 0.6217098444126284 0.41659514110168533
0.40898991442697535 0.7167844896746276 0.4746797084876382
0.5155398861946052 0.6012039500357433 0.5166366549664094
0.48088943487423985 0.683231971060986 0.4221742396571202
0.6162473291157413 0.6217098444126284 0.41659514110168533
0.6089899144269754 0.7167844896746276 0.4746797084876382
0.7155398861946053 0.6012039500357433 0.5166366549664094
0.6808894348742398 0.683231971060986 0.4221742396571202
0.8162473291157412 0.6217098444126284 0.41659514110168533
0.8089899144269754 0.7167844896746276 0.4746797084876382
0.9155398861946052 0.6012039500357433 0.5166366549664094
0.88088943487424 0.683231971060986 0.4221742396571202
0.016247329115741203 0.8217098444126285 0.41659514110168533
0.008989914426975363 0.9167844896746274 0.4746797084876382
0.11553988619460527 0.8012039500357434 0.5166366549664094
0.08088943487423982 0.8832319710609862 0.4221742396571202
0.21624732911574118 0.8217098444126285 0.41659514110168533
0.20898991442697534 0.9167844896746274 0.4746797084876382
0.31553988619460527 0.8012039500357434 0.5166366549664094
0.28088943487423984 0.8832319710609862 0.4221742396571202
0.41624732911574125 0.8217098444126285 0.41659514110168533
0.40898991442697535 0.9167844896746274 0.4746797084876382
0.5155398861946052 0.8012039500357434 0.5166366549664094
0.48088943487423985 0.8832319710609862 0.4221742396571202
0.6162473291157413 0.8217098444126285 0.41659514110168533
0.6089899144269754 0.9167844896746274 0.4746797084876382
0.7155398861946053 0.8012039500357434 0.5166366549664094
0.6808894348742398 0.8832319710609862 0.4221742396571202
0.8162473291157412 0.8217098444126285 0.41659514110168533
0.8089899144269754 0.9167844896746274 0.4746797084876382
0.9155398861946052 0.8012039500357434 0.5166366549664094
0.88088943487424 0.8832319710609862 0.4221742396571202
0.016247329115741203 0.021709844412628423 0.6165951411016853
0.008989914426975363 0.11678448967462751 0.6746797084876381
0.11553988619460527 0.001203950035743352 0.7166366549664094
0.08088943487423982 0.08323197106098602 0.6221742396571202
0.21624732911574118 0.021709844412628423 0.6165951411016853
0.20898991442697534 0.11678448967462751 0.6746797084876381
0.31553988619460527 0.001203950035743352 0.7166366549664094
0.28088943487423984 0.08323197106098602 0.6221742396571202
0.41624732911574125 0.021709844412628423 0.6165951411016853
0.40898991442697535 0.11678448967462751 0.6746797084876381
0.5155398861946052 0.001203950035743352 0.7166366549664094
0.48088943487423985 0.08323197106098602 0.6221742396571202
0.6162473291157413 0.021709844412628423 0.6165951411016853
0.6089899144269754 0.11678448967462751 0.6746797084876381
0.7155398861946053 0.001203950035743352 0.7166366549664094
0.6808894348742398 0.08323197106098602 0.6221742396571202
0.8162473291157412 0.021709844412628423 0.6165951411016853
0.8089899144269754 0.11678448967462751 0.6746797084876381
0.9155398861946052 0.001203950035743352 0.7166366549664094
0.88088943487424 0.08323197106098602 0.6221742396571202
0.016247329115741203 0.22170984441262842 0.6165951411016853
0.008989914426975363 0.3167844896746275 0.6746797084876381
0.11553988619460527 0.20120395003574335 0.7166366549664094
0.08088943487423982 0.283231971060986 0.6221742396571202
0.21624732911574118 0.22170984441262842 0.6165951411016853
0.20898991442697534 0.3167844896746275 0.6746797084876381
0.31553988619460527 0.20120395003574335 0.7166366549664094
0.28088943487423984 0.283231971060986 0.6221742396571202
0.41624732911574125 0.22170984441262842 0.6165951411016853
0.40898991442697535 0.3167844896746275 0.6746797084876381
0.5155398861946052 0.20120395003574335 0.7166366549664094
0.48088943487423985 0.283231971060986 0.6221742396571202
0.6162473291157413 0.22170984441262842 0.6165951411016853
0.6089899144269754 0.3167844896746275 0.6746797084876381
0.7155398861946053 0.20120395003574335 0.7166366549664094
0.6808894348742398 0.283231971060986 0.6221742396571202
0.8162473291157412 0.22170984441262842 0.6165951411016853
0.8089899144269754 0.3167844896746275 0.6746797084876381
0.9155398861946052 0.20120395003574335 0.7166366549664094
0.88088943487424 0.283231971060986 0.6221742396571202
0.016247329115741203 0.42170984441262843 0.6165951411016853
0.008989914426975363 0.5167844896746275 0.6746797084876381
0.11553988619460527 0.4012039500357434 0.7166366549664094
0.08088943487423982 0.48323197106098603 0.6221742396571202
0.21624732911574118 0.42170984441262843 0.6165951411016853
0.20898991442697534 0.5167844896746275 0.6746797084876381
0.31553988619460527 0.4012039500357434 0.7166366549664094
0.28088943487423984 0.48323197106098603 0.6221742396571202
0.41624732911574125 0.42170984441262843 0.6165951411016853
0.40898991442697535 0.5167844896746275 0.6746797084876381
0.5155398861946052 0.4012039500357434 0.7166366549664094
0.48088943487423985 0.48323197106098603 0.6221742396571202
0.6162473291157413 0.42170984441262843 0.6165951411016853
0.6089899144269754 0.5167844896746275 0.6746797084876381
0.7155398861946053 0.4012039500357434 0.7166366549664094
0.6808894348742398 0.48323197106098603 0.6221742396571202
0.8162473291157412 0.42170984441262843 0.6165951411016853
0.8089899144269754 0.5167844896746275 0.6746797084876381
0.9155398861946052 0.4012039500357434 0.7166366549664094
0.88088943487424 0.48323197106098603 0.6221742396571202
0.016247329115741203 0.6217098444126284 0.6165951411016853
0.008989914426975363 0.7167844896746276 0.6746797084876381
0.11553988619460527 0.6012039500357433 0.7166366549664094
0.08088943487423982 0.683231971060986 0.6221742396571202
0.21624732911574118 0.6217098444126284 0.6165951411016853
0.20898991442697534 0.7167844896746276 0.6746797084876381
0.31553988619460527 0.6012039500357433 0.7166366549664094
0.28088943487423984 0.683231971060986 0.6221742396571202
0.41624732911574125 0.6217098444126284 0.6165951411016853
0.40898991442697535 0.7167844896746276 0.6746797084876381
0.5155398861946052 0.6012039500357433 0.7166366549664094
0.48088943487423985 0.683231971060986 0.6221742396571202
0.6162473291157413 0.6217098444126284 0.6165951411016853
0.6089899144269754 0.7167844896746276 0.6746797084876381
0.7155398861946053 0.6012039500357433 0.7166366549664094
0.6808894348742398 0.683231971060986 0.6221742396571202
0.8162473291157412 0.6217098444126284 0.6165951411016853
0.8089899144269754 0.7167844896746276 0.6746797084876381
0.9155398861946052 0.6012039500357433 0.7166366549664094
0.88088943487424 0.683231971060986 0.6221742396571202
0.016247329115741203 0.8217098444126285 0.6165951411016853
0.008989914426975363 0.9167844896746274 0.6746797084876381
0.11553988619460527 0.8012039500357434 0.7166366549664094
0.08088943487423982 0.8832319710609862 0.6221742396571202
0.21624732911574118 0.8217098444126285 0.6165951411016853
0.20898991442697534 0.9167844896746274 0.6746797084876381
0.31553988619460527 0.8012039500357434 0.7166366549664094
0.28088943487423984 0.8832319710609862 0.6221742396571202
0.41624732911574125 0.8217098444126285 0.6165951411016853
0.40898991442697535 0.9167844896746274 0.6746797084876381
0.5155398861946052 0.8012039500357434 0.7166366549664094
0.48088943487423985 0.8832319710609862 0.6221742396571202
0.6162473291157413 0.8217098444126285 0.6165951411016853
0.6089899144269754 0.9167844896746274 0.6746797084876381
0.7155398861946053 0.8012039500357434 0.7166366549664094
0.6808894348742398 0.8832319710609862 0.6221742396571202
0.8162473291157412 0.8217098444126285 0.6165951411016853
0.8089899144269754 0.9167844896746274 0.6746797084876381
0.9155398861946052 0.8012039500357434 0.7166366549664094
0.88088943487424 0.8832319710609862 0.6221742396571202
0.016247329115741203 0.021709844412628423 0.8165951411016853
0.008989914426975363 0.11678448967462751 0.8746797084876381
0.11553988619460527 0.001203950035743352 0.9166366549664094
0.08088943487423982 0.08323197106098602 0.8221742396571202
0.21624732911574118 0.021709844412628423 0.8165951411016853
0.20898991442697534 0.11678448967462751 0.8746797084876381
0.31553988619460527 0.001203950035743352 0.9166366549664094
0.28088943487423984 0.08323197106098602 0.8221742396571202
0.41624732911574125 0.021709844412628423 0.8165951411016853
0.40898991442697535 0.11678448967462751 0.8746797084876381
0.5155398861946052 0.001203950035743352 0.9166366549664094
0.48088943487423985 0.08323197106098602 0.8221742396571202
0.6162473291157413 0.021709844412628423 0.8165951411016853
0.6089899144269754 0.11678448967462751 0.8746797084876381
0.7155398861946053 0.001203950035743352 0.9166366549664094
0.6808894348742398 0.08323197106098602 0.8221742396571202
0.8162473291157412 0.021709844412628423 0.8165951411016853
0.8089899144269754 0.11678448967462751 0.8746797084876381
0.9155398861946052 0.001203950035743352 0.9166366549664094
0.88088943487424 0.08323197106098602 0.8221742396571202
0.016247329115741203 0.22170984441262842 0.8165951411016853
0.008989914426975363 0.3167844896746275 0.8746797084876381
0.11553988619460527 0.20120395003574335 0.9166366549664094
0.08088943487423982 0.283231971060986 0.8221742396571202
0.21624732911574118 0.22170984441262842 0.8165951411016853
0.20898991442697534 0.3167844896746275 0.8746797084876381
0.31553988619460527 0.20120395003574335 0.9166366549664094
0.28088943487423984 0.283231971060986 0.8221742396571202
0.41624732911574125 0.22170984441262842 0.8165951411016853
0.40898991442697535 0.3167844896746275 0.8746797084876381
0.5155398861946052 0.20120395003574335 0.9166366549664094
0.48088943487423985 0.283231971060986 0.8221742396571202
0.6162473291157413 0.22170984441262842 0.8165951411016853
0.6089899144269754 0.3167844896746275 0.8746797084876381
0.7155398861946053 0.20120395003574335 0.9166366549664094
0.6808894348742398 0.283231971060986 0.8221742396571202
0.8162473291157412 0.22170984441262842 0.8165951411016853
0.8089899144269754 0.3167844896746275 0.8746797084876381
0.9155398861946052 0.20120395003574335 0.9166366549664094
0.88088943487424 0.283231971060986 0.8221742396571202
0.016247329115741203 0.42170984441262843 0.8165951411016853
0.008989914426975363 0.5167844896746275 0.8746797084876381
0.11553988619460527 0.4012039500357434 0.9166366549664094
0.08088943487423982 0.48323197106098603 0.8221742396571202
0.21624732911574118 0.42170984441262843 0.8165951411016853
0.20898991442697534 0.5167844896746275 0.8746797084876381
0.31553988619460527 0.4012039500357434 0.9166366549664094
0.28088943487423984 0.48323197106098603 0.8221742396571202
0.41624732911574125 0.42170984441262843 0.8165951411016853
0.40898991442697535 0.5167844896746275 0.8746797084876381
0.5155398861946052 0.4012039500357434 0.9166366549664094
0.48088943487423985 0.48323197106098603 0.8221742396571202
0.6162473291157413 0.42170984441262843 0.8165951411016853
0.6089899144269754 0.5167844896746275 0.8746797084876381
0.7155398861946053 0.4012039500357434 0.9166366549664094
0.6808894348742398 0.48323197106098603 0.8221742396571202
0.8162473291157412 0.42170984441262843 0.8165951411016853
0.8089899144269754 0.5167844896746275 0.8746797084876381
0.9155398861946052 0.4012039500357434 0.9166366549664094
0.88088943487424 0.48323197106098603 0.8221742396571202
0.016247329115741203 0.6217098444126284 0.8165951411016853
0.008989914426975363 0.7167844896746276 0.8746797084876381
0.11553988619460527 0.6012039500357433 0.9166366549664094
0.08088943487423982 0.683231971060986 0.8221742396571202
0.21624732911574118 0.6217098444126284 0.8165951411016853
0.20898991442697534 0.7167844896746276 0.8746797084876381
0.31553988619460527 0.6012039500357433 0.9166366549664094
0.28088943487423984 0.683231971060986 0.8221742396571202
0.41624732911574125 0.6217098444126284 0.8165951411016853
0.40898991442697535 0.7167844896746276 0.8746797084876381
0.5155398861946052 0.6012039500357433 0.9166366549664094
0.48088943487423985 0.683231971060986 0.8221742396571202
0.6162473291157413 0.6217098444126284 0.8165951411016853
0.6089899144269754 0.7167844896746276 0.8746797084876381
0.7155398861946053 0.6012039500357433 0.9166366549664094
0.6808894348742398 0.683231971060986 0.8221742396571202
0.8162473291157412 0.6217098444126284 0.8165951411016853
0.8089899144269754 0.7167844896746276 0.8746797084876381
0.9155398861946052 0.6012039500357433 0.9166366549664094
0.88088943487424 0.683231971060986 0.8221742396571202
0.016247329115741203 0.8217098444126285 0.8165951411016853
0.008989914426975363 0.9167844896746274 0.8746797084876381
0.11553988619460527 0.8012039500357434 0.9166366549664094
0.08088943487423982 0.8832319710609862 0.8221742396571202
0.21624732911574118 0.8217098444126285 0.8165951411016853
0.20898991442697534 0.9167844896746274 0.8746797084876381
0.31553988619460527 0.8012039500357434 0.9166366549664094
0.28088943487423984 0.8832319710609862 0.8221742396571202
0.41624732911574125 0.8217098444126285 0.8165951411016853
0.40898991442697535 0.9167844896746274 0.8746797084876381
0.5155398861946052 0.8012039500357434 0.9166366549664094
0.48088943487423985 0.8832319710609862 0.8221742396571202
0.6162473291157413 0.8217098444126285 0.8165951411016853
0.6089899144269754 0.9167844896746274 0.8746797084876381
0.7155398861946053 0.8012039500357434 0.9166366549664094
0.6808894348742398 0.8832319710609862 0.8221742396571202
0.8162473291157412 0.8217098444126285 0.8165951411016853
0.8089899144269754 0.9167844896746274 0.8746797084876381
0.9155398861946052 0.8012039500357434 0.9166366549664094
0.88088943487424 0.8832319710609862 0.8221742396571202
0.11504177986679714 -0.019010418149045454 -0.024482254715016066
-0.0029677047199196628 0.11160042880446289 -0.020520229714497185
-0.02569850042530812 -0.0006809834970783724 0.122298841596718
0.11755570395033893 0.12858860712780704 0.10965729001397316
0.31504177986679716 -0.019010418149045454 -0.024482254715016066
0.19703229528008034 0.11160042880446289 -0.020520229714497185
0.17430149957469188 -0.0006809834970783724 0.122298841596718
0.31755570395033894 0.12858860712780704 0.10965729001397316
0.5150417798667972 -0.019010418149045454 -0.024482254715016066
0.3970322952800804 0.11160042880446289 -0.020520229714497185
0.3743014995746919 -0.0006809834970783724 0.122298841596718
0.517555703950339 0.12858860712780704 0.10965729001397316
0.7150417798667972 -0.019010418149045454 -0.024482254715016066
0.5970322952800803 0.11160042880446289 -0.020520229714497185
0.5743014995746919 -0.0006809834970783724 0.122298841596718
0.717555703950339 0.12858860712780704 0.10965729001397316
0.9150417798667972 -0.019010418149045454 -0.024482254715016066
0.7970322952800803 0.11160042880446289 -0.020520229714497185
0.774301499574692 -0.0006809834970783724 0.122298841596718
0.9175557039503389 0.12858860712780704 0.10965729001397316
0.11504177986679714 0.18098958185095457 -0.024482254715016066
-0.0029677047199196628 0.3116004288044629 -0.020520229714497185
-0.02569850042530812 0.19931901650292164 0.122298841596718
0.11755570395033893 0.328588607127807 0.10965729001397316
0.31504177986679716 0.18098958185095457 -0.024482254715016066
0.19703229528008034 0.3116004288044629 -0.020520229714497185
0.17430149957469188 0.19931901650292164 0.122298841596718
0.31755570395033894 0.328588607127807 0.10965729001397316
0.5150417798667972 0.18098958185095457 -0.024482254715016066
0.3970322952800804 0.3116004288044629 -0.020520229714497185
0.3743014995746919 0.19931901650292164 0.122298841596718
0.517555703950339 0.328588607127807 0.10965729001397316
0.7150417798667972 0.18098958185095457 -0.024482254715016066
0.5970322952800803 0.3116004288044629 -0.020520229714497185
0.5743014995746919 0.19931901650292164 0.122298841596718
0.717555703950339 0.328588607127807 0.10965729001397316
0.9150417798667972 0.18098958185095457 -0.024482254715016066
0.7970322952800803 0.3116004288044629 -0.020520229714497185
0.774301499574692 0.19931901650292164 0.122298841596718
0.9175557039503389 0.328588607127807 0.10965729001397316
0.11504177986679714 0.38098958185095455 -0.024482254715016066
-0.0029677047199196628 0.5116004288044629 -0.020520229714497185
-0.02569850042530812 0.3993190165029217 0.122298841596718
0.11755570395033893 0.5285886071278071 0.10965729001397316
0.31504177986679716 0.38098958185095455 -0.024482254715016066
0.19703229528008034 0.5116004288044629 -0.020520229714497185
0.17430149957469188 0.3993190165029217 0.122298841596718
0.31755570395033894 0.5285886071278071 0.10965729001397316
0.5150417798667972 0.38098958185095455 -0.024482254715016066
0.3970322952800804 0.5116004288044629 -0.020520229714497185
0.3743014995746919 0.3993190165029217 0.122298841596718
0.517555703950339 0.5285886071278071 0.10965729001397316
0.7150417798667972 0.38098958185095455 -0.024482254715016066
0.5970322952800803 0.5116004288044629 -0.020520229714497185
0.5743014995746919 0.3993190165029217 0.122298841596718
0.717555703950339 0.5285886071278071 0.10965729001397316
0.9150417798667972 0.38098958185095455 -0.024482254715016066
0.7970322952800803 0.5116004288044629 -0.020520229714497185
0.774301499574692 0.3993190165029217 0.122298841596718
0.9175557039503389 0.5285886071278071 0.10965729001397316
0.11504177986679714 0.5809895818509546 -0.024482254715016066
-0.0029677047199196628 0.7116004288044628 -0.020520229714497185
-0.02569850042530812 0.5993190165029216 0.122298841596718
0.11755570395033893 0.728588607127807 0.10965729001397316
0.31504177986679716 0.5809895818509546 -0.024482254715016066
0.19703229528008034 0.7116004288044628 -0.020520229714497185
0.17430149957469188 0.5993190165029216 0.122298841596718
0.31755570395033894 0.728588607127807 0.10965729001397316
0.5150417798667972 0.5809895818509546 -0.024482254715016066
0.3970322952800804 0.7116004288044628 -0.020520229714497185
0.3743014995746919 0.5993190165029216 0.122298841596718
0.517555703950339 0.728588607127807 0.10965729001397316
0.7150417798667972 0.5809895818509546 -0.024482254715016066
0.5970322952800803 0.7116004288044628 -0.020520229714497185
0.5743014995746919 0.5993190165029216 0.122298841596718
0.717555703950339 0.728588607127807 0.10965729001397316
0.9150417798667972 0.5809895818509546 -0.024482254715016066
0.7970322952800803 0.7116004288044628 -0.020520229714497185
0.774301499574692 0.5993190165029216 0.122298841596718
0.9175557039503389 0.728588607127807 0.10965729001397316
0.11504177986679714 0.7809895818509546 -0.024482254715016066
-0.0029677047199196628 0.9116004288044629 -0.020520229714497185
-0.02569850042530812 0.7993190165029217 0.122298841596718
0.11755570395033893 0.9285886071278071 0.10965729001397316
0.31504177986679716 0.7809895818509546 -0.024482254715016066
0.19703229528008034 0.9116004288044629 -0.020520229714497185
0.17430149957469188 0.7993190165029217 0.122298841596718
0.31755570395033894 0.9285886071278071 0.10965729001397316
0.5150417798667972 0.7809895818509546 -0.024482254715016066
0.3970322952800804 0.9116004288044629 -0.020520229714497185
0.3743014995746919 0.7993190165029217 0.122298841596718
0.517555703950339 0.9285886071278071 0.10965729001397316
0.7150417798667972 0.7809895818509546 -0.024482254715016066
0.5970322952800803 0.9116004288044629 -0.020520229714497185
0.5743014995746919 0.7993190165029217 0.122298841596718
0.717555703950339 0.9285886071278071 0.10965729001397316
0.9150417798667972 0.7809895818509546 -0.024482254715016066
0.7970322952800803 0.9116004288044629 -0.020520229714497185
0.774301499574692 0.7993190165029217 0.122298841596718
0.9175557039503389 0.9285886071278071 0.10965729001397316
0.11504177986679714 -0.019010418149045454 0.17551774528498396
-0.0029677047199196628 0.11160042880446289 0.17947977028550283
-0.02569850042530812 -0.0006809834970783724 0.322298841596718
0.11755570395033893 0.12858860712780704 0.3096572900139732
0.31504177986679716 -0.019010418149045454 0.17551774528498396
0.19703229528008034 0.11160042880446289 0.17947977028550283
0.17430149957469188 -0.0006809834970783724 0.322298841596718
0.31755570395033894 0.12858860712780704 0.3096572900139732
0.5150417798667972 -0.019010418149045454 0.17551774528498396
0.3970322952800804 0.11160042880446289 0.17947977028550283
0.3743014995746919 -0.0006809834970783724 0.322298841596718
0.517555703950339 0.12858860712780704 0.3096572900139732
0.7150417798667972 -0.019010418149045454 0.17551774528498396
0.5970322952800803 0.11160042880446289 0.17947977028550283
0.5743014995746919 -0.0006809834970783724 0.322298841596718
0.717555703950339 0.12858860712780704 0.3096572900139732
0.9150417798667972 -0.019010418149045454 0.17551774528498396
0.7970322952800803 0.11160042880446289 0.17947977028550283
0.774301499574692 -0.0006809834970783724 0.322298841596718
0.9175557039503389 0.12858860712780704 0.3096572900139732
0.11504177986679714 0.18098958185095457 0.17551774528498396
-0.0029677047199196628 0.3116004288044629 0.17947977028550283
-0.02569850042530812 0.19931901650292164 0.322298841596718
0.11755570395033893 0.328588607127807 0.3096572900139732
0.31504177986679716 0.18098958185095457 0.17551774528498396
0.19703229528008034 0.3116004288044629 0.17947977028550283
0.17430149957469188 0.19931901650292164 0.322298841596718
0.31755570395033894 0.328588607127807 0.3096572900139732
0.5150417798667972 0.18098958185095457 0.17551774528498396
0.3970322952800804 0.3116004288044629 0.17947977028550283
0.3743014995746919 0.19931901650292164 0.322298841596718
0.517555703950339 0.328588607127807 0.3096572900139732
0.7150417798667972 0.18098958185095457 0.17551774528498396
0.5970322952800803 0.3116004288044629 0.17947977028550283
0.5743014995746919 0.19931901650292164 0.322298841596718
0.717555703950339 0.328588607127807 0.3096572900139732
0.9150417798667972 0.18098958185095457 0.17551774528498396
0.7970322952800803 0.3116004288044629 0.17947977028550283
0.774301499574692 0.19931901650292164 0.322298841596718
0.9175557039503389 0.328588607127807 0.3096572900139732
0.11504177986679714 0.38098958185095455 0.17551774528498396
-0.0029677047199196628 0.5116004288044629 0.17947977028550283
-0.02569850042530812 0.3993190165029217 0.322298841596718
0.11755570395033893 0.5285886071278071 0.3096572900139732
0.31504177986679716 0.38098958185095455 0.17551774528498396
0.19703229528008034 0.5116004288044629 0.17947977028550283
0.17430149957469188 0.3993190165029217 0.322298841596718
0.31755570395033894 0.5285886071278071 0.3096572900139732
0.5150417798667972 0.38098958185095455 0.17551774528498396
0.3970322952800804 0.5116004288044629 0.17947977028550283
0.3743014995746919 0.3993190165029217 0.322298841596718
0.517555703950339 0.5285886071278071 0.3096572900139732
0.7150417798667972 0.38098958185095455 0.17551774528498396
0.5970322952800803 0.5116004288044629 0.17947977028550283
0.5743014995746919 0.3993190165029217 0.322298841596718
0.717555703950339 0.5285886071278071 0.3096572900139732
0.9150417798667972 0.38098958185095455 0.17551774528498396
0.7970322952800803 0.5116004288044629 0.17947977028550283
0.774301499574692 0.3993190165029217 0.322298841596718
0.9175557039503389 0.5285886071278071 0.3096572900139732
0.11504177986679714 0.5809895818509546 0.17551774528498396
-0.0029677047199196628 0.7116004288044628 0.17947977028550283
-0.02569850042530812 0.5993190165029216 0.322298841596718
0.11755570395033893 0.728588607127807 0.3096572900139732
0.31504177986679716 0.5809895818509546 0.17551774528498396
0.19703229528008034 0.7116004288044628 0.17947977028550283
0.17430149957469188 0.5993190165029216 0.322298841596718
0.31755570395033894 0.728588607127807 0.3096572900139732
0.5150417798667972 0.5809895818509546 0.17551774528498396
0.3970322952800804 0.7116004288044628 0.17947977028550283
0.3743014995746919 0.5993190165029216 0.322298841596718
0.517555703950339 0.728588607127807 0.3096572900139732
0.7150417798667972 0.5809895818509546 0.17551774528498396
0.5970322952800803 0.7116004288044628 0.17947977028550283
0.5743014995746919 0.5993190165029216 0.322298841596718
0.717555703950339 0.728588607127807 0.3096572900139732
0.9150417798667972 0.5809895818509546 0.17551774528498396
0.7970322952800803 0.7116004288044628 0.17947977028550283
0.774301499574692 0.5993190165029216 0.322298841596718
0.9175557039503389 0.728588607127807 0.3096572900139732
0.11504177986679714 0.7809895818509546 0.17551774528498396
-0.0029677047199196628 0.9116004288044629 0.17947977028550283
-0.02569850042530812 0.7993190165029217 0.322298841596718
0.11755570395033893 0.9285886071278071 0.3096572900139732
0.31504177986679716 0.7809895818509546 0.17551774528498396
0.19703229528008034 0.9116004288044629 0.17947977028550283
0.17430149957469188 0.7993190165029217 0.322298841596718
0.31755570395033894 0.9285886071278071 0.3096572900139732
0.5150417798667972 0.7809895818509546 0.17551774528498396
0.3970322952800804 0.9116004288044629 0.17947977028550283
0.3743014995746919 0.7993190165029217 0.322298841596718
0.517555703950339 0.9285886071278071 0.3096572900139732
0.7150417798667972 0.7809895818509546 0.17551774528498396
0.5970322952800803 0.9116004288044629 0.17947977028550283
0.5743014995746919 0.7993190165029217 0.322298841596718
0.717555703950339 0.9285886071278071 0.3096572900139732
0.9150417798667972 0.7809895818509546 0.17551774528498396
0.7970322952800803 0.9116004288044629 0.17947977028550283
0.774301499574692 0.7993190165029217 0.322298841596718
0.9175557039503389 0.9285886071278071 0.3096572900139732
0.11504177986679714 -0.019010418149045454 0.37551774528498394
-0.0029677047199196628 0.11160042880446289 0.37947977028550284
-0.02569850042530812 -0.0006809834970783724 0.522298841596718
0.11755570395033893 0.12858860712780704 0.5096572900139732
0.31504177986679716 -0.019010418149045454 0.37551774528498394
0.19703229528008034 0.11160042880446289 0.37947977028550284
0.17430149957469188 -0.0006809834970783724 0.522298841596718
0.31755570395033894 0.12858860712780704 0.5096572900139732
0.5150417798667972 -0.019010418149045454 0.37551774528498394
0.3970322952800804 0.11160042880446289 0.37947977028550284
0.3743014995746919 -0.0006809834970783724 0.522298841596718
0.517555703950339 0.12858860712780704 0.5096572900139732
0.7150417798667972 -0.019010418149045454 0.37551774528498394
0.5970322952800803 0.11160042880446289 0.37947977028550284
0.5743014995746919 -0.0006809834970783724 0.522298841596718
0.717555703950339 0.12858860712780704 0.5096572900139732
0.9150417798667972 -0.019010418149045454 0.37551774528498394
0.7970322952800803 0.11160042880446289 0.37947977028550284
0.774301499574692 -0.0006809834970783724 0.522298841596718
0.9175557039503389 0.12858860712780704 0.5096572900139732
0.11504177986679714 0.18098958185095457 0.37551774528498394
-0.0029677047199196628 0.3116004288044629 0.37947977028550284
-0.02569850042530812 0.19931901650292164 0.522298841596718
0.11755570395033893 0.328588607127807 0.5096572900139732
0.31504177986679716 0.18098958185095457 0.37551774528498394
0.19703229528008034 0.3116004288044629 0.37947977028550284
0.17430149957469188 0.19931901650292164 0.522298841596718
0.31755570395033894 0.328588607127807 0.5096572900139732
0.5150417798667972 0.18098958185095457 0.37551774528498394
0.3970322952800804 0.3116004288044629 0.37947977028550284
0.3743014995746919 0.19931901650292164 0.522298841596718
0.517555703950339 0.328588607127807 0.5096572900139732
0.7150417798667972 0.18098958185095457 0.37551774528498394
0.5970322952800803 0.3116004288044629 0.37947977028550284
0.5743014995746919 0.19931901650292164 0.522298841596718
0.717555703950339 0.328588607127807 0.5096572900139732
0.9150417798667972 0.18098958185095457 0.37551774528498394
0.7970322952800803 0.3116004288044629 0.37947977028550284
0.774301499574692 0.19931901650292164 0.522298841596718
0.9175557039503389 0.328588607127807 0.5096572900139732
0.11504177986679714 0.38098958185095455 0.37551774528498394
-0.0029677047199196628 0.5116004288044629 0.37947977028550284
-0.02569850042530812 0.3993190165029217 0.522298841596718
0.11755570395033893 0.5285886071278071 0.5096572900139732
0.31504177986679716 0.38098958185095455 0.37551774528498394
0.19703229528008034 0.5116004288044629 0.37947977028550284
0.17430149957469188 0.3993190165029217 0.522298841596718
0.31755570395033894 0.5285886071278071 0.5096572900139732
0.5150417798667972 0.38098958185095455 0.37551774528498394
0.3970322952800804 0.5116004288044629 0.37947977028550284
0.3743014995746919 0.3993190165029217 0.522298841596718
0.517555703950339 0.5285886071278071 0.5096572900139732
0.7150417798667972 0.38098958185095455 0.37551774528498394
0.5970322952800803 0.5116004288044629 0.37947977028550284
0.5743014995746919 0.3993190165029217 0.522298841596718
0.717555703950339 0.5285886071278071 0.5096572900139732
0.9150417798667972 0.38098958185095455 0.37551774528498394
0.7970322952800803 0.5116004288044629 0.37947977028550284
0.774301499574692 0.3993190165029217 0.522298841596718
0.9175557039503389 0.5285886071278071 0.5096572900139732
0.11504177986679714 0.5809895818509546 0.37551774528498394
-0.0029677047199196628 0.7116004288044628 0.37947977028550284
-0.02569850042530812 0.5993190165029216 0.522298841596718
0.11755570395033893 0.728588607127807 0.5096572900139732
0.31504177986679716 0.5809895818509546 0.37551774528498394
0.19703229528008034 0.7116004288044628 0.37947977028550284
0.17430149957469188 0.5993190165029216 0.522298841596718
0.31755570395033894 0.728588607127807 0.5096572900139732
0.5150417798667972 0.5809895818509546 0.37551774528498394
0.3970322952800804 0.7116004288044628 0.37947977028550284
0.3743014995746919 0.5993190165029216 0.522298841596718
0.517555703950339 0.728588607127807 0.5096572900139732
0.7150417798667972 0.5809895818509546 0.37551774528498394
0.5970322952800803 0.7116004288044628 0.37947977028550284
0.5743014995746919 0.5993190165029216 0.522298841596718
0.717555703950339 0.728588607127807 0.5096572900139732
0.9150417798667972 0.5809895818509546 0.37551774528498394
0.7970322952800803 0.7116004288044628 0.37947977028550284
0.774301499574692 0.5993190165029216 0.522298841596718
0.9175557039503389 0.728588607127807 0.5096572900139732
0.11504177986679714 0.7809895818509546 0.37551774528498394
-0.0029677047199196628 0.9116004288044629 0.37947977028550284
-0.02569850042530812 0.7993190165029217 0.522298841596718
0.11755570395033893 0.9285886071278071 0.5096572900139732
0.31504177986679716 0.7809895818509546 0.37551774528498394
0.19703229528008034 0.9116004288044629 0.37947977028550284
0.17430149957469188 0.7993190165029217 0.522298841596718
0.31755570395033894 0.9285886071278071 0.5096572900139732
0.5150417798667972 0.7809895818509546 0.37551774528498394
0.3970322952800804 0.9116004288044629 0.37947977028550284
0.3743014995746919 0.7993190165029217 0.522298841596718
0.517555703950339 0.9285886071278071 0.5096572900139732
0.7150417798667972 0.7809895818509546 0.37551774528498394
0.5970322952800803 0.9116004288044629 0.37947977028550284
0.5743014995746919 0.7993190165029217 0.522298841596718
0.717555703950339 0.9285886071278071 0.5096572900139732
0.9150417798667972 0.7809895818509546 0.37551774528498394
0.7970322952800803 0.9116004288044629 0.37947977028550284
0.774301499574692 0.7993190165029217 0.522298841596718
0.9175557039503389 0.9285886071278071 0.5096572900139732
0.11504177986679714 -0.019010418149045454 0.5755177452849839
-0.0029677047199196628 0.11160042880446289 0.5794797702855029
-0.02569850042530812 -0.0006809834970783724 0.722298841596718
0.11755570395033893 0.12858860712780704 0.7096572900139733
0.31504177986679716 -0.019010418149045454 0.5755177452849839
0.19703229528008034 0.11160042880446289 0.5794797702855029
0.17430149957469188 -0.0006809834970783724 0.722298841596718
0.31755570395033894 0.12858860712780704 0.7096572900139733
0.5150417798667972 -0.019010418149045454 0.5755177452849839
0.3970322952800804 0.11160042880446289 0.5794797702855029
0.3743014995746919 -0.0006809834970783724 0.722298841596718
0.517555703950339 0.12858860712780704 0.7096572900139733
0.7150417798667972 -0.019010418149045454 0.5755177452849839
0.5970322952800803 0.11160042880446289 0.5794797702855029
0.5743014995746919 -0.0006809834970783724 0.722298841596718
0.717555703950339 0.12858860712780704 0.7096572900139733
0.9150417798667972 -0.019010418149045454 0.5755177452849839
0.7970322952800803 0.11160042880446289 0.5794797702855029
0.774301499574692 -0.0006809834970783724 0.722298841596718
0.9175557039503389 0.12858860712780704 0.7096572900139733
0.11504177986679714 0.18098958185095457 0.5755177452849839
-0.0029677047199196628 0.3116004288044629 0.5794797702855029
-0.02569850042530812 0.19931901650292164 0.722298841596718
0.11755570395033893 0.328588607127807 0.7096572900139733
0.31504177986679716 0.18098958185095457 0.5755177452849839
0.19703229528008034 0.3116004288044629 0.5794797702855029
0.17430149957469188 0.19931901650292164 0.722298841596718
0.31755570395033894 0.328588607127807 0.7096572900139733
0.5150417798667972 0.18098958185095457 0.5755177452849839
0.3970322952800804 0.3116004288044629 0.5794797702855029
0.3743014995746919 0.19931901650292164 0.722298841596718
0.517555703950339 0.328588607127807 0.7096572900139733
0.7150417798667972 0.18098958185095457 0.5755177452849839
0.5970322952800803 0.3116004288044629 0.5794797702855029
0.5743014995746919 0.19931901650292164 0.722298841596718
0.717555703950339 0.328588607127807 0.7096572900139733
0.9150417798667972 0.18098958185095457 0.5755177452849839
0.7970322952800803 0.3116004288044629 0.5794797702855029
0.774301499574692 0.19931901650292164 0.722298841596718
0.9175557039503389 0.328588607127807 0.7096572900139733
0.11504177986679714 0.38098958185095455 0.5755177452849839
-0.0029677047199196628 0.5116004288044629 0.5794797702855029
-0.02569850042530812 0.3993190165029217 0.722298841596718
0.11755570395033893 0.5285886071278071 0.7096572900139733
0.31504177986679716 0.38098958185095455 0.5755177452849839
0.19703229528008034 0.5116004288044629 0.5794797702855029
0.17430149957469188 0.3993190165029217 0.722298841596718
0.31755570395033894 0.5285886071278071 0.7096572900139733
0.5150417798667972 0.38098958185095455 0.5755177452849839
0.3970322952800804 0.5116004288044629 0.5794797702855029
0.3743014995746919 0.3993190165029217 0.722298841596718
0.517555703950339 0.5285886071278071 0.7096572900139733
0.7150417798667972 0.38098958185095455 0.5755177452849839
0.5970322952800803 0.5116004288044629 0.5794797702855029
0.5743014995746919 0.3993190165029217 0.722298841596718
0.717555703950339 0.5285886071278071 0.7096572900139733
0.9150417798667972 0.38098958185095455 0.5755177452849839
0.7970322952800803 0.5116004288044629 0.5794797702855029
0.774301499574692 0.3993190165029217 0.722298841596718
0.9175557039503389 0.5285886071278071 0.7096572900139733
0.11504177986679714 0.5809895818509546 0.5755177452849839
-0.0029677047199196628 0.7116004288044628 0.5794797702855029
-0.02569850042530812 0.5993190165029216 0.722298841596718
0.11755570395033893 0.728588607127807 0.7096572900139733
0.31504177986679716 0.5809895818509546 0.5755177452849839
0.19703229528008034 0.7116004288044628 0.5794797702855029
0.17430149957469188 0.5993190165029216 0.722298841596718
0.31755570395033894 0.728588607127807 0.7096572900139733
0.5150417798667972 0.5809895818509546 0.5755177452849839
0.3970322952800804 0.7116004288044628 0.5794797702855029
0.3743014995746919 0.5993190165029216 0.722298841596718
0.517555703950339 0.728588607127807 0.7096572900139733
0.7150417798667972 0.5809895818509546 0.5755177452849839
0.5970322952800803 0.7116004288044628 0.5794797702855029
0.5743014995746919 0.5993190165029216 0.722298841596718
0.717555703950339 0.728588607127807 0.7096572900139733
0.9150417798667972 0.5809895818509546 0.5755177452849839
0.7970322952800803 0.7116004288044628 0.5794797702855029
0.774301499574692 0.5993190165029216 0.722298841596718
0.9175557039503389 0.728588607127807 0.7096572900139733
0.11504177986679714 0.7809895818509546 0.5755177452849839
-0.0029677047199196628 0.9116004288044629 0.5794797702855029
-0.02569850042530812 0.7993190165029217 0.722298841596718
0.11755570395033893 0.9285886071278071 0.7096572900139733
0.31504177986679716 0.7809895818509546 0.5755177452849839
0.19703229528008034 0.9116004288044629 0.5794797702855029
0.17430149957469188 0.7993190165029217 0.722298841596718
0.31755570395033894 0.9285886071278071 0.7096572900139733
0.5150417798667972 0.7809895818509546 0.5755177452849839
0.3970322952800804 0.9116004288044629 0.5794797702855029
0.3743014995746919 0.7993190165029217 0.722298841596718
0.517555703950339 0.9285886071278071 0.7096572900139733
0.7150417798667972 0.7809895818509546 0.5755177452849839
0.5970322952800803 0.9116004288044629 0.5794797702855029
0.5743014995746919 0.7993190165029217 0.722298841596718
0.717555703950339 0.9285886071278071 0.7096572900139733
0.9150417798667972 0.7809895818509546 0.5755177452849839
0.7970322952800803 0.9116004288044629 0.5794797702855029
0.774301499574692 0.7993190165029217 0.722298841596718
0.9175557039503389 0.9285886071278071 0.7096572900139733
0.11504177986679714 -0.019010418149045454 0.775517745284984
-0.0029677047199196628 0.11160042880446289 0.7794797702855029
-0.02569850042530812 -0.0006809834970783724 0.922298841596718
0.11755570395033893 0.12858860712780704 0.9096572900139732
0.31504177986679716 -0.019010418149045454 0.775517745284984
0.19703229528008034 0.11160042880446289 0.7794797702855029
0.17430149957469188 -0.0006809834970783724 0.922298841596718
0.31755570395033894 0.12858860712780704 0.9096572900139732
0.5150417798667972 -0.019010418149045454 0.775517745284984
0.3970322952800804 0.11160042880446289 0.7794797702855029
0.3743014995746919 -0.0006809834970783724 0.922298841596718
0.517555703950339 0.12858860712780704 0.9096572900139732
0.7150417798667972 -0.019010418149045454 0.775517745284984
0.5970322952800803 0.11160042880446289 0.7794797702855029
0.5743014995746919 -0.0006809834970783724 0.922298841596718
0.717555703950339 0.12858860712780704 0.9096572900139732
0.9150417798667972 -0.019010418149045454 0.775517745284984
0.7970322952800803 0.11160042880446289 0.7794797702855029
0.774301499574692 -0.0006809834970783724 0.922298841596718
0.9175557039503389 0.12858860712780704 0.9096572900139732
0.11504177986679714 0.18098958185095457 0.775517745284984
-0.0029677047199196628 0.3116004288044629 0.7794797702855029
-0.02569850042530812 0.19931901650292164 0.922298841596718
0.11755570395033893 0.328588607127807 0.9096572900139732
0.31504177986679716 0.18098958185095457 0.775517745284984
0.19703229528008034 0.3116004288044629 0.7794797702855029
0.17430149957469188 0.19931901650292164 0.922298841596718
0.31755570395033894 0.328588607127807 0.9096572900139732
0.5150417798667972 0.18098958185095457 0.775517745284984
0.3970322952800804 0.3116004288044629 0.7794797702855029
0.3743014995746919 0.19931901650292164 0.922298841596718
0.517555703950339 0.328588607127807 0.9096572900139732
0.7150417798667972 0.18098958185095457 0.775517745284984
0.5970322952800803 0.3116004288044629 0.7794797702855029
0.5743014995746919 0.19931901650292164 0.922298841596718
0.717555703950339 0.328588607127807 0.9096572900139732
0.9150417798667972 0.18098958185095457 0.775517745284984
0.7970322952800803 0.3116004288044629 0.7794797702855029
0.774301499574692 0.19931901650292164 0.922298841596718
0.9175557039503389 0.328588607127807 0.9096572900139732
0.11504177986679714 0.38098958185095455 0.775517745284984
-0.0029677047199196628 0.5116004288044629 0.7794797702855029
-0.02569850042530812 0.3993190165029217 0.922298841596718
0.11755570395033893 0.5285886071278071 0.9096572900139732
0.31504177986679716 0.38098958185095455 0.775517745284984
0.19703229528008034 0.5116004288044629 0.7794797702855029
0.17430149957469188 0.3993190165029217 0.922298841596718
0.31755570395033894 0.5285886071278071 0.9096572900139732
0.5150417798667972 0.38098958185095455 0.775517745284984
0.3970322952800804 0.5116004288044629 0.7794797702855029
0.3743014995746919 0.3993190165029217 0.922298841596718
0.517555703950339 0.5285886071278071 0.9096572900139732
0.7150417798667972 0.38098958185095455 0.775517745284984
0.5970322952800803 0.5116004288044629 0.7794797702855029
0.5743014995746919 0.3993190165029217 0.922298841596718
0.717555703950339 0.5285886071278071 0.9096572900139732
0.9150417798667972 0.38098958185095455 0.775517745284984
0.7970322952800803 0.5116004288044629 0.7794797702855029
0.774301499574692 0.3993190165029217 0.922298841596718
0.9175557039503389 0.5285886071278071 0.9096572900139732
0.11504177986679714 0.5809895818509546 0.775517745284984
-0.0029677047199196628 0.7116004288044628 0.7794797702855029
-0.02569850042530812 0.5993190165029216 0.922298841596718
0.11755570395033893 0.728588607127807 0.9096572900139732
0.31504177986679716 0.5809895818509546 0.775517745284984
0.19703229528008034 0.7116004288044628 0.7794797702855029
0.17430149957469188 0.5993190165029216 0.922298841596718
0.31755570395033894 0.728588607127807 0.9096572900139732
0.5150417798667972 0.5809895818509546 0.775517745284984
0.3970322952800804 0.7116004288044628 0.7794797702855029
0.3743014995746919 0.5993190165029216 0.922298841596718
0.517555703950339 0.728588607127807 0.9096572900139732
0.7150417798667972 0.5809895818509546 0.775517745284984
0.5970322952800803 0.7116004288044628 0.7794797702855029
0.5743014995746919 0.5993190165029216 0.922298841596718
0.717555703950339 0.728588607127807 0.9096572900139732
0.9150417798667972 0.5809895818509546 0.775517745284984
0.7970322952800803 0.7116004288044628 0.7794797702855029
0.774301499574692 0.5993190165029216 0.922298841596718
0.9175557039503389 0.728588607127807 0.9096572900139732
0.11504177986679714 0.7809895818509546 0.775517745284984
-0.0029677047199196628 0.9116004288044629 0.7794797702855029
-0.02569850042530812 0.7993190165029217 0.922298841596718
0.11755570395033893 0.9285886071278071 0.9096572900139732
0.31504177986679716 0.7809895818509546 0.775517745284984
0.19703229528008034 0.9116004288044629 0.7794797702855029
0.17430149957469188 0.7993190165029217 0.922298841596718
0.31755570395033894 0.9285886071278071 0.9096572900139732
0.5150417798667972 0.7809895818509546 0.775517745284984
0.3970322952800804 0.9116004288044629 0.7794797702855029
0.3743014995746919 0.7993190165029217 0.922298841596718
0.517555703950339 0.9285886071278071 0.9096572900139732
0.7150417798667972 0.7809895818509546 0.775517745284984
0.5970322952800803 0.9116004288044629 0.7794797702855029
0.5743014995746919 0.7993190165029217 0.922298841596718
0.717555703950339 0.9285886071278071 0.9096572900139732
0.9150417798667972 0.7809895818509546 0.775517745284984
0.7970322952800803 0.9116004288044629 0.7794797702855029
0.774301499574692 0.7993190165029217 0.922298841596718
0.9175557039503389 0.9285886071278071 0.9096572900139732
