FCC BaO
3.971
5.0 0.0 0.0
0.0 5.0 0.0
0.0 0.0 5.0
Ba O 
500 500 
Direct
-0.026255216805119483 0.00037109093311602615 0.023254794604701645
0.014192171187982515 0.10189235921756774 0.08118799847133354
0.08228079956454325 -0.01658198193398804 0.11621027742089443
0.07322539026668905 0.10440398710252607 -0.0162032094474397
0.17374478319488051 0.00037109093311602615 0.023254794604701645
0.21419217118798253 0.10189235921756774 0.08118799847133354
0.28228079956454327 -0.01658198193398804 0.11621027742089443
0.27322539026668907 0.10440398710252607 -0.0162032094474397
0.3737447831948806 0.00037109093311602615 0.023254794604701645
0.41419217118798257 0.10189235921756774 0.08118799847133354
0.4822807995645432 -0.01658198193398804 0.11621027742089443
0.4732253902666891 0.10440398710252607 -0.0162032094474397
0.5737447831948805 0.00037109093311602615 0.023254794604701645
0.6141921711879825 0.10189235921756774 0.08118799847133354
0.6822807995645432 -0.01658198193398804 0.11621027742089443
0.6732253902666891 0.10440398710252607 -0.0162032094474397
0.7737447831948806 0.00037109093311602615 0.023254794604701645
0.8141921711879825 0.10189235921756774 0.08118799847133354
0.8822807995645432 -0.01658198193398804 0.11621027742089443
0.8732253902666891 0.10440398710252607 -0.0162032094474397
-0.026255216805119483 0.20037109093311606 0.023254794604701645
0.014192171187982515 0.30189235921756774 0.08118799847133354
0.08228079956454325 0.183418018066012 0.11621027742089443
0.07322539026668905 0.3044039871025261 -0.0162032094474397
0.17374478319488051 0.20037109093311606 0.023254794604701645
0.21419217118798253 0.30189235921756774 0.08118799847133354
0.28228079956454327 0.183418018066012 0.11621027742089443
0.27322539026668907 0.3044039871025261 -0.0162032094474397
0.3737447831948806 0.20037109093311606 0.023254794604701645
0.41419217118798257 0.30189235921756774 0.08118799847133354
0.4822807995645432 0.183418018066012 0.11621027742089443
0.4732253902666891 0.3044039871025261 -0.0162032094474397
0.5737447831948805 0.20037109093311606 0.023254794604701645
0.6141921711879825 0.30189235921756774 0.08118799847133354
0.6822807995645432 0.183418018066012 0.11621027742089443
0.6732253902666891 0.3044039871025261 -0.0162032094474397
0.7737447831948806 0.20037109093311606 0.023254794604701645
0.8141921711879825 0.30189235921756774 0.08118799847133354
0.8822807995645432 0.183418018066012 0.11621027742089443
0.8732253902666891 0.3044039871025261 -0.0162032094474397
-0.026255216805119483 0.40037109093311607 0.023254794604701645
0.014192171187982515 0.5018923592175678 0.08118799847133354
0.08228079956454325 0.383418018066012 0.11621027742089443
0.07322539026668905 0.5044039871025261 -0.0162032094474397
0.17374478319488051 0.40037109093311607 0.023254794604701645
0.21419217118798253 0.5018923592175678 0.08118799847133354
0.28228079956454327 0.383418018066012 0.11621027742089443
0.27322539026668907 0.5044039871025261 -0.0162032094474397
0.3737447831948806 0.40037109093311607 0.023254794604701645
0.41419217118798257 0.5018923592175678 0.08118799847133354
0.4822807995645432 0.383418018066012 0.11621027742089443
0.4732253902666891 0.5044039871025261 -0.0162032094474397
0.5737447831948805 0.40037109093311607 0.023254794604701645
0.6141921711879825 0.5018923592175678 0.08118799847133354
0.6822807995645432 0.383418018066012 0.11621027742089443
0.6732253902666891 0.5044039871025261 -0.0162032094474397
0.7737447831948806 0.40037109093311607 0.023254794604701645
0.8141921711879825 0.5018923592175678 0.08118799847133354
0.8822807995645432 0.383418018066012 0.11621027742089443
0.8732253902666891 0.5044039871025261 -0.0162032094474397
-0.026255216805119483 0.6003710909331161 0.023254794604701645
0.014192171187982515 0.7018923592175678 0.08118799847133354
0.08228079956454325 0.583418018066012 0.11621027742089443
0.07322539026668905 0.704403987102526 -0.0162032094474397
0.17374478319488051 0.6003710909331161 0.023254794604701645
0.21419217118798253 0.7018923592175678 0.08118799847133354
0.28228079956454327 0.583418018066012 0.11621027742089443
0.27322539026668907 0.704403987102526 -0.0162032094474397
0.3737447831948806 0.6003710909331161 0.023254794604701645
0.41419217118798257 0.7018923592175678 0.08118799847133354
0.4822807995645432 0.583418018066012 0.11621027742089443
0.4732253902666891 0.704403987102526 -0.0162032094474397
0.5737447831948805 0.6003710909331161 0.023254794604701645
0.6141921711879825 0.7018923592175678 0.08118799847133354
0.6822807995645432 0.583418018066012 0.11621027742089443
0.6732253902666891 0.704403987102526 -0.0162032094474397
0.7737447831948806 0.6003710909331161 0.023254794604701645
0.8141921711879825 0.7018923592175678 0.08118799847133354
0.8822807995645432 0.583418018066012 0.11621027742089443
0.8732253902666891 0.704403987102526 -0.0162032094474397
-0.026255216805119483 0.800371090933116 0.023254794604701645
0.014192171187982515 0.9018923592175678 0.08118799847133354
0.08228079956454325 0.783418018066012 0.11621027742089443
0.07322539026668905 0.9044039871025261 -0.0162032094474397
0.17374478319488051 0.800371090933116 0.023254794604701645
0.21419217118798253 0.9018923592175678 0.08118799847133354
0.28228079956454327 0.783418018066012 0.11621027742089443
0.27322539026668907 0.9044039871025261 -0.0162032094474397
0.3737447831948806 0.800371090933116 0.023254794604701645
0.41419217118798257 0.9018923592175678 0.08118799847133354
0.4822807995645432 0.783418018066012 0.11621027742089443
0.4732253902666891 0.9044039871025261 -0.0162032094474397
0.5737447831948805 0.800371090933116 0.023254794604701645
0.6141921711879825 0.9018923592175678 0.08118799847133354
0.6822807995645432 0.783418018066012 0.11621027742089443
0.6732253902666891 0.9044039871025261 -0.0162032094474397
0.7737447831948806 0.800371090933116 0.023254794604701645
0.8141921711879825 0.9018923592175678 0.08118799847133354
0.8822807995645432 0.783418018066012 0.11621027742089443
0.8732253902666891 0.9044039871025261 -0.0162032094474397
-0.026255216805119483 0.00037109093311602615 0.22325479460470166
0.014192171187982515 0.10189235921756774 0.2811879984713335
0.08228079956454325 -0.01658198193398804 0.3162102774208944
0.07322539026668905 0.10440398710252607 0.18379679055256032
0.17374478319488051 0.00037109093311602615 0.22325479460470166
0.21419217118798253 0.10189235921756774 0.2811879984713335
0.28228079956454327 -0.01658198193398804 0.3162102774208944
0.27322539026668907 0.10440398710252607 0.18379679055256032
0.3737447831948806 0.00037109093311602615 0.22325479460470166
0.41419217118798257 0.10189235921756774 0.2811879984713335
0.4822807995645432 -0.01658198193398804 0.3162102774208944
0.4732253902666891 0.10440398710252607 0.18379679055256032
0.5737447831948805 0.00037109093311602615 0.22325479460470166
0.6141921711879825 0.10189235921756774 0.2811879984713335
0.6822807995645432 -0.01658198193398804 0.3162102774208944
0.6732253902666891 0.10440398710252607 0.18379679055256032
0.7737447831948806 0.00037109093311602615 0.22325479460470166
0.8141921711879825 0.10189235921756774 0.2811879984713335
0.8822807995645432 -0.01658198193398804 0.3162102774208944
0.8732253902666891 0.10440398710252607 0.18379679055256032
-0.026255216805119483 0.20037109093311606 0.22325479460470166
0.014192171187982515 0.30189235921756774 0.2811879984713335
0.08228079956454325 0.183418018066012 0.3162102774208944
0.07322539026668905 0.3044039871025261 0.18379679055256032
0.17374478319488051 0.20037109093311606 0.22325479460470166
0.21419217118798253 0.30189235921756774 0.2811879984713335
0.28228079956454327 0.183418018066012 0.3162102774208944
0.27322539026668907 0.3044039871025261 0.18379679055256032
0.3737447831948806 0.20037109093311606 0.22325479460470166
0.41419217118798257 0.30189235921756774 0.2811879984713335
0.4822807995645432 0.183418018066012 0.3162102774208944
0.4732253902666891 0.3044039871025261 0.18379679055256032
0.5737447831948805 0.20037109093311606 0.22325479460470166
0.6141921711879825 0.30189235921756774 0.2811879984713335
0.6822807995645432 0.183418018066012 0.3162102774208944
0.6732253902666891 0.3044039871025261 0.18379679055256032
0.7737447831948806 0.20037109093311606 0.22325479460470166
0.8141921711879825 0.30189235921756774 0.2811879984713335
0.8822807995645432 0.183418018066012 0.3162102774208944
0.8732253902666891 0.3044039871025261 0.18379679055256032
-0.026255216805119483 0.40037109093311607 0.22325479460470166
0.014192171187982515 0.5018923592175678 0.2811879984713335
0.08228079956454325 0.383418018066012 0.3162102774208944
0.07322539026668905 0.5044039871025261 0.18379679055256032
0.17374478319488051 0.40037109093311607 0.22325479460470166
0.21419217118798253 0.5018923592175678 0.2811879984713335
0.28228079956454327 0.383418018066012 0.3162102774208944
0.27322539026668907 0.5044039871025261 0.18379679055256032
0.3737447831948806 0.40037109093311607 0.22325479460470166
0.41419217118798257 0.5018923592175678 0.2811879984713335
0.4822807995645432 0.383418018066012 0.3162102774208944
0.4732253902666891 0.5044039871025261 0.18379679055256032
0.5737447831948805 0.40037109093311607 0.22325479460470166
0.6141921711879825 0.5018923592175678 0.2811879984713335
0.6822807995645432 0.383418018066012 0.3162102774208944
0.6732253902666891 0.5044039871025261 0.18379679055256032
0.7737447831948806 0.40037109093311607 0.22325479460470166
0.8141921711879825 0.5018923592175678 0.2811879984713335
0.8822807995645432 0.383418018066012 0.3162102774208944
0.8732253902666891 0.5044039871025261 0.18379679055256032
-0.026255216805119483 0.6003710909331161 0.22325479460470166
0.014192171187982515 0.7018923592175678 0.2811879984713335
0.08228079956454325 0.583418018066012 0.3162102774208944
0.07322539026668905 0.704403987102526 0.18379679055256032
0.17374478319488051 0.6003710909331161 0.22325479460470166
0.21419217118798253 0.7018923592175678 0.2811879984713335
0.28228079956454327 0.583418018066012 0.3162102774208944
0.27322539026668907 0.704403987102526 0.18379679055256032
0.3737447831948806 0.6003710909331161 0.22325479460470166
0.41419217118798257 0.7018923592175678 0.2811879984713335
0.4822807995645432 0.583418018066012 0.3162102774208944
0.4732253902666891 0.704403987102526 0.18379679055256032
0.5737447831948805 0.6003710909331161 0.22325479460470166
0.6141921711879825 0.7018923592175678 0.2811879984713335
0.6822807995645432 0.583418018066012 0.3162102774208944
0.6732253902666891 0.704403987102526 0.18379679055256032
0.7737447831948806 0.6003710909331161 0.22325479460470166
0.8141921711879825 0.7018923592175678 0.2811879984713335
0.8822807995645432 0.583418018066012 0.3162102774208944
0.8732253902666891 0.704403987102526 0.18379679055256032
-0.026255216805119483 0.800371090933116 0.22325479460470166
0.014192171187982515 0.9018923592175678 0.2811879984713335
0.08228079956454325 0.783418018066012 0.3162102774208944
0.07322539026668905 0.9044039871025261 0.18379679055256032
0.17374478319488051 0.800371090933116 0.22325479460470166
0.21419217118798253 0.9018923592175678 0.2811879984713335
0.28228079956454327 0.783418018066012 0.3162102774208944
0.27322539026668907 0.9044039871025261 0.18379679055256032
0.3737447831948806 0.800371090933116 0.22325479460470166
0.41419217118798257 0.9018923592175678 0.2811879984713335
0.4822807995645432 0.783418018066012 0.3162102774208944
0.4732253902666891 0.9044039871025261 0.18379679055256032
0.5737447831948805 0.800371090933116 0.22325479460470166
0.6141921711879825 0.9018923592175678 0.2811879984713335
0.6822807995645432 0.783418018066012 0.3162102774208944
0.6732253902666891 0.9044039871025261 0.18379679055256032
0.7737447831948806 0.800371090933116 0.22325479460470166
0.8141921711879825 0.9018923592175678 0.2811879984713335
0.8822807995645432 0.783418018066012 0.3162102774208944
0.8732253902666891 0.9044039871025261 0.18379679055256032
-0.026255216805119483 0.00037109093311602615 0.4232547946047016
0.014192171187982515 0.10189235921756774 0.48118799847133353
0.08228079956454325 -0.01658198193398804 0.5162102774208944
0.07322539026668905 0.10440398710252607 0.38379679055256033
0.17374478319488051 0.00037109093311602615 0.4232547946047016
0.21419217118798253 0.10189235921756774 0.48118799847133353
0.28228079956454327 -0.01658198193398804 0.5162102774208944
0.27322539026668907 0.10440398710252607 0.38379679055256033
0.3737447831948806 0.00037109093311602615 0.4232547946047016
0.41419217118798257 0.10189235921756774 0.48118799847133353
0.4822807995645432 -0.01658198193398804 0.5162102774208944
0.4732253902666891 0.10440398710252607 0.38379679055256033
0.5737447831948805 0.00037109093311602615 0.4232547946047016
0.6141921711879825 0.10189235921756774 0.48118799847133353
0.6822807995645432 -0.01658198193398804 0.5162102774208944
0.6732253902666891 0.10440398710252607 0.38379679055256033
0.7737447831948806 0.00037109093311602615 0.4232547946047016
0.8141921711879825 0.10189235921756774 0.48118799847133353
0.8822807995645432 -0.01658198193398804 0.5162102774208944
0.8732253902666891 0.10440398710252607 0.38379679055256033
-0.026255216805119483 0.20037109093311606 0.4232547946047016
0.014192171187982515 0.30189235921756774 0.48118799847133353
0.08228079956454325 0.183418018066012 0.5162102774208944
0.07322539026668905 0.3044039871025261 0.38379679055256033
0.17374478319488051 0.20037109093311606 0.4232547946047016
0.21419217118798253 0.30189235921756774 0.48118799847133353
0.28228079956454327 0.183418018066012 0.5162102774208944
0.27322539026668907 0.3044039871025261 0.38379679055256033
0.3737447831948806 0.20037109093311606 0.4232547946047016
0.41419217118798257 0.30189235921756774 0.48118799847133353
0.4822807995645432 0.183418018066012 0.5162102774208944
0.4732253902666891 0.3044039871025261 0.38379679055256033
0.5737447831948805 0.20037109093311606 0.4232547946047016
0.6141921711879825 0.30189235921756774 0.48118799847133353
0.6822807995645432 0.183418018066012 0.5162102774208944
0.6732253902666891 0.3044039871025261 0.38379679055256033
0.7737447831948806 0.20037109093311606 0.4232547946047016
0.8141921711879825 0.30189235921756774 0.48118799847133353
0.8822807995645432 0.183418018066012 0.5162102774208944
0.8732253902666891 0.3044039871025261 0.38379679055256033
-0.026255216805119483 0.40037109093311607 0.4232547946047016
0.014192171187982515 0.5018923592175678 0.48118799847133353
0.08228079956454325 0.383418018066012 0.5162102774208944
0.07322539026668905 0.5044039871025261 0.38379679055256033
0.17374478319488051 0.40037109093311607 0.4232547946047016
0.21419217118798253 0.5018923592175678 0.48118799847133353
0.28228079956454327 0.383418018066012 0.5162102774208944
0.27322539026668907 0.5044039871025261 0.38379679055256033
0.3737447831948806 0.40037109093311607 0.4232547946047016
0.41419217118798257 0.5018923592175678 0.48118799847133353
0.4822807995645432 0.383418018066012 0.5162102774208944
0.4732253902666891 0.5044039871025261 0.38379679055256033
0.5737447831948805 0.40037109093311607 0.4232547946047016
0.6141921711879825 0.5018923592175678 0.48118799847133353
0.6822807995645432 0.383418018066012 0.5162102774208944
0.6732253902666891 0.5044039871025261 0.38379679055256033
0.7737447831948806 0.40037109093311607 0.4232547946047016
0.8141921711879825 0.5018923592175678 0.48118799847133353
0.8822807995645432 0.383418018066012 0.5162102774208944
0.8732253902666891 0.5044039871025261 0.38379679055256033
-0.026255216805119483 0.6003710909331161 0.4232547946047016
0.014192171187982515 0.7018923592175678 0.48118799847133353
0.08228079956454325 0.583418018066012 0.5162102774208944
0.07322539026668905 0.704403987102526 0.38379679055256033
0.17374478319488051 0.6003710909331161 0.4232547946047016
0.21419217118798253 0.7018923592175678 0.48118799847133353
0.28228079956454327 0.583418018066012 0.5162102774208944
0.27322539026668907 0.704403987102526 0.38379679055256033
0.3737447831948806 0.6003710909331161 0.4232547946047016
0.41419217118798257 0.7018923592175678 0.48118799847133353
0.4822807995645432 0.583418018066012 0.5162102774208944
0.4732253902666891 0.704403987102526 0.38379679055256033
0.5737447831948805 0.6003710909331161 0.4232547946047016
0.6141921711879825 0.7018923592175678 0.48118799847133353
0.6822807995645432 0.583418018066012 0.5162102774208944
0.6732253902666891 0.704403987102526 0.38379679055256033
0.7737447831948806 0.6003710909331161 0.4232547946047016
0.8141921711879825 0.7018923592175678 0.48118799847133353
0.8822807995645432 0.583418018066012 0.5162102774208944
0.8732253902666891 0.704403987102526 0.38379679055256033
-0.026255216805119483 0.800371090933116 0.4232547946047016
0.014192171187982515 0.9018923592175678 0.48118799847133353
0.08228079956454325 0.783418018066012 0.5162102774208944
0.07322539026668905 0.9044039871025261 0.38379679055256033
0.17374478319488051 0.800371090933116 0.4232547946047016
0.21419217118798253 0.9018923592175678 0.48118799847133353
0.28228079956454327 0.783418018066012 0.5162102774208944
0.27322539026668907 0.9044039871025261 0.38379679055256033
0.3737447831948806 0.800371090933116 0.4232547946047016
0.41419217118798257 0.9018923592175678 0.48118799847133353
0.4822807995645432 0.783418018066012 0.5162102774208944
0.4732253902666891 0.9044039871025261 0.38379679055256033
0.5737447831948805 0.800371090933116 0.4232547946047016
0.6141921711879825 0.9018923592175678 0.48118799847133353
0.6822807995645432 0.783418018066012 0.5162102774208944
0.6732253902666891 0.9044039871025261 0.38379679055256033
0.7737447831948806 0.800371090933116 0.4232547946047016
0.8141921711879825 0.9018923592175678 0.48118799847133353
0.8822807995645432 0.783418018066012 0.5162102774208944
0.8732253902666891 0.9044039871025261 0.38379679055256033
-0.026255216805119483 0.00037109093311602615 0.6232547946047017
0.014192171187982515 0.10189235921756774 0.6811879984713336
0.08228079956454325 -0.01658198193398804 0.7162102774208945
0.07322539026668905 0.10440398710252607 0.5837967905525603
0.17374478319488051 0.00037109093311602615 0.6232547946047017
0.21419217118798253 0.10189235921756774 0.6811879984713336
0.28228079956454327 -0.01658198193398804 0.7162102774208945
0.27322539026668907 0.10440398710252607 0.5837967905525603
0.3737447831948806 0.00037109093311602615 0.6232547946047017
0.41419217118798257 0.10189235921756774 0.6811879984713336
0.4822807995645432 -0.01658198193398804 0.7162102774208945
0.4732253902666891 0.10440398710252607 0.5837967905525603
0.5737447831948805 0.00037109093311602615 0.6232547946047017
0.6141921711879825 0.10189235921756774 0.6811879984713336
0.6822807995645432 -0.01658198193398804 0.7162102774208945
0.6732253902666891 0.10440398710252607 0.5837967905525603
0.7737447831948806 0.00037109093311602615 0.6232547946047017
0.8141921711879825 0.10189235921756774 0.6811879984713336
0.8822807995645432 -0.01658198193398804 0.7162102774208945
0.8732253902666891 0.10440398710252607 0.5837967905525603
-0.026255216805119483 0.20037109093311606 0.6232547946047017
0.014192171187982515 0.30189235921756774 0.6811879984713336
0.08228079956454325 0.183418018066012 0.7162102774208945
0.07322539026668905 0.3044039871025261 0.5837967905525603
0.17374478319488051 0.20037109093311606 0.6232547946047017
0.21419217118798253 0.30189235921756774 0.6811879984713336
0.28228079956454327 0.183418018066012 0.7162102774208945
0.27322539026668907 0.3044039871025261 0.5837967905525603
0.3737447831948806 0.20037109093311606 0.6232547946047017
0.41419217118798257 0.30189235921756774 0.6811879984713336
0.4822807995645432 0.183418018066012 0.7162102774208945
0.4732253902666891 0.3044039871025261 0.5837967905525603
0.5737447831948805 0.20037109093311606 0.6232547946047017
0.6141921711879825 0.30189235921756774 0.6811879984713336
0.6822807995645432 0.183418018066012 0.7162102774208945
0.6732253902666891 0.3044039871025261 0.5837967905525603
0.7737447831948806 0.20037109093311606 0.6232547946047017
0.8141921711879825 0.30189235921756774 0.6811879984713336
0.8822807995645432 0.183418018066012 0.7162102774208945
0.8732253902666891 0.3044039871025261 0.5837967905525603
-0.026255216805119483 0.40037109093311607 0.6232547946047017
0.014192171187982515 0.5018923592175678 0.6811879984713336
0.08228079956454325 0.383418018066012 0.7162102774208945
0.07322539026668905 0.5044039871025261 0.5837967905525603
0.17374478319488051 0.40037109093311607 0.6232547946047017
0.21419217118798253 0.5018923592175678 0.6811879984713336
0.28228079956454327 0.383418018066012 0.7162102774208945
0.27322539026668907 0.5044039871025261 0.5837967905525603
0.3737447831948806 0.40037109093311607 0.6232547946047017
0.41419217118798257 0.5018923592175678 0.6811879984713336
0.4822807995645432 0.383418018066012 0.7162102774208945
0.4732253902666891 0.5044039871025261 0.5837967905525603
0.5737447831948805 0.40037109093311607 0.6232547946047017
0.6141921711879825 0.5018923592175678 0.6811879984713336
0.6822807995645432 0.383418018066012 0.7162102774208945
0.6732253902666891 0.5044039871025261 0.5837967905525603
0.7737447831948806 0.40037109093311607 0.6232547946047017
0.8141921711879825 0.5018923592175678 0.6811879984713336
0.8822807995645432 0.383418018066012 0.7162102774208945
0.8732253902666891 0.5044039871025261 0.5837967905525603
-0.026255216805119483 0.6003710909331161 0.6232547946047017
0.014192171187982515 0.7018923592175678 0.6811879984713336
0.08228079956454325 0.583418018066012 0.7162102774208945
0.07322539026668905 0.704403987102526 0.5837967905525603
0.17374478319488051 0.6003710909331161 0.6232547946047017
0.21419217118798253 0.7018923592175678 0.6811879984713336
0.28228079956454327 0.583418018066012 0.7162102774208945
0.27322539026668907 0.704403987102526 0.5837967905525603
0.3737447831948806 0.6003710909331161 0.6232547946047017
0.41419217118798257 0.7018923592175678 0.6811879984713336
0.4822807995645432 0.583418018066012 0.7162102774208945
0.4732253902666891 0.704403987102526 0.5837967905525603
0.5737447831948805 0.6003710909331161 0.6232547946047017
0.6141921711879825 0.7018923592175678 0.6811879984713336
0.6822807995645432 0.583418018066012 0.7162102774208945
0.6732253902666891 0.704403987102526 0.5837967905525603
0.7737447831948806 0.6003710909331161 0.6232547946047017
0.8141921711879825 0.7018923592175678 0.6811879984713336
0.8822807995645432 0.583418018066012 0.7162102774208945
0.8732253902666891 0.704403987102526 0.5837967905525603
-0.026255216805119483 0.800371090933116 0.6232547946047017
0.014192171187982515 0.9018923592175678 0.6811879984713336
0.08228079956454325 0.783418018066012 0.7162102774208945
0.07322539026668905 0.9044039871025261 0.5837967905525603
0.17374478319488051 0.800371090933116 0.6232547946047017
0.21419217118798253 0.9018923592175678 0.6811879984713336
0.28228079956454327 0.783418018066012 0.7162102774208945
0.27322539026668907 0.9044039871025261 0.5837967905525603
0.3737447831948806 0.800371090933116 0.6232547946047017
0.41419217118798257 0.9018923592175678 0.6811879984713336
0.4822807995645432 0.783418018066012 0.7162102774208945
0.4732253902666891 0.9044039871025261 0.5837967905525603
0.5737447831948805 0.800371090933116 0.6232547946047017
0.6141921711879825 0.9018923592175678 0.6811879984713336
0.6822807995645432 0.783418018066012 0.7162102774208945
0.6732253902666891 0.9044039871025261 0.5837967905525603
0.7737447831948806 0.800371090933116 0.6232547946047017
0.8141921711879825 0.9018923592175678 0.6811879984713336
0.8822807995645432 0.783418018066012 0.7162102774208945
0.8732253902666891 0.9044039871025261 0.5837967905525603
-0.026255216805119483 0.00037109093311602615 0.8232547946047017
0.014192171187982515 0.10189235921756774 0.8811879984713337
0.08228079956454325 -0.01658198193398804 0.9162102774208946
0.07322539026668905 0.10440398710252607 0.7837967905525604
0.17374478319488051 0.00037109093311602615 0.8232547946047017
0.21419217118798253 0.10189235921756774 0.8811879984713337
0.28228079956454327 -0.01658198193398804 0.9162102774208946
0.27322539026668907 0.10440398710252607 0.7837967905525604
0.3737447831948806 0.00037109093311602615 0.8232547946047017
0.41419217118798257 0.10189235921756774 0.8811879984713337
0.4822807995645432 -0.01658198193398804 0.9162102774208946
0.4732253902666891 0.10440398710252607 0.7837967905525604
0.5737447831948805 0.00037109093311602615 0.8232547946047017
0.6141921711879825 0.10189235921756774 0.8811879984713337
0.6822807995645432 -0.01658198193398804 0.9162102774208946
0.6732253902666891 0.10440398710252607 0.7837967905525604
0.7737447831948806 0.00037109093311602615 0.8232547946047017
0.8141921711879825 0.10189235921756774 0.8811879984713337
0.8822807995645432 -0.01658198193398804 0.9162102774208946
0.8732253902666891 0.10440398710252607 0.7837967905525604
-0.026255216805119483 0.20037109093311606 0.8232547946047017
0.014192171187982515 0.30189235921756774 0.8811879984713337
0.08228079956454325 0.183418018066012 0.9162102774208946
0.07322539026668905 0.3044039871025261 0.7837967905525604
0.17374478319488051 0.20037109093311606 0.8232547946047017
0.21419217118798253 0.30189235921756774 0.8811879984713337
0.28228079956454327 0.183418018066012 0.9162102774208946
0.27322539026668907 0.3044039871025261 0.7837967905525604
0.3737447831948806 0.20037109093311606 0.8232547946047017
0.41419217118798257 0.30189235921756774 0.8811879984713337
0.4822807995645432 0.183418018066012 0.9162102774208946
0.4732253902666891 0.3044039871025261 0.7837967905525604
0.5737447831948805 0.20037109093311606 0.8232547946047017
0.6141921711879825 0.30189235921756774 0.8811879984713337
0.6822807995645432 0.183418018066012 0.9162102774208946
0.6732253902666891 0.3044039871025261 0.7837967905525604
0.7737447831948806 0.20037109093311606 0.8232547946047017
0.8141921711879825 0.30189235921756774 0.8811879984713337
0.8822807995645432 0.183418018066012 0.9162102774208946
0.8732253902666891 0.3044039871025261 0.7837967905525604
-0.026255216805119483 0.40037109093311607 0.8232547946047017
0.014192171187982515 0.5018923592175678 0.8811879984713337
0.08228079956454325 0.383418018066012 0.9162102774208946
0.07322539026668905 0.5044039871025261 0.7837967905525604
0.17374478319488051 0.40037109093311607 0.8232547946047017
0.21419217118798253 0.5018923592175678 0.8811879984713337
0.28228079956454327 0.383418018066012 0.9162102774208946
0.27322539026668907 0.5044039871025261 0.7837967905525604
0.3737447831948806 0.40037109093311607 0.8232547946047017
0.41419217118798257 0.5018923592175678 0.8811879984713337
0.4822807995645432 0.383418018066012 0.9162102774208946
0.4732253902666891 0.5044039871025261 0.7837967905525604
0.5737447831948805 0.40037109093311607 0.8232547946047017
0.6141921711879825 0.5018923592175678 0.8811879984713337
0.6822807995645432 0.383418018066012 0.9162102774208946
0.6732253902666891 0.5044039871025261 0.7837967905525604
0.7737447831948806 0.40037109093311607 0.8232547946047017
0.8141921711879825 0.5018923592175678 0.8811879984713337
0.8822807995645432 0.383418018066012 0.9162102774208946
0.8732253902666891 0.5044039871025261 0.7837967905525604
-0.026255216805119483 0.6003710909331161 0.8232547946047017
0.014192171187982515 0.7018923592175678 0.8811879984713337
0.08228079956454325 0.583418018066012 0.9162102774208946
0.07322539026668905 0.704403987102526 0.7837967905525604
0.17374478319488051 0.6003710909331161 0.8232547946047017
0.21419217118798253 0.7018923592175678 0.8811879984713337
0.28228079956454327 0.583418018066012 0.9162102774208946
0.27322539026668907 0.704403987102526 0.7837967905525604
0.3737447831948806 0.6003710909331161 0.8232547946047017
0.41419217118798257 0.7018923592175678 0.8811879984713337
0.4822807995645432 0.583418018066012 0.9162102774208946
0.4732253902666891 0.704403987102526 0.7837967905525604
0.5737447831948805 0.6003710909331161 0.8232547946047017
0.6141921711879825 0.7018923592175678 0.8811879984713337
0.6822807995645432 0.583418018066012 0.9162102774208946
0.6732253902666891 0.704403987102526 0.7837967905525604
0.7737447831948806 0.6003710909331161 0.8232547946047017
0.8141921711879825 0.7018923592175678 0.8811879984713337
0.8822807995645432 0.583418018066012 0.9162102774208946
0.8732253902666891 0.704403987102526 0.7837967905525604
-0.026255216805119483 0.800371090933116 0.8232547946047017
0.014192171187982515 0.9018923592175678 0.8811879984713337
0.08228079956454325 0.783418018066012 0.9162102774208946
0.07322539026668905 0.9044039871025261 0.7837967905525604
0.17374478319488051 0.800371090933116 0.8232547946047017
0.21419217118798253 0.9018923592175678 0.8811879984713337
0.28228079956454327 0.783418018066012 0.9162102774208946
0.27322539026668907 0.9044039871025261 0.7837967905525604
0.3737447831948806 0.800371090933116 0.8232547946047017
0.41419217118798257 0.9018923592175678 0.8811879984713337
0.4822807995645432 0.783418018066012 0.9162102774208946
0.4732253902666891 0.9044039871025261 0.7837967905525604
0.5737447831948805 0.800371090933116 0.8232547946047017
0.6141921711879825 0.9018923592175678 0.8811879984713337
0.6822807995645432 0.783418018066012 0.9162102774208946
0.6732253902666891 0.9044039871025261 0.7837967905525604
0.7737447831948806 0.800371090933116 0.8232547946047017
0.8141921711879825 0.9018923592175678 0.8811879984713337
0.8822807995645432 0.783418018066012 0.9162102774208946
0.8732253902666891 0.9044039871025261 0.7837967905525604
0.08163001766216259 -0.027717918281735855 -0.027913801832504827
0.012166720323976919 0.07551199114761714 0.019562668622006285
0.020624765071756437 0.01362066009732512 0.09092349776957606
0.083652400686161 0.08767601386484146 0.11922856639978406
0.2816300176621626 -0.027717918281735855 -0.027913801832504827
0.2121667203239769 0.07551199114761714 0.019562668622006285
0.22062476507175646 0.01362066009732512 0.09092349776957606
0.283652400686161 0.08767601386484146 0.11922856639978406
0.4816300176621626 -0.027717918281735855 -0.027913801832504827
0.41216672032397694 0.07551199114761714 0.019562668622006285
0.4206247650717565 0.01362066009732512 0.09092349776957606
0.483652400686161 0.08767601386484146 0.11922856639978406
0.6816300176621626 -0.027717918281735855 -0.027913801832504827
0.612166720323977 0.07551199114761714 0.019562668622006285
0.6206247650717565 0.01362066009732512 0.09092349776957606
0.6836524006861611 0.08767601386484146 0.11922856639978406
0.8816300176621626 -0.027717918281735855 -0.027913801832504827
0.8121667203239769 0.07551199114761714 0.019562668622006285
0.8206247650717565 0.01362066009732512 0.09092349776957606
0.8836524006861611 0.08767601386484146 0.11922856639978406
0.08163001766216259 0.17228208171826417 -0.027913801832504827
0.012166720323976919 0.27551199114761715 0.019562668622006285
0.020624765071756437 0.21362066009732514 0.09092349776957606
0.083652400686161 0.2876760138648415 0.11922856639978406
0.2816300176621626 0.17228208171826417 -0.027913801832504827
0.2121667203239769 0.27551199114761715 0.019562668622006285
0.22062476507175646 0.21362066009732514 0.09092349776957606
0.283652400686161 0.2876760138648415 0.11922856639978406
0.4816300176621626 0.17228208171826417 -0.027913801832504827
0.41216672032397694 0.27551199114761715 0.019562668622006285
0.4206247650717565 0.21362066009732514 0.09092349776957606
0.483652400686161 0.2876760138648415 0.11922856639978406
0.6816300176621626 0.17228208171826417 -0.027913801832504827
0.612166720323977 0.27551199114761715 0.019562668622006285
0.6206247650717565 0.21362066009732514 0.09092349776957606
0.6836524006861611 0.2876760138648415 0.11922856639978406
0.8816300176621626 0.17228208171826417 -0.027913801832504827
0.8121667203239769 0.27551199114761715 0.019562668622006285
0.8206247650717565 0.21362066009732514 0.09092349776957606
0.8836524006861611 0.2876760138648415 0.11922856639978406
0.08163001766216259 0.37228208171826416 -0.027913801832504827
0.012166720323976919 0.47551199114761716 0.019562668622006285
0.020624765071756437 0.4136206600973251 0.09092349776957606
0.083652400686161 0.4876760138648415 0.11922856639978406
0.2816300176621626 0.37228208171826416 -0.027913801832504827
0.2121667203239769 0.47551199114761716 0.019562668622006285
0.22062476507175646 0.4136206600973251 0.09092349776957606
0.283652400686161 0.4876760138648415 0.11922856639978406
0.4816300176621626 0.37228208171826416 -0.027913801832504827
0.41216672032397694 0.47551199114761716 0.019562668622006285
0.4206247650717565 0.4136206600973251 0.09092349776957606
0.483652400686161 0.4876760138648415 0.11922856639978406
0.6816300176621626 0.37228208171826416 -0.027913801832504827
0.612166720323977 0.47551199114761716 0.019562668622006285
0.6206247650717565 0.4136206600973251 0.09092349776957606
0.6836524006861611 0.4876760138648415 0.11922856639978406
0.8816300176621626 0.37228208171826416 -0.027913801832504827
0.8121667203239769 0.47551199114761716 0.019562668622006285
0.8206247650717565 0.4136206600973251 0.09092349776957606
0.8836524006861611 0.4876760138648415 0.11922856639978406
0.08163001766216259 0.5722820817182641 -0.027913801832504827
0.012166720323976919 0.6755119911476172 0.019562668622006285
0.020624765071756437 0.6136206600973252 0.09092349776957606
0.083652400686161 0.6876760138648415 0.11922856639978406
0.2816300176621626 0.5722820817182641 -0.027913801832504827
0.2121667203239769 0.6755119911476172 0.019562668622006285
0.22062476507175646 0.6136206600973252 0.09092349776957606
0.283652400686161 0.6876760138648415 0.11922856639978406
0.4816300176621626 0.5722820817182641 -0.027913801832504827
0.41216672032397694 0.6755119911476172 0.019562668622006285
0.4206247650717565 0.6136206600973252 0.09092349776957606
0.483652400686161 0.6876760138648415 0.11922856639978406
0.6816300176621626 0.5722820817182641 -0.027913801832504827
0.612166720323977 0.6755119911476172 0.019562668622006285
0.6206247650717565 0.6136206600973252 0.09092349776957606
0.6836524006861611 0.6876760138648415 0.11922856639978406
0.8816300176621626 0.5722820817182641 -0.027913801832504827
0.8121667203239769 0.6755119911476172 0.019562668622006285
0.8206247650717565 0.6136206600973252 0.09092349776957606
0.8836524006861611 0.6876760138648415 0.11922856639978406
0.08163001766216259 0.7722820817182642 -0.027913801832504827
0.012166720323976919 0.8755119911476172 0.019562668622006285
0.020624765071756437 0.8136206600973251 0.09092349776957606
0.083652400686161 0.8876760138648415 0.11922856639978406
0.2816300176621626 0.7722820817182642 -0.027913801832504827
0.2121667203239769 0.8755119911476172 0.019562668622006285
0.22062476507175646 0.8136206600973251 0.09092349776957606
0.283652400686161 0.8876760138648415 0.11922856639978406
0.4816300176621626 0.7722820817182642 -0.027913801832504827
0.41216672032397694 0.8755119911476172 0.019562668622006285
0.4206247650717565 0.8136206600973251 0.09092349776957606
0.483652400686161 0.8876760138648415 0.11922856639978406
0.6816300176621626 0.7722820817182642 -0.027913801832504827
0.612166720323977 0.8755119911476172 0.019562668622006285
0.6206247650717565 0.8136206600973251 0.09092349776957606
0.6836524006861611 0.8876760138648415 0.11922856639978406
0.8816300176621626 0.7722820817182642 -0.027913801832504827
0.8121667203239769 0.8755119911476172 0.019562668622006285
0.8206247650717565 0.8136206600973251 0.09092349776957606
0.8836524006861611 0.8876760138648415 0.11922856639978406
0.08163001766216259 -0.027717918281735855 0.17208619816749518
0.012166720323976919 0.07551199114761714 0.2195626686220063
0.020624765071756437 0.01362066009732512 0.29092349776957604
0.083652400686161 0.08767601386484146 0.3192285663997841
0.2816300176621626 -0.027717918281735855 0.17208619816749518
0.2121667203239769 0.07551199114761714 0.2195626686220063
0.22062476507175646 0.01362066009732512 0.29092349776957604
0.283652400686161 0.08767601386484146 0.3192285663997841
0.4816300176621626 -0.027717918281735855 0.17208619816749518
0.41216672032397694 0.07551199114761714 0.2195626686220063
0.4206247650717565 0.01362066009732512 0.29092349776957604
0.483652400686161 0.08767601386484146 0.3192285663997841
0.6816300176621626 -0.027717918281735855 0.17208619816749518
0.612166720323977 0.07551199114761714 0.2195626686220063
0.6206247650717565 0.01362066009732512 0.29092349776957604
0.6836524006861611 0.08767601386484146 0.3192285663997841
0.8816300176621626 -0.027717918281735855 0.17208619816749518
0.8121667203239769 0.07551199114761714 0.2195626686220063
0.8206247650717565 0.01362066009732512 0.29092349776957604
0.8836524006861611 0.08767601386484146 0.3192285663997841
0.08163001766216259 0.17228208171826417 0.17208619816749518
0.012166720323976919 0.27551199114761715 0.2195626686220063
0.020624765071756437 0.21362066009732514 0.29092349776957604
0.083652400686161 0.2876760138648415 0.3192285663997841
0.2816300176621626 0.17228208171826417 0.17208619816749518
0.2121667203239769 0.27551199114761715 0.2195626686220063
0.22062476507175646 0.21362066009732514 0.29092349776957604
0.283652400686161 0.2876760138648415 0.3192285663997841
0.4816300176621626 0.17228208171826417 0.17208619816749518
0.41216672032397694 0.27551199114761715 0.2195626686220063
0.4206247650717565 0.21362066009732514 0.29092349776957604
0.483652400686161 0.2876760138648415 0.3192285663997841
0.6816300176621626 0.17228208171826417 0.17208619816749518
0.612166720323977 0.27551199114761715 0.2195626686220063
0.6206247650717565 0.21362066009732514 0.29092349776957604
0.6836524006861611 0.2876760138648415 0.3192285663997841
0.8816300176621626 0.17228208171826417 0.17208619816749518
0.8121667203239769 0.27551199114761715 0.2195626686220063
0.8206247650717565 0.21362066009732514 0.29092349776957604
0.8836524006861611 0.2876760138648415 0.3192285663997841
0.08163001766216259 0.37228208171826416 0.17208619816749518
0.012166720323976919 0.47551199114761716 0.2195626686220063
0.020624765071756437 0.4136206600973251 0.29092349776957604
0.083652400686161 0.4876760138648415 0.3192285663997841
0.2816300176621626 0.37228208171826416 0.17208619816749518
0.2121667203239769 0.47551199114761716 0.2195626686220063
0.22062476507175646 0.4136206600973251 0.29092349776957604
0.283652400686161 0.4876760138648415 0.3192285663997841
0.4816300176621626 0.37228208171826416 0.17208619816749518
0.41216672032397694 0.47551199114761716 0.2195626686220063
0.4206247650717565 0.4136206600973251 0.29092349776957604
0.483652400686161 0.4876760138648415 0.3192285663997841
0.6816300176621626 0.37228208171826416 0.17208619816749518
0.612166720323977 0.47551199114761716 0.2195626686220063
0.6206247650717565 0.4136206600973251 0.29092349776957604
0.6836524006861611 0.4876760138648415 0.3192285663997841
0.8816300176621626 0.37228208171826416 0.17208619816749518
0.8121667203239769 0.47551199114761716 0.2195626686220063
0.8206247650717565 0.4136206600973251 0.29092349776957604
0.8836524006861611 0.4876760138648415 0.3192285663997841
0.08163001766216259 0.5722820817182641 0.17208619816749518
0.012166720323976919 0.6755119911476172 0.2195626686220063
0.020624765071756437 0.6136206600973252 0.29092349776957604
0.083652400686161 0.6876760138648415 0.3192285663997841
0.2816300176621626 0.5722820817182641 0.17208619816749518
0.2121667203239769 0.6755119911476172 0.2195626686220063
0.22062476507175646 0.6136206600973252 0.29092349776957604
0.283652400686161 0.6876760138648415 0.3192285663997841
0.4816300176621626 0.5722820817182641 0.17208619816749518
0.41216672032397694 0.6755119911476172 0.2195626686220063
0.4206247650717565 0.6136206600973252 0.29092349776957604
0.483652400686161 0.6876760138648415 0.3192285663997841
0.6816300176621626 0.5722820817182641 0.17208619816749518
0.612166720323977 0.6755119911476172 0.2195626686220063
0.6206247650717565 0.6136206600973252 0.29092349776957604
0.6836524006861611 0.6876760138648415 0.3192285663997841
0.8816300176621626 0.5722820817182641 0.17208619816749518
0.8121667203239769 0.6755119911476172 0.2195626686220063
0.8206247650717565 0.6136206600973252 0.29092349776957604
0.8836524006861611 0.6876760138648415 0.3192285663997841
0.08163001766216259 0.7722820817182642 0.17208619816749518
0.012166720323976919 0.8755119911476172 0.2195626686220063
0.020624765071756437 0.8136206600973251 0.29092349776957604
0.083652400686161 0.8876760138648415 0.3192285663997841
0.2816300176621626 0.7722820817182642 0.17208619816749518
0.2121667203239769 0.8755119911476172 0.2195626686220063
0.22062476507175646 0.8136206600973251 0.29092349776957604
0.283652400686161 0.8876760138648415 0.3192285663997841
0.4816300176621626 0.7722820817182642 0.17208619816749518
0.41216672032397694 0.8755119911476172 0.2195626686220063
0.4206247650717565 0.8136206600973251 0.29092349776957604
0.483652400686161 0.8876760138648415 0.3192285663997841
0.6816300176621626 0.7722820817182642 0.17208619816749518
0.612166720323977 0.8755119911476172 0.2195626686220063
0.6206247650717565 0.8136206600973251 0.29092349776957604
0.6836524006861611 0.8876760138648415 0.3192285663997841
0.8816300176621626 0.7722820817182642 0.17208619816749518
0.8121667203239769 0.8755119911476172 0.2195626686220063
0.8206247650717565 0.8136206600973251 0.29092349776957604
0.8836524006861611 0.8876760138648415 0.3192285663997841
0.08163001766216259 -0.027717918281735855 0.3720861981674952
0.012166720323976919 0.07551199114761714 0.4195626686220063
0.020624765071756437 0.01362066009732512 0.49092349776957606
0.083652400686161 0.08767601386484146 0.5192285663997841
0.2816300176621626 -0.027717918281735855 0.3720861981674952
0.2121667203239769 0.07551199114761714 0.4195626686220063
0.22062476507175646 0.01362066009732512 0.49092349776957606
0.283652400686161 0.08767601386484146 0.5192285663997841
0.4816300176621626 -0.027717918281735855 0.3720861981674952
0.41216672032397694 0.07551199114761714 0.4195626686220063
0.4206247650717565 0.01362066009732512 0.49092349776957606
0.483652400686161 0.08767601386484146 0.5192285663997841
0.6816300176621626 -0.027717918281735855 0.3720861981674952
0.612166720323977 0.07551199114761714 0.4195626686220063
0.6206247650717565 0.01362066009732512 0.49092349776957606
0.6836524006861611 0.08767601386484146 0.5192285663997841
0.8816300176621626 -0.027717918281735855 0.3720861981674952
0.8121667203239769 0.07551199114761714 0.4195626686220063
0.8206247650717565 0.01362066009732512 0.49092349776957606
0.8836524006861611 0.08767601386484146 0.5192285663997841
0.08163001766216259 0.17228208171826417 0.3720861981674952
0.012166720323976919 0.27551199114761715 0.4195626686220063
0.020624765071756437 0.21362066009732514 0.49092349776957606
0.083652400686161 0.2876760138648415 0.5192285663997841
0.2816300176621626 0.17228208171826417 0.3720861981674952
0.2121667203239769 0.27551199114761715 0.4195626686220063
0.22062476507175646 0.21362066009732514 0.49092349776957606
0.283652400686161 0.2876760138648415 0.5192285663997841
0.4816300176621626 0.17228208171826417 0.3720861981674952
0.41216672032397694 0.27551199114761715 0.4195626686220063
0.4206247650717565 0.21362066009732514 0.49092349776957606
0.483652400686161 0.2876760138648415 0.5192285663997841
0.6816300176621626 0.17228208171826417 0.3720861981674952
0.612166720323977 0.27551199114761715 0.4195626686220063
0.6206247650717565 0.21362066009732514 0.49092349776957606
0.6836524006861611 0.2876760138648415 0.5192285663997841
0.8816300176621626 0.17228208171826417 0.3720861981674952
0.8121667203239769 0.27551199114761715 0.4195626686220063
0.8206247650717565 0.21362066009732514 0.49092349776957606
0.8836524006861611 0.2876760138648415 0.5192285663997841
0.08163001766216259 0.37228208171826416 0.3720861981674952
0.012166720323976919 0.47551199114761716 0.4195626686220063
0.020624765071756437 0.4136206600973251 0.49092349776957606
0.083652400686161 0.4876760138648415 0.5192285663997841
0.2816300176621626 0.37228208171826416 0.3720861981674952
0.2121667203239769 0.47551199114761716 0.4195626686220063
0.22062476507175646 0.4136206600973251 0.49092349776957606
0.283652400686161 0.4876760138648415 0.5192285663997841
0.4816300176621626 0.37228208171826416 0.3720861981674952
0.41216672032397694 0.47551199114761716 0.4195626686220063
0.4206247650717565 0.4136206600973251 0.49092349776957606
0.483652400686161 0.4876760138648415 0.5192285663997841
0.6816300176621626 0.37228208171826416 0.3720861981674952
0.612166720323977 0.47551199114761716 0.4195626686220063
0.6206247650717565 0.4136206600973251 0.49092349776957606
0.6836524006861611 0.4876760138648415 0.5192285663997841
0.8816300176621626 0.37228208171826416 0.3720861981674952
0.8121667203239769 0.47551199114761716 0.4195626686220063
0.8206247650717565 0.4136206600973251 0.49092349776957606
0.8836524006861611 0.4876760138648415 0.5192285663997841
0.08163001766216259 0.5722820817182641 0.3720861981674952
0.012166720323976919 0.6755119911476172 0.4195626686220063
0.020624765071756437 0.6136206600973252 0.49092349776957606
0.083652400686161 0.6876760138648415 0.5192285663997841
0.2816300176621626 0.5722820817182641 0.3720861981674952
0.2121667203239769 0.6755119911476172 0.4195626686220063
0.22062476507175646 0.6136206600973252 0.49092349776957606
0.283652400686161 0.6876760138648415 0.5192285663997841
0.4816300176621626 0.5722820817182641 0.3720861981674952
0.41216672032397694 0.6755119911476172 0.4195626686220063
0.4206247650717565 0.6136206600973252 0.49092349776957606
0.483652400686161 0.6876760138648415 0.5192285663997841
0.6816300176621626 0.5722820817182641 0.3720861981674952
0.612166720323977 0.6755119911476172 0.4195626686220063
0.6206247650717565 0.6136206600973252 0.49092349776957606
0.6836524006861611 0.6876760138648415 0.5192285663997841
0.8816300176621626 0.5722820817182641 0.3720861981674952
0.8121667203239769 0.6755119911476172 0.4195626686220063
0.8206247650717565 0.6136206600973252 0.49092349776957606
0.8836524006861611 0.6876760138648415 0.5192285663997841
0.08163001766216259 0.7722820817182642 0.3720861981674952
0.012166720323976919 0.8755119911476172 0.4195626686220063
0.020624765071756437 0.8136206600973251 0.49092349776957606
0.083652400686161 0.8876760138648415 0.5192285663997841
0.2816300176621626 0.7722820817182642 0.3720861981674952
0.2121667203239769 0.8755119911476172 0.4195626686220063
0.22062476507175646 0.8136206600973251 0.49092349776957606
0.283652400686161 0.8876760138648415 0.5192285663997841
0.4816300176621626 0.7722820817182642 0.3720861981674952
0.41216672032397694 0.8755119911476172 0.4195626686220063
0.4206247650717565 0.8136206600973251 0.49092349776957606
0.483652400686161 0.8876760138648415 0.5192285663997841
0.6816300176621626 0.7722820817182642 0.3720861981674952
0.612166720323977 0.8755119911476172 0.4195626686220063
0.6206247650717565 0.8136206600973251 0.49092349776957606
0.6836524006861611 0.8876760138648415 0.5192285663997841
0.8816300176621626 0.7722820817182642 0.3720861981674952
0.8121667203239769 0.8755119911476172 0.4195626686220063
0.8206247650717565 0.8136206600973251 0.49092349776957606
0.8836524006861611 0.8876760138648415 0.5192285663997841
0.08163001766216259 -0.027717918281735855 0.5720861981674953
0.012166720323976919 0.07551199114761714 0.6195626686220064
0.020624765071756437 0.01362066009732512 0.6909234977695761
0.083652400686161 0.08767601386484146 0.7192285663997842
0.2816300176621626 -0.027717918281735855 0.5720861981674953
0.2121667203239769 0.07551199114761714 0.6195626686220064
0.22062476507175646 0.01362066009732512 0.6909234977695761
0.283652400686161 0.08767601386484146 0.7192285663997842
0.4816300176621626 -0.027717918281735855 0.5720861981674953
0.41216672032397694 0.07551199114761714 0.6195626686220064
0.4206247650717565 0.01362066009732512 0.6909234977695761
0.483652400686161 0.08767601386484146 0.7192285663997842
0.6816300176621626 -0.027717918281735855 0.5720861981674953
0.612166720323977 0.07551199114761714 0.6195626686220064
0.6206247650717565 0.01362066009732512 0.6909234977695761
0.6836524006861611 0.08767601386484146 0.7192285663997842
0.8816300176621626 -0.027717918281735855 0.5720861981674953
0.8121667203239769 0.07551199114761714 0.6195626686220064
0.8206247650717565 0.01362066009732512 0.6909234977695761
0.8836524006861611 0.08767601386484146 0.7192285663997842
0.08163001766216259 0.17228208171826417 0.5720861981674953
0.012166720323976919 0.27551199114761715 0.6195626686220064
0.020624765071756437 0.21362066009732514 0.6909234977695761
0.083652400686161 0.2876760138648415 0.7192285663997842
0.2816300176621626 0.17228208171826417 0.5720861981674953
0.2121667203239769 0.27551199114761715 0.6195626686220064
0.22062476507175646 0.21362066009732514 0.6909234977695761
0.283652400686161 0.2876760138648415 0.7192285663997842
0.4816300176621626 0.17228208171826417 0.5720861981674953
0.41216672032397694 0.27551199114761715 0.6195626686220064
0.4206247650717565 0.21362066009732514 0.6909234977695761
0.483652400686161 0.2876760138648415 0.7192285663997842
0.6816300176621626 0.17228208171826417 0.5720861981674953
0.612166720323977 0.27551199114761715 0.6195626686220064
0.6206247650717565 0.21362066009732514 0.6909234977695761
0.6836524006861611 0.2876760138648415 0.7192285663997842
0.8816300176621626 0.17228208171826417 0.5720861981674953
0.8121667203239769 0.27551199114761715 0.6195626686220064
0.8206247650717565 0.21362066009732514 0.6909234977695761
0.8836524006861611 0.2876760138648415 0.7192285663997842
0.08163001766216259 0.37228208171826416 0.5720861981674953
0.012166720323976919 0.47551199114761716 0.6195626686220064
0.020624765071756437 0.4136206600973251 0.6909234977695761
0.083652400686161 0.4876760138648415 0.7192285663997842
0.2816300176621626 0.37228208171826416 0.5720861981674953
0.2121667203239769 0.47551199114761716 0.6195626686220064
0.22062476507175646 0.4136206600973251 0.6909234977695761
0.283652400686161 0.4876760138648415 0.7192285663997842
0.4816300176621626 0.37228208171826416 0.5720861981674953
0.41216672032397694 0.47551199114761716 0.6195626686220064
0.4206247650717565 0.4136206600973251 0.6909234977695761
0.483652400686161 0.4876760138648415 0.7192285663997842
0.6816300176621626 0.37228208171826416 0.5720861981674953
0.612166720323977 0.47551199114761716 0.6195626686220064
0.6206247650717565 0.4136206600973251 0.6909234977695761
0.6836524006861611 0.4876760138648415 0.7192285663997842
0.8816300176621626 0.37228208171826416 0.5720861981674953
0.8121667203239769 0.47551199114761716 0.6195626686220064
0.8206247650717565 0.4136206600973251 0.6909234977695761
0.8836524006861611 0.4876760138648415 0.7192285663997842
0.08163001766216259 0.5722820817182641 0.5720861981674953
0.012166720323976919 0.6755119911476172 0.6195626686220064
0.020624765071756437 0.6136206600973252 0.6909234977695761
0.083652400686161 0.6876760138648415 0.7192285663997842
0.2816300176621626 0.5722820817182641 0.5720861981674953
0.2121667203239769 0.6755119911476172 0.6195626686220064
0.22062476507175646 0.6136206600973252 0.6909234977695761
0.283652400686161 0.6876760138648415 0.7192285663997842
0.4816300176621626 0.5722820817182641 0.5720861981674953
0.41216672032397694 0.6755119911476172 0.6195626686220064
0.4206247650717565 0.6136206600973252 0.6909234977695761
0.483652400686161 0.6876760138648415 0.7192285663997842
0.6816300176621626 0.5722820817182641 0.5720861981674953
0.612166720323977 0.6755119911476172 0.6195626686220064
0.6206247650717565 0.6136206600973252 0.6909234977695761
0.6836524006861611 0.6876760138648415 0.7192285663997842
0.8816300176621626 0.5722820817182641 0.5720861981674953
0.8121667203239769 0.6755119911476172 0.6195626686220064
0.8206247650717565 0.6136206600973252 0.6909234977695761
0.8836524006861611 0.6876760138648415 0.7192285663997842
0.08163001766216259 0.7722820817182642 0.5720861981674953
0.012166720323976919 0.8755119911476172 0.6195626686220064
0.020624765071756437 0.8136206600973251 0.6909234977695761
0.083652400686161 0.8876760138648415 0.7192285663997842
0.2816300176621626 0.7722820817182642 0.5720861981674953
0.2121667203239769 0.8755119911476172 0.6195626686220064
0.22062476507175646 0.8136206600973251 0.6909234977695761
0.283652400686161 0.8876760138648415 0.7192285663997842
0.4816300176621626 0.7722820817182642 0.5720861981674953
0.41216672032397694 0.8755119911476172 0.6195626686220064
0.4206247650717565 0.8136206600973251 0.6909234977695761
0.483652400686161 0.8876760138648415 0.7192285663997842
0.6816300176621626 0.7722820817182642 0.5720861981674953
0.612166720323977 0.8755119911476172 0.6195626686220064
0.6206247650717565 0.8136206600973251 0.6909234977695761
0.6836524006861611 0.8876760138648415 0.7192285663997842
0.8816300176621626 0.7722820817182642 0.5720861981674953
0.8121667203239769 0.8755119911476172 0.6195626686220064
0.8206247650717565 0.8136206600973251 0.6909234977695761
0.8836524006861611 0.8876760138648415 0.7192285663997842
0.08163001766216259 -0.027717918281735855 0.7720861981674952
0.012166720323976919 0.07551199114761714 0.8195626686220063
0.020624765071756437 0.01362066009732512 0.8909234977695761
0.083652400686161 0.08767601386484146 0.919228566399784
0.2816300176621626 -0.027717918281735855 0.7720861981674952
0.2121667203239769 0.07551199114761714 0.8195626686220063
0.22062476507175646 0.01362066009732512 0.8909234977695761
0.283652400686161 0.08767601386484146 0.919228566399784
0.4816300176621626 -0.027717918281735855 0.7720861981674952
0.41216672032397694 0.07551199114761714 0.8195626686220063
0.4206247650717565 0.01362066009732512 0.8909234977695761
0.483652400686161 0.08767601386484146 0.919228566399784
0.6816300176621626 -0.027717918281735855 0.7720861981674952
0.612166720323977 0.07551199114761714 0.8195626686220063
0.6206247650717565 0.01362066009732512 0.8909234977695761
0.6836524006861611 0.08767601386484146 0.919228566399784
0.8816300176621626 -0.027717918281735855 0.7720861981674952
0.8121667203239769 0.07551199114761714 0.8195626686220063
0.8206247650717565 0.01362066009732512 0.8909234977695761
0.8836524006861611 0.08767601386484146 0.919228566399784
0.08163001766216259 0.17228208171826417 0.7720861981674952
0.012166720323976919 0.27551199114761715 0.8195626686220063
0.020624765071756437 0.21362066009732514 0.8909234977695761
0.083652400686161 0.2876760138648415 0.919228566399784
0.2816300176621626 0.17228208171826417 0.7720861981674952
0.2121667203239769 0.27551199114761715 0.8195626686220063
0.22062476507175646 0.21362066009732514 0.8909234977695761
0.283652400686161 0.2876760138648415 0.919228566399784
0.4816300176621626 0.17228208171826417 0.7720861981674952
0.41216672032397694 0.27551199114761715 0.8195626686220063
0.4206247650717565 0.21362066009732514 0.8909234977695761
0.483652400686161 0.2876760138648415 0.919228566399784
0.6816300176621626 0.17228208171826417 0.7720861981674952
0.612166720323977 0.27551199114761715 0.8195626686220063
0.6206247650717565 0.21362066009732514 0.8909234977695761
0.6836524006861611 0.2876760138648415 0.919228566399784
0.8816300176621626 0.17228208171826417 0.7720861981674952
0.8121667203239769 0.27551199114761715 0.8195626686220063
0.8206247650717565 0.21362066009732514 0.8909234977695761
0.8836524006861611 0.2876760138648415 0.919228566399784
0.08163001766216259 0.37228208171826416 0.7720861981674952
0.012166720323976919 0.47551199114761716 0.8195626686220063
0.020624765071756437 0.4136206600973251 0.8909234977695761
0.083652400686161 0.4876760138648415 0.919228566399784
0.2816300176621626 0.37228208171826416 0.7720861981674952
0.2121667203239769 0.47551199114761716 0.8195626686220063
0.22062476507175646 0.4136206600973251 0.8909234977695761
0.283652400686161 0.4876760138648415 0.919228566399784
0.4816300176621626 0.37228208171826416 0.7720861981674952
0.41216672032397694 0.47551199114761716 0.8195626686220063
0.4206247650717565 0.4136206600973251 0.8909234977695761
0.483652400686161 0.4876760138648415 0.919228566399784
0.6816300176621626 0.37228208171826416 0.7720861981674952
0.612166720323977 0.47551199114761716 0.8195626686220063
0.6206247650717565 0.4136206600973251 0.8909234977695761
0.6836524006861611 0.4876760138648415 0.919228566399784
0.8816300176621626 0.37228208171826416 0.7720861981674952
0.8121667203239769 0.47551199114761716 0.8195626686220063
0.8206247650717565 0.4136206600973251 0.8909234977695761
0.8836524006861611 0.4876760138648415 0.919228566399784
0.08163001766216259 0.5722820817182641 0.7720861981674952
0.012166720323976919 0.6755119911476172 0.8195626686220063
0.020624765071756437 0.6136206600973252 0.8909234977695761
0.083652400686161 0.6876760138648415 0.919228566399784
0.2816300176621626 0.5722820817182641 0.7720861981674952
0.2121667203239769 0.6755119911476172 0.8195626686220063
0.22062476507175646 0.6136206600973252 0.8909234977695761
0.283652400686161 0.6876760138648415 0.919228566399784
0.4816300176621626 0.5722820817182641 0.7720861981674952
0.41216672032397694 0.6755119911476172 0.8195626686220063
0.4206247650717565 0.6136206600973252 0.8909234977695761
0.483652400686161 0.6876760138648415 0.919228566399784
0.6816300176621626 0.5722820817182641 0.7720861981674952
0.612166720323977 0.6755119911476172 0.8195626686220063
0.6206247650717565 0.6136206600973252 0.8909234977695761
0.6836524006861611 0.6876760138648415 0.919228566399784
0.8816300176621626 0.5722820817182641 0.7720861981674952
0.8121667203239769 0.6755119911476172 0.8195626686220063
0.8206247650717565 0.6136206600973252 0.8909234977695761
0.8836524006861611 0.6876760138648415 0.919228566399784
0.08163001766216259 0.7722820817182642 0.7720861981674952
0.012166720323976919 0.8755119911476172 0.8195626686220063
0.020624765071756437 0.8136206600973251 0.8909234977695761
0.083652400686161 0.8876760138648415 0.919228566399784
0.2816300176621626 0.7722820817182642 0.7720861981674952
0.2121667203239769 0.8755119911476172 0.8195626686220063
0.22062476507175646 0.8136206600973251 0.8909234977695761
0.283652400686161 0.8876760138648415 0.919228566399784
0.4816300176621626 0.7722820817182642 0.7720861981674952
0.41216672032397694 0.8755119911476172 0.8195626686220063
0.4206247650717565 0.8136206600973251 0.8909234977695761
0.483652400686161 0.8876760138648415 0.919228566399784
0.6816300176621626 0.7722820817182642 0.7720861981674952
0.612166720323977 0.8755119911476172 0.8195626686220063
0.6206247650717565 0.8136206600973251 0.8909234977695761
0.6836524006861611 0.8876760138648415 0.919228566399784
0.8816300176621626 0.7722820817182642 0.7720861981674952
0.8121667203239769 0.8755119911476172 0.8195626686220063
0.8206247650717565 0.8136206600973251 0.8909234977695761
0.8836524006861611 0.8876760138648415 0.919228566399784
