FCC BaO
5.61604
3.0 0.0 0.0
0.0 3.0 0.0
0.0 0.0 3.0
Ba O 
108 108 
Direct
0.16428905997947155 0.1310765495264033 0.4963265962335992
-0.4367396835947379 -1.0520511044942404 -0.3367213350666796
0.8747071932290442 -0.5072918062993765 0.09727397740883337
0.23506388509324153 0.22897102183127038 -0.9188059247582401
0.4976223933128049 0.1310765495264033 0.4963265962335992
-0.10340635026140457 -1.0520511044942404 -0.3367213350666796
1.2080405265623775 -0.5072918062993765 0.09727397740883337
0.5683972184265749 0.22897102183127038 -0.9188059247582401
0.8309557266461383 0.1310765495264033 0.4963265962335992
0.22992698307192874 -1.0520511044942404 -0.3367213350666796
1.5413738598957107 -0.5072918062993765 0.09727397740883337
0.9017305517599082 0.22897102183127038 -0.9188059247582401
0.16428905997947155 0.4644098828597366 0.4963265962335992
-0.4367396835947379 -0.7187177711609071 -0.3367213350666796
0.8747071932290442 -0.1739584729660432 0.09727397740883337
0.23506388509324153 0.5623043551646036 -0.9188059247582401
0.4976223933128049 0.4644098828597366 0.4963265962335992
-0.10340635026140457 -0.7187177711609071 -0.3367213350666796
1.2080405265623775 -0.1739584729660432 0.09727397740883337
0.5683972184265749 0.5623043551646036 -0.9188059247582401
0.8309557266461383 0.4644098828597366 0.4963265962335992
0.22992698307192874 -0.7187177711609071 -0.3367213350666796
1.5413738598957107 -0.1739584729660432 0.09727397740883337
0.9017305517599082 0.5623043551646036 -0.9188059247582401
0.16428905997947155 0.7977432161930699 0.4963265962335992
-0.4367396835947379 -0.38538443782757376 -0.3367213350666796
0.8747071932290442 0.15937486036729012 0.09727397740883337
0.23506388509324153 0.8956376884979369 -0.9188059247582401
0.4976223933128049 0.7977432161930699 0.4963265962335992
-0.10340635026140457 -0.38538443782757376 -0.3367213350666796
1.2080405265623775 0.15937486036729012 0.09727397740883337
0.5683972184265749 0.8956376884979369 -0.9188059247582401
0.8309557266461383 0.7977432161930699 0.4963265962335992
0.22992698307192874 -0.38538443782757376 -0.3367213350666796
1.5413738598957107 0.15937486036729012 0.09727397740883337
0.9017305517599082 0.8956376884979369 -0.9188059247582401
0.16428905997947155 0.1310765495264033 0.8296599295669325
-0.4367396835947379 -1.0520511044942404 -0.003388001733346302
0.8747071932290442 -0.5072918062993765 0.4306073107421667
0.23506388509324153 0.22897102183127038 -0.5854725914249067
0.4976223933128049 0.1310765495264033 0.8296599295669325
-0.10340635026140457 -1.0520511044942404 -0.003388001733346302
1.2080405265623775 -0.5072918062993765 0.4306073107421667
0.5683972184265749 0.22897102183127038 -0.5854725914249067
0.8309557266461383 0.1310765495264033 0.8296599295669325
0.22992698307192874 -1.0520511044942404 -0.003388001733346302
1.5413738598957107 -0.5072918062993765 0.4306073107421667
0.9017305517599082 0.22897102183127038 -0.5854725914249067
0.16428905997947155 0.4644098828597366 0.8296599295669325
-0.4367396835947379 -0.7187177711609071 -0.003388001733346302
0.8747071932290442 -0.1739584729660432 0.4306073107421667
0.23506388509324153 0.5623043551646036 -0.5854725914249067
0.4976223933128049 0.4644098828597366 0.8296599295669325
-0.10340635026140457 -0.7187177711609071 -0.003388001733346302
1.2080405265623775 -0.1739584729660432 0.4306073107421667
0.5683972184265749 0.5623043551646036 -0.5854725914249067
0.8309557266461383 0.4644098828597366 0.8296599295669325
0.22992698307192874 -0.7187177711609071 -0.003388001733346302
1.5413738598957107 -0.1739584729660432 0.4306073107421667
0.9017305517599082 0.5623043551646036 -0.5854725914249067
0.16428905997947155 0.7977432161930699 0.8296599295669325
-0.4367396835947379 -0.38538443782757376 -0.003388001733346302
0.8747071932290442 0.15937486036729012 0.4306073107421667
0.23506388509324153 0.8956376884979369 -0.5854725914249067
0.4976223933128049 0.7977432161930699 0.8296599295669325
-0.10340635026140457 -0.38538443782757376 -0.003388001733346302
1.2080405265623775 0.15937486036729012 0.4306073107421667
0.5683972184265749 0.8956376884979369 -0.5854725914249067
0.8309557266461383 0.7977432161930699 0.8296599295669325
0.22992698307192874 -0.38538443782757376 -0.003388001733346302
1.5413738598957107 0.15937486036729012 0.4306073107421667
0.9017305517599082 0.8956376884979369 -0.5854725914249067
0.16428905997947155 0.1310765495264033 1.1629932629002657
-0.4367396835947379 -1.0520511044942404 0.329945331599987
0.8747071932290442 -0.5072918062993765 0.7639406440755
0.23506388509324153 0.22897102183127038 -0.2521392580915734
0.4976223933128049 0.1310765495264033 1.1629932629002657
-0.10340635026140457 -1.0520511044942404 0.329945331599987
1.2080405265623775 -0.5072918062993765 0.7639406440755
0.5683972184265749 0.22897102183127038 -0.2521392580915734
0.8309557266461383 0.1310765495264033 1.1629932629002657
0.22992698307192874 -1.0520511044942404 0.329945331599987
1.5413738598957107 -0.5072918062993765 0.7639406440755
0.9017305517599082 0.22897102183127038 -0.2521392580915734
0.16428905997947155 0.4644098828597366 1.1629932629002657
-0.4367396835947379 -0.7187177711609071 0.329945331599987
0.8747071932290442 -0.1739584729660432 0.7639406440755
0.23506388509324153 0.5623043551646036 -0.2521392580915734
0.4976223933128049 0.4644098828597366 1.1629932629002657
-0.10340635026140457 -0.7187177711609071 0.329945331599987
1.2080405265623775 -0.1739584729660432 0.7639406440755
0.5683972184265749 0.5623043551646036 -0.2521392580915734
0.8309557266461383 0.4644098828597366 1.1629932629002657
0.22992698307192874 -0.7187177711609071 0.329945331599987
1.5413738598957107 -0.1739584729660432 0.7639406440755
0.9017305517599082 0.5623043551646036 -0.2521392580915734
0.16428905997947155 0.7977432161930699 1.1629932629002657
-0.4367396835947379 -0.38538443782757376 0.329945331599987
0.8747071932290442 0.15937486036729012 0.7639406440755
0.23506388509324153 0.8956376884979369 -0.2521392580915734
0.4976223933128049 0.7977432161930699 1.1629932629002657
-0.10340635026140457 -0.38538443782757376 0.329945331599987
1.2080405265623775 0.15937486036729012 0.7639406440755
0.5683972184265749 0.8956376884979369 -0.2521392580915734
0.8309557266461383 0.7977432161930699 1.1629932629002657
0.22992698307192874 -0.38538443782757376 0.329945331599987
1.5413738598957107 0.15937486036729012 0.7639406440755
0.9017305517599082 0.8956376884979369 -0.2521392580915734
-0.3499767679335306 -0.5471673291792062 0.10361417048799566
-0.22015806464766452 -0.7962001314768543 -0.03951051652835117
0.46182891692642564 -0.3019053993691099 -0.16559153712636532
0.4707857498696633 0.8158294309132273 0.3572033137893935
-0.016643434600197272 -0.5471673291792062 0.10361417048799566
0.11317526868566881 -0.7962001314768543 -0.03951051652835117
0.7951622502597591 -0.3019053993691099 -0.16559153712636532
0.8041190832029966 0.8158294309132273 0.3572033137893935
0.316689898733136 -0.5471673291792062 0.10361417048799566
0.44650860201900217 -0.7962001314768543 -0.03951051652835117
1.1284955835930923 -0.3019053993691099 -0.16559153712636532
1.13745241653633 0.8158294309132273 0.3572033137893935
-0.3499767679335306 -0.21383399584587287 0.10361417048799566
-0.22015806464766452 -0.46286679814352105 -0.03951051652835117
0.46182891692642564 0.03142793396422342 -0.16559153712636532
0.4707857498696633 1.1491627642465607 0.3572033137893935
-0.016643434600197272 -0.21383399584587287 0.10361417048799566
0.11317526868566881 -0.46286679814352105 -0.03951051652835117
0.7951622502597591 0.03142793396422342 -0.16559153712636532
0.8041190832029966 1.1491627642465607 0.3572033137893935
0.316689898733136 -0.21383399584587287 0.10361417048799566
0.44650860201900217 -0.46286679814352105 -0.03951051652835117
1.1284955835930923 0.03142793396422342 -0.16559153712636532
1.13745241653633 1.1491627642465607 0.3572033137893935
-0.3499767679335306 0.11949933748746044 0.10361417048799566
-0.22015806464766452 -0.1295334648101877 -0.03951051652835117
0.46182891692642564 0.36476126729755676 -0.16559153712636532
0.4707857498696633 1.482496097579894 0.3572033137893935
-0.016643434600197272 0.11949933748746044 0.10361417048799566
0.11317526868566881 -0.1295334648101877 -0.03951051652835117
0.7951622502597591 0.36476126729755676 -0.16559153712636532
0.8041190832029966 1.482496097579894 0.3572033137893935
0.316689898733136 0.11949933748746044 0.10361417048799566
0.44650860201900217 -0.1295334648101877 -0.03951051652835117
1.1284955835930923 0.36476126729755676 -0.16559153712636532
1.13745241653633 1.482496097579894 0.3572033137893935
-0.3499767679335306 -0.5471673291792062 0.43694750382132896
-0.22015806464766452 -0.7962001314768543 0.2938228168049821
0.46182891692642564 -0.3019053993691099 0.16774179620696797
0.4707857498696633 0.8158294309132273 0.6905366471227268
-0.016643434600197272 -0.5471673291792062 0.43694750382132896
0.11317526868566881 -0.7962001314768543 0.2938228168049821
0.7951622502597591 -0.3019053993691099 0.16774179620696797
0.8041190832029966 0.8158294309132273 0.6905366471227268
0.316689898733136 -0.5471673291792062 0.43694750382132896
0.44650860201900217 -0.7962001314768543 0.2938228168049821
1.1284955835930923 -0.3019053993691099 0.16774179620696797
1.13745241653633 0.8158294309132273 0.6905366471227268
-0.3499767679335306 -0.21383399584587287 0.43694750382132896
-0.22015806464766452 -0.46286679814352105 0.2938228168049821
0.46182891692642564 0.03142793396422342 0.16774179620696797
0.4707857498696633 1.1491627642465607 0.6905366471227268
-0.016643434600197272 -0.21383399584587287 0.43694750382132896
0.11317526868566881 -0.46286679814352105 0.2938228168049821
0.7951622502597591 0.03142793396422342 0.16774179620696797
0.8041190832029966 1.1491627642465607 0.6905366471227268
0.316689898733136 -0.21383399584587287 0.43694750382132896
0.44650860201900217 -0.46286679814352105 0.2938228168049821
1.1284955835930923 0.03142793396422342 0.16774179620696797
1.13745241653633 1.1491627642465607 0.6905366471227268
-0.3499767679335306 0.11949933748746044 0.43694750382132896
-0.22015806464766452 -0.1295334648101877 0.2938228168049821
0.46182891692642564 0.36476126729755676 0.16774179620696797
0.4707857498696633 1.482496097579894 0.6905366471227268
-0.016643434600197272 0.11949933748746044 0.43694750382132896
0.11317526868566881 -0.1295334648101877 0.2938228168049821
0.7951622502597591 0.36476126729755676 0.16774179620696797
0.8041190832029966 1.482496097579894 0.6905366471227268
0.316689898733136 0.11949933748746044 0.43694750382132896
0.44650860201900217 -0.1295334648101877 0.2938228168049821
1.1284955835930923 0.36476126729755676 0.16774179620696797
1.13745241653633 1.482496097579894 0.6905366471227268
-0.3499767679335306 -0.5471673291792062 0.7702808371546622
-0.22015806464766452 -0.7962001314768543 0.6271561501383155
0.46182891692642564 -0.3019053993691099 0.5010751295403013
0.4707857498696633 0.8158294309132273 1.02386998045606
-0.016643434600197272 -0.5471673291792062 0.7702808371546622
0.11317526868566881 -0.7962001314768543 0.6271561501383155
0.7951622502597591 -0.3019053993691099 0.5010751295403013
0.8041190832029966 0.8158294309132273 1.02386998045606
0.316689898733136 -0.5471673291792062 0.7702808371546622
0.44650860201900217 -0.7962001314768543 0.6271561501383155
1.1284955835930923 -0.3019053993691099 0.5010751295403013
1.13745241653633 0.8158294309132273 1.02386998045606
-0.3499767679335306 -0.21383399584587287 0.7702808371546622
-0.22015806464766452 -0.46286679814352105 0.6271561501383155
0.46182891692642564 0.03142793396422342 0.5010751295403013
0.4707857498696633 1.1491627642465607 1.02386998045606
-0.016643434600197272 -0.21383399584587287 0.7702808371546622
0.11317526868566881 -0.46286679814352105 0.6271561501383155
0.7951622502597591 0.03142793396422342 0.5010751295403013
0.8041190832029966 1.1491627642465607 1.02386998045606
0.316689898733136 -0.21383399584587287 0.7702808371546622
0.44650860201900217 -0.46286679814352105 0.6271561501383155
1.1284955835930923 0.03142793396422342 0.5010751295403013
1.13745241653633 1.1491627642465607 1.02386998045606
-0.3499767679335306 0.11949933748746044 0.7702808371546622
-0.22015806464766452 -0.1295334648101877 0.6271561501383155
0.46182891692642564 0.36476126729755676 0.5010751295403013
0.4707857498696633 1.482496097579894 1.02386998045606
-0.016643434600197272 0.11949933748746044 0.7702808371546622
0.11317526868566881 -0.1295334648101877 0.6271561501383155
0.7951622502597591 0.36476126729755676 0.5010751295403013
0.8041190832029966 1.482496097579894 1.02386998045606
0.316689898733136 0.11949933748746044 0.7702808371546622
0.44650860201900217 -0.1295334648101877 0.6271561501383155
1.1284955835930923 0.36476126729755676 0.5010751295403013
1.13745241653633 1.482496097579894 1.02386998045606
