FCC BaO
5.61604
3.0 0.0 0.0
0.0 3.0 0.0
0.0 0.0 3.0
Ba O 
108 108 
Direct
-0.04540198560959067 0.013988233121835983 0.005503169804551529
-0.06282251120215418 0.14859089680375392 0.1520994105363473
0.1890354062868283 -0.004284403050869523 0.11551310072327144
0.10159898485839905 0.19184053272618243 0.02435418770102367
0.2879313477237426 0.013988233121835983 0.005503169804551529
0.27051082213117916 0.14859089680375392 0.1520994105363473
0.5223687396201616 -0.004284403050869523 0.11551310072327144
0.4349323181917324 0.19184053272618243 0.02435418770102367
0.6212646810570759 0.013988233121835983 0.005503169804551529
0.6038441554645124 0.14859089680375392 0.1520994105363473
0.855702072953495 -0.004284403050869523 0.11551310072327144
0.7682656515250657 0.19184053272618243 0.02435418770102367
-0.04540198560959067 0.34732156645516926 0.005503169804551529
-0.06282251120215418 0.48192423013708724 0.1520994105363473
0.1890354062868283 0.3290489302824638 0.11551310072327144
0.10159898485839905 0.5251738660595158 0.02435418770102367
0.2879313477237426 0.34732156645516926 0.005503169804551529
0.27051082213117916 0.48192423013708724 0.1520994105363473
0.5223687396201616 0.3290489302824638 0.11551310072327144
0.4349323181917324 0.5251738660595158 0.02435418770102367
0.6212646810570759 0.34732156645516926 0.005503169804551529
0.6038441554645124 0.48192423013708724 0.1520994105363473
0.855702072953495 0.3290489302824638 0.11551310072327144
0.7682656515250657 0.5251738660595158 0.02435418770102367
-0.04540198560959067 0.6806548997885026 0.005503169804551529
-0.06282251120215418 0.8152575634704206 0.1520994105363473
0.1890354062868283 0.6623822636157971 0.11551310072327144
0.10159898485839905 0.858507199392849 0.02435418770102367
0.2879313477237426 0.6806548997885026 0.005503169804551529
0.27051082213117916 0.8152575634704206 0.1520994105363473
0.5223687396201616 0.6623822636157971 0.11551310072327144
0.4349323181917324 0.858507199392849 0.02435418770102367
0.6212646810570759 0.6806548997885026 0.005503169804551529
0.6038441554645124 0.8152575634704206 0.1520994105363473
0.855702072953495 0.6623822636157971 0.11551310072327144
0.7682656515250657 0.858507199392849 0.02435418770102367
-0.04540198560959067 0.013988233121835983 0.3388365031378848
-0.06282251120215418 0.14859089680375392 0.48543274386968066
0.1890354062868283 -0.004284403050869523 0.4488464340566048
0.10159898485839905 0.19184053272618243 0.35768752103435697
0.2879313477237426 0.013988233121835983 0.3388365031378848
0.27051082213117916 0.14859089680375392 0.48543274386968066
0.5223687396201616 -0.004284403050869523 0.4488464340566048
0.4349323181917324 0.19184053272618243 0.35768752103435697
0.6212646810570759 0.013988233121835983 0.3388365031378848
0.6038441554645124 0.14859089680375392 0.48543274386968066
0.855702072953495 -0.004284403050869523 0.4488464340566048
0.7682656515250657 0.19184053272618243 0.35768752103435697
-0.04540198560959067 0.34732156645516926 0.3388365031378848
-0.06282251120215418 0.48192423013708724 0.48543274386968066
0.1890354062868283 0.3290489302824638 0.4488464340566048
0.10159898485839905 0.5251738660595158 0.35768752103435697
0.2879313477237426 0.34732156645516926 0.3388365031378848
0.27051082213117916 0.48192423013708724 0.48543274386968066
0.5223687396201616 0.3290489302824638 0.4488464340566048
0.4349323181917324 0.5251738660595158 0.35768752103435697
0.6212646810570759 0.34732156645516926 0.3388365031378848
0.6038441554645124 0.48192423013708724 0.48543274386968066
0.855702072953495 0.3290489302824638 0.4488464340566048
0.7682656515250657 0.5251738660595158 0.35768752103435697
-0.04540198560959067 0.6806548997885026 0.3388365031378848
-0.06282251120215418 0.8152575634704206 0.48543274386968066
0.1890354062868283 0.6623822636157971 0.4488464340566048
0.10159898485839905 0.858507199392849 0.35768752103435697
0.2879313477237426 0.6806548997885026 0.3388365031378848
0.27051082213117916 0.8152575634704206 0.48543274386968066
0.5223687396201616 0.6623822636157971 0.4488464340566048
0.4349323181917324 0.858507199392849 0.35768752103435697
0.6212646810570759 0.6806548997885026 0.3388365031378848
0.6038441554645124 0.8152575634704206 0.48543274386968066
0.855702072953495 0.6623822636157971 0.4488464340566048
0.7682656515250657 0.858507199392849 0.35768752103435697
-0.04540198560959067 0.013988233121835983 0.6721698364712181
-0.06282251120215418 0.14859089680375392 0.818766077203014
0.1890354062868283 -0.004284403050869523 0.7821797673899381
0.10159898485839905 0.19184053272618243 0.6910208543676903
0.2879313477237426 0.013988233121835983 0.6721698364712181
0.27051082213117916 0.14859089680375392 0.818766077203014
0.5223687396201616 -0.004284403050869523 0.7821797673899381
0.4349323181917324 0.19184053272618243 0.6910208543676903
0.6212646810570759 0.013988233121835983 0.6721698364712181
0.6038441554645124 0.14859089680375392 0.818766077203014
0.855702072953495 -0.004284403050869523 0.7821797673899381
0.7682656515250657 0.19184053272618243 0.6910208543676903
-0.04540198560959067 0.34732156645516926 0.6721698364712181
-0.06282251120215418 0.48192423013708724 0.818766077203014
0.1890354062868283 0.3290489302824638 0.7821797673899381
0.10159898485839905 0.5251738660595158 0.6910208543676903
0.2879313477237426 0.34732156645516926 0.6721698364712181
0.27051082213117916 0.48192423013708724 0.818766077203014
0.5223687396201616 0.3290489302824638 0.7821797673899381
0.4349323181917324 0.5251738660595158 0.6910208543676903
0.6212646810570759 0.34732156645516926 0.6721698364712181
0.6038441554645124 0.48192423013708724 0.818766077203014
0.855702072953495 0.3290489302824638 0.7821797673899381
0.7682656515250657 0.5251738660595158 0.6910208543676903
-0.04540198560959067 0.6806548997885026 0.6721698364712181
-0.06282251120215418 0.8152575634704206 0.818766077203014
0.1890354062868283 0.6623822636157971 0.7821797673899381
0.10159898485839905 0.858507199392849 0.6910208543676903
0.2879313477237426 0.6806548997885026 0.6721698364712181
0.27051082213117916 0.8152575634704206 0.818766077203014
0.5223687396201616 0.6623822636157971 0.7821797673899381
0.4349323181917324 0.858507199392849 0.6910208543676903
0.6212646810570759 0.6806548997885026 0.6721698364712181
0.6038441554645124 0.8152575634704206 0.818766077203014
0.855702072953495 0.6623822636157971 0.7821797673899381
0.7682656515250657 0.858507199392849 0.6910208543676903
0.12736794788083786 -0.017192772338492847 0.04616175270643995
0.05209117416271928 0.18590066866606786 -0.036467354305157684
-0.03515175269251565 0.009819200008392507 0.10755283565433485
0.1884610887044891 0.1697606866301582 0.14112085767020432
0.46070128121417114 -0.017192772338492847 0.04616175270643995
0.38542450749605256 0.18590066866606786 -0.036467354305157684
0.2981815806408177 0.009819200008392507 0.10755283565433485
0.5217944220378224 0.1697606866301582 0.14112085767020432
0.7940346145475045 -0.017192772338492847 0.04616175270643995
0.7187578408293859 0.18590066866606786 -0.036467354305157684
0.6315149139741509 0.009819200008392507 0.10755283565433485
0.8551277553711558 0.1697606866301582 0.14112085767020432
0.12736794788083786 0.31614056099484045 0.04616175270643995
0.05209117416271928 0.5192340019994012 -0.036467354305157684
-0.03515175269251565 0.34315253334172585 0.10755283565433485
0.1884610887044891 0.5030940199634915 0.14112085767020432
0.46070128121417114 0.31614056099484045 0.04616175270643995
0.38542450749605256 0.5192340019994012 -0.036467354305157684
0.2981815806408177 0.34315253334172585 0.10755283565433485
0.5217944220378224 0.5030940199634915 0.14112085767020432
0.7940346145475045 0.31614056099484045 0.04616175270643995
0.7187578408293859 0.5192340019994012 -0.036467354305157684
0.6315149139741509 0.34315253334172585 0.10755283565433485
0.8551277553711558 0.5030940199634915 0.14112085767020432
0.12736794788083786 0.6494738943281738 0.04616175270643995
0.05209117416271928 0.8525673353327345 -0.036467354305157684
-0.03515175269251565 0.676485866675059 0.10755283565433485
0.1884610887044891 0.8364273532968248 0.14112085767020432
0.46070128121417114 0.6494738943281738 0.04616175270643995
0.38542450749605256 0.8525673353327345 -0.036467354305157684
0.2981815806408177 0.676485866675059 0.10755283565433485
0.5217944220378224 0.8364273532968248 0.14112085767020432
0.7940346145475045 0.6494738943281738 0.04616175270643995
0.7187578408293859 0.8525673353327345 -0.036467354305157684
0.6315149139741509 0.676485866675059 0.10755283565433485
0.8551277553711558 0.8364273532968248 0.14112085767020432
0.12736794788083786 -0.017192772338492847 0.3794950860397733
0.05209117416271928 0.18590066866606786 0.29686597902817563
-0.03515175269251565 0.009819200008392507 0.4408861689876682
0.1884610887044891 0.1697606866301582 0.47445419100353764
0.46070128121417114 -0.017192772338492847 0.3794950860397733
0.38542450749605256 0.18590066866606786 0.29686597902817563
0.2981815806408177 0.009819200008392507 0.4408861689876682
0.5217944220378224 0.1697606866301582 0.47445419100353764
0.7940346145475045 -0.017192772338492847 0.3794950860397733
0.7187578408293859 0.18590066866606786 0.29686597902817563
0.6315149139741509 0.009819200008392507 0.4408861689876682
0.8551277553711558 0.1697606866301582 0.47445419100353764
0.12736794788083786 0.31614056099484045 0.3794950860397733
0.05209117416271928 0.5192340019994012 0.29686597902817563
-0.03515175269251565 0.34315253334172585 0.4408861689876682
0.1884610887044891 0.5030940199634915 0.47445419100353764
0.46070128121417114 0.31614056099484045 0.3794950860397733
0.38542450749605256 0.5192340019994012 0.29686597902817563
0.2981815806408177 0.34315253334172585 0.4408861689876682
0.5217944220378224 0.5030940199634915 0.47445419100353764
0.7940346145475045 0.31614056099484045 0.3794950860397733
0.7187578408293859 0.5192340019994012 0.29686597902817563
0.6315149139741509 0.34315253334172585 0.4408861689876682
0.8551277553711558 0.5030940199634915 0.47445419100353764
0.12736794788083786 0.6494738943281738 0.3794950860397733
0.05209117416271928 0.8525673353327345 0.29686597902817563
-0.03515175269251565 0.676485866675059 0.4408861689876682
0.1884610887044891 0.8364273532968248 0.47445419100353764
0.46070128121417114 0.6494738943281738 0.3794950860397733
0.38542450749605256 0.8525673353327345 0.29686597902817563
0.2981815806408177 0.676485866675059 0.4408861689876682
0.5217944220378224 0.8364273532968248 0.47445419100353764
0.7940346145475045 0.6494738943281738 0.3794950860397733
0.7187578408293859 0.8525673353327345 0.29686597902817563
0.6315149139741509 0.676485866675059 0.4408861689876682
0.8551277553711558 0.8364273532968248 0.47445419100353764
0.12736794788083786 -0.017192772338492847 0.7128284193731066
0.05209117416271928 0.18590066866606786 0.630199312361509
-0.03515175269251565 0.009819200008392507 0.7742195023210015
0.1884610887044891 0.1697606866301582 0.8077875243368711
0.46070128121417114 -0.017192772338492847 0.7128284193731066
0.38542450749605256 0.18590066866606786 0.630199312361509
0.2981815806408177 0.009819200008392507 0.7742195023210015
0.5217944220378224 0.1697606866301582 0.8077875243368711
0.7940346145475045 -0.017192772338492847 0.7128284193731066
0.7187578408293859 0.18590066866606786 0.630199312361509
0.6315149139741509 0.009819200008392507 0.7742195023210015
0.8551277553711558 0.1697606866301582 0.8077875243368711
0.12736794788083786 0.31614056099484045 0.7128284193731066
0.05209117416271928 0.5192340019994012 0.630199312361509
-0.03515175269251565 0.34315253334172585 0.7742195023210015
0.1884610887044891 0.5030940199634915 0.8077875243368711
0.46070128121417114 0.31614056099484045 0.7128284193731066
0.38542450749605256 0.5192340019994012 0.630199312361509
0.2981815806408177 0.34315253334172585 0.7742195023210015
0.5217944220378224 0.5030940199634915 0.8077875243368711
0.7940346145475045 0.31614056099484045 0.7128284193731066
0.7187578408293859 0.5192340019994012 0.630199312361509
0.6315149139741509 0.34315253334172585 0.7742195023210015
0.8551277553711558 0.5030940199634915 0.8077875243368711
0.12736794788083786 0.6494738943281738 0.7128284193731066
0.05209117416271928 0.8525673353327345 0.630199312361509
-0.03515175269251565 0.676485866675059 0.7742195023210015
0.1884610887044891 0.8364273532968248 0.8077875243368711
0.46070128121417114 0.6494738943281738 0.7128284193731066
0.38542450749605256 0.8525673353327345 0.630199312361509
0.2981815806408177 0.676485866675059 0.7742195023210015
0.5217944220378224 0.8364273532968248 0.8077875243368711
0.7940346145475045 0.6494738943281738 0.7128284193731066
0.7187578408293859 0.8525673353327345 0.630199312361509
0.6315149139741509 0.676485866675059 0.7742195023210015
0.8551277553711558 0.8364273532968248 0.8077875243368711
