FCC BaO
3.971
5.0 0.0 0.0
0.0 5.0 0.0
0.0 0.0 5.0
Ba O 
500 500 
Direct
0.02760005434377143 0.01364314035605966 0.0184647306991566
0.019498412116332398 0.07578067510076697 0.08969326162501212
0.12979159974531218 0.02726377091685685 0.12222027450995368
0.07925919490253742 0.10590410434285154 0.001526350717783067
0.22760005434377142 0.01364314035605966 0.0184647306991566
0.21949841211633242 0.07578067510076697 0.08969326162501212
0.3297915997453122 0.02726377091685685 0.12222027450995368
0.2792591949025374 0.10590410434285154 0.001526350717783067
0.42760005434377146 0.01364314035605966 0.0184647306991566
0.4194984121163324 0.07578067510076697 0.08969326162501212
0.5297915997453122 0.02726377091685685 0.12222027450995368
0.4792591949025375 0.10590410434285154 0.001526350717783067
0.6276000543437714 0.01364314035605966 0.0184647306991566
0.6194984121163324 0.07578067510076697 0.08969326162501212
0.7297915997453122 0.02726377091685685 0.12222027450995368
0.6792591949025375 0.10590410434285154 0.001526350717783067
0.8276000543437715 0.01364314035605966 0.0184647306991566
0.8194984121163325 0.07578067510076697 0.08969326162501212
0.9297915997453123 0.02726377091685685 0.12222027450995368
0.8792591949025375 0.10590410434285154 0.001526350717783067
0.02760005434377143 0.21364314035605966 0.0184647306991566
0.019498412116332398 0.275780675100767 0.08969326162501212
0.12979159974531218 0.22726377091685684 0.12222027450995368
0.07925919490253742 0.3059041043428516 0.001526350717783067
0.22760005434377142 0.21364314035605966 0.0184647306991566
0.21949841211633242 0.275780675100767 0.08969326162501212
0.3297915997453122 0.22726377091685684 0.12222027450995368
0.2792591949025374 0.3059041043428516 0.001526350717783067
0.42760005434377146 0.21364314035605966 0.0184647306991566
0.4194984121163324 0.275780675100767 0.08969326162501212
0.5297915997453122 0.22726377091685684 0.12222027450995368
0.4792591949025375 0.3059041043428516 0.001526350717783067
0.6276000543437714 0.21364314035605966 0.0184647306991566
0.6194984121163324 0.275780675100767 0.08969326162501212
0.7297915997453122 0.22726377091685684 0.12222027450995368
0.6792591949025375 0.3059041043428516 0.001526350717783067
0.8276000543437715 0.21364314035605966 0.0184647306991566
0.8194984121163325 0.275780675100767 0.08969326162501212
0.9297915997453123 0.22726377091685684 0.12222027450995368
0.8792591949025375 0.3059041043428516 0.001526350717783067
0.02760005434377143 0.41364314035605965 0.0184647306991566
0.019498412116332398 0.475780675100767 0.08969326162501212
0.12979159974531218 0.4272637709168569 0.12222027450995368
0.07925919490253742 0.5059041043428516 0.001526350717783067
0.22760005434377142 0.41364314035605965 0.0184647306991566
0.21949841211633242 0.475780675100767 0.08969326162501212
0.3297915997453122 0.4272637709168569 0.12222027450995368
0.2792591949025374 0.5059041043428516 0.001526350717783067
0.42760005434377146 0.41364314035605965 0.0184647306991566
0.4194984121163324 0.475780675100767 0.08969326162501212
0.5297915997453122 0.4272637709168569 0.12222027450995368
0.4792591949025375 0.5059041043428516 0.001526350717783067
0.6276000543437714 0.41364314035605965 0.0184647306991566
0.6194984121163324 0.475780675100767 0.08969326162501212
0.7297915997453122 0.4272637709168569 0.12222027450995368
0.6792591949025375 0.5059041043428516 0.001526350717783067
0.8276000543437715 0.41364314035605965 0.0184647306991566
0.8194984121163325 0.475780675100767 0.08969326162501212
0.9297915997453123 0.4272637709168569 0.12222027450995368
0.8792591949025375 0.5059041043428516 0.001526350717783067
0.02760005434377143 0.6136431403560597 0.0184647306991566
0.019498412116332398 0.675780675100767 0.08969326162501212
0.12979159974531218 0.6272637709168569 0.12222027450995368
0.07925919490253742 0.7059041043428516 0.001526350717783067
0.22760005434377142 0.6136431403560597 0.0184647306991566
0.21949841211633242 0.675780675100767 0.08969326162501212
0.3297915997453122 0.6272637709168569 0.12222027450995368
0.2792591949025374 0.7059041043428516 0.001526350717783067
0.42760005434377146 0.6136431403560597 0.0184647306991566
0.4194984121163324 0.675780675100767 0.08969326162501212
0.5297915997453122 0.6272637709168569 0.12222027450995368
0.4792591949025375 0.7059041043428516 0.001526350717783067
0.6276000543437714 0.6136431403560597 0.0184647306991566
0.6194984121163324 0.675780675100767 0.08969326162501212
0.7297915997453122 0.6272637709168569 0.12222027450995368
0.6792591949025375 0.7059041043428516 0.001526350717783067
0.8276000543437715 0.6136431403560597 0.0184647306991566
0.8194984121163325 0.675780675100767 0.08969326162501212
0.9297915997453123 0.6272637709168569 0.12222027450995368
0.8792591949025375 0.7059041043428516 0.001526350717783067
0.02760005434377143 0.8136431403560597 0.0184647306991566
0.019498412116332398 0.875780675100767 0.08969326162501212
0.12979159974531218 0.8272637709168569 0.12222027450995368
0.07925919490253742 0.9059041043428515 0.001526350717783067
0.22760005434377142 0.8136431403560597 0.0184647306991566
0.21949841211633242 0.875780675100767 0.08969326162501212
0.3297915997453122 0.8272637709168569 0.12222027450995368
0.2792591949025374 0.9059041043428515 0.001526350717783067
0.42760005434377146 0.8136431403560597 0.0184647306991566
0.4194984121163324 0.875780675100767 0.08969326162501212
0.5297915997453122 0.8272637709168569 0.12222027450995368
0.4792591949025375 0.9059041043428515 0.001526350717783067
0.6276000543437714 0.8136431403560597 0.0184647306991566
0.6194984121163324 0.875780675100767 0.08969326162501212
0.7297915997453122 0.8272637709168569 0.12222027450995368
0.6792591949025375 0.9059041043428515 0.001526350717783067
0.8276000543437715 0.8136431403560597 0.0184647306991566
0.8194984121163325 0.875780675100767 0.08969326162501212
0.9297915997453123 0.8272637709168569 0.12222027450995368
0.8792591949025375 0.9059041043428515 0.001526350717783067
0.02760005434377143 0.01364314035605966 0.21846473069915662
0.019498412116332398 0.07578067510076697 0.28969326162501213
0.12979159974531218 0.02726377091685685 0.3222202745099537
0.07925919490253742 0.10590410434285154 0.2015263507177831
0.22760005434377142 0.01364314035605966 0.21846473069915662
0.21949841211633242 0.07578067510076697 0.28969326162501213
0.3297915997453122 0.02726377091685685 0.3222202745099537
0.2792591949025374 0.10590410434285154 0.2015263507177831
0.42760005434377146 0.01364314035605966 0.21846473069915662
0.4194984121163324 0.07578067510076697 0.28969326162501213
0.5297915997453122 0.02726377091685685 0.3222202745099537
0.4792591949025375 0.10590410434285154 0.2015263507177831
0.6276000543437714 0.01364314035605966 0.21846473069915662
0.6194984121163324 0.07578067510076697 0.28969326162501213
0.7297915997453122 0.02726377091685685 0.3222202745099537
0.6792591949025375 0.10590410434285154 0.2015263507177831
0.8276000543437715 0.01364314035605966 0.21846473069915662
0.8194984121163325 0.07578067510076697 0.28969326162501213
0.9297915997453123 0.02726377091685685 0.3222202745099537
0.8792591949025375 0.10590410434285154 0.2015263507177831
0.02760005434377143 0.21364314035605966 0.21846473069915662
0.019498412116332398 0.275780675100767 0.28969326162501213
0.12979159974531218 0.22726377091685684 0.3222202745099537
0.07925919490253742 0.3059041043428516 0.2015263507177831
0.22760005434377142 0.21364314035605966 0.21846473069915662
0.21949841211633242 0.275780675100767 0.28969326162501213
0.3297915997453122 0.22726377091685684 0.3222202745099537
0.2792591949025374 0.3059041043428516 0.2015263507177831
0.42760005434377146 0.21364314035605966 0.21846473069915662
0.4194984121163324 0.275780675100767 0.28969326162501213
0.5297915997453122 0.22726377091685684 0.3222202745099537
0.4792591949025375 0.3059041043428516 0.2015263507177831
0.6276000543437714 0.21364314035605966 0.21846473069915662
0.6194984121163324 0.275780675100767 0.28969326162501213
0.7297915997453122 0.22726377091685684 0.3222202745099537
0.6792591949025375 0.3059041043428516 0.2015263507177831
0.8276000543437715 0.21364314035605966 0.21846473069915662
0.8194984121163325 0.275780675100767 0.28969326162501213
0.9297915997453123 0.22726377091685684 0.3222202745099537
0.8792591949025375 0.3059041043428516 0.2015263507177831
0.02760005434377143 0.41364314035605965 0.21846473069915662
0.019498412116332398 0.475780675100767 0.28969326162501213
0.12979159974531218 0.4272637709168569 0.3222202745099537
0.07925919490253742 0.5059041043428516 0.2015263507177831
0.22760005434377142 0.41364314035605965 0.21846473069915662
0.21949841211633242 0.475780675100767 0.28969326162501213
0.3297915997453122 0.4272637709168569 0.3222202745099537
0.2792591949025374 0.5059041043428516 0.2015263507177831
0.42760005434377146 0.41364314035605965 0.21846473069915662
0.4194984121163324 0.475780675100767 0.28969326162501213
0.5297915997453122 0.4272637709168569 0.3222202745099537
0.4792591949025375 0.5059041043428516 0.2015263507177831
0.6276000543437714 0.41364314035605965 0.21846473069915662
0.6194984121163324 0.475780675100767 0.28969326162501213
0.7297915997453122 0.4272637709168569 0.3222202745099537
0.6792591949025375 0.5059041043428516 0.2015263507177831
0.8276000543437715 0.41364314035605965 0.21846473069915662
0.8194984121163325 0.475780675100767 0.28969326162501213
0.9297915997453123 0.4272637709168569 0.3222202745099537
0.8792591949025375 0.5059041043428516 0.2015263507177831
0.02760005434377143 0.6136431403560597 0.21846473069915662
0.019498412116332398 0.675780675100767 0.28969326162501213
0.12979159974531218 0.6272637709168569 0.3222202745099537
0.07925919490253742 0.7059041043428516 0.2015263507177831
0.22760005434377142 0.6136431403560597 0.21846473069915662
0.21949841211633242 0.675780675100767 0.28969326162501213
0.3297915997453122 0.6272637709168569 0.3222202745099537
0.2792591949025374 0.7059041043428516 0.2015263507177831
0.42760005434377146 0.6136431403560597 0.21846473069915662
0.4194984121163324 0.675780675100767 0.28969326162501213
0.5297915997453122 0.6272637709168569 0.3222202745099537
0.4792591949025375 0.7059041043428516 0.2015263507177831
0.6276000543437714 0.6136431403560597 0.21846473069915662
0.6194984121163324 0.675780675100767 0.28969326162501213
0.7297915997453122 0.6272637709168569 0.3222202745099537
0.6792591949025375 0.7059041043428516 0.2015263507177831
0.8276000543437715 0.6136431403560597 0.21846473069915662
0.8194984121163325 0.675780675100767 0.28969326162501213
0.9297915997453123 0.6272637709168569 0.3222202745099537
0.8792591949025375 0.7059041043428516 0.2015263507177831
0.02760005434377143 0.8136431403560597 0.21846473069915662
0.019498412116332398 0.875780675100767 0.28969326162501213
0.12979159974531218 0.8272637709168569 0.3222202745099537
0.07925919490253742 0.9059041043428515 0.2015263507177831
0.22760005434377142 0.8136431403560597 0.21846473069915662
0.21949841211633242 0.875780675100767 0.28969326162501213
0.3297915997453122 0.8272637709168569 0.3222202745099537
0.2792591949025374 0.9059041043428515 0.2015263507177831
0.42760005434377146 0.8136431403560597 0.21846473069915662
0.4194984121163324 0.875780675100767 0.28969326162501213
0.5297915997453122 0.8272637709168569 0.3222202745099537
0.4792591949025375 0.9059041043428515 0.2015263507177831
0.6276000543437714 0.8136431403560597 0.21846473069915662
0.6194984121163324 0.875780675100767 0.28969326162501213
0.7297915997453122 0.8272637709168569 0.3222202745099537
0.6792591949025375 0.9059041043428515 0.2015263507177831
0.8276000543437715 0.8136431403560597 0.21846473069915662
0.8194984121163325 0.875780675100767 0.28969326162501213
0.9297915997453123 0.8272637709168569 0.3222202745099537
0.8792591949025375 0.9059041043428515 0.2015263507177831
0.02760005434377143 0.01364314035605966 0.4184647306991567
0.019498412116332398 0.07578067510076697 0.4896932616250121
0.12979159974531218 0.02726377091685685 0.5222202745099537
0.07925919490253742 0.10590410434285154 0.4015263507177831
0.22760005434377142 0.01364314035605966 0.4184647306991567
0.21949841211633242 0.07578067510076697 0.4896932616250121
0.3297915997453122 0.02726377091685685 0.5222202745099537
0.2792591949025374 0.10590410434285154 0.4015263507177831
0.42760005434377146 0.01364314035605966 0.4184647306991567
0.4194984121163324 0.07578067510076697 0.4896932616250121
0.5297915997453122 0.02726377091685685 0.5222202745099537
0.4792591949025375 0.10590410434285154 0.4015263507177831
0.6276000543437714 0.01364314035605966 0.4184647306991567
0.6194984121163324 0.07578067510076697 0.4896932616250121
0.7297915997453122 0.02726377091685685 0.5222202745099537
0.6792591949025375 0.10590410434285154 0.4015263507177831
0.8276000543437715 0.01364314035605966 0.4184647306991567
0.8194984121163325 0.07578067510076697 0.4896932616250121
0.9297915997453123 0.02726377091685685 0.5222202745099537
0.8792591949025375 0.10590410434285154 0.4015263507177831
0.02760005434377143 0.21364314035605966 0.4184647306991567
0.019498412116332398 0.275780675100767 0.4896932616250121
0.12979159974531218 0.22726377091685684 0.5222202745099537
0.07925919490253742 0.3059041043428516 0.4015263507177831
0.22760005434377142 0.21364314035605966 0.4184647306991567
0.21949841211633242 0.275780675100767 0.4896932616250121
0.3297915997453122 0.22726377091685684 0.5222202745099537
0.2792591949025374 0.3059041043428516 0.4015263507177831
0.42760005434377146 0.21364314035605966 0.4184647306991567
0.4194984121163324 0.275780675100767 0.4896932616250121
0.5297915997453122 0.22726377091685684 0.5222202745099537
0.4792591949025375 0.3059041043428516 0.4015263507177831
0.6276000543437714 0.21364314035605966 0.4184647306991567
0.6194984121163324 0.275780675100767 0.4896932616250121
0.7297915997453122 0.22726377091685684 0.5222202745099537
0.6792591949025375 0.3059041043428516 0.4015263507177831
0.8276000543437715 0.21364314035605966 0.4184647306991567
0.8194984121163325 0.275780675100767 0.4896932616250121
0.9297915997453123 0.22726377091685684 0.5222202745099537
0.8792591949025375 0.3059041043428516 0.4015263507177831
0.02760005434377143 0.41364314035605965 0.4184647306991567
0.019498412116332398 0.475780675100767 0.4896932616250121
0.12979159974531218 0.4272637709168569 0.5222202745099537
0.07925919490253742 0.5059041043428516 0.4015263507177831
0.22760005434377142 0.41364314035605965 0.4184647306991567
0.21949841211633242 0.475780675100767 0.4896932616250121
0.3297915997453122 0.4272637709168569 0.5222202745099537
0.2792591949025374 0.5059041043428516 0.4015263507177831
0.42760005434377146 0.41364314035605965 0.4184647306991567
0.4194984121163324 0.475780675100767 0.4896932616250121
0.5297915997453122 0.4272637709168569 0.5222202745099537
0.4792591949025375 0.5059041043428516 0.4015263507177831
0.6276000543437714 0.41364314035605965 0.4184647306991567
0.6194984121163324 0.475780675100767 0.4896932616250121
0.7297915997453122 0.4272637709168569 0.5222202745099537
0.6792591949025375 0.5059041043428516 0.4015263507177831
0.8276000543437715 0.41364314035605965 0.4184647306991567
0.8194984121163325 0.475780675100767 0.4896932616250121
0.9297915997453123 0.4272637709168569 0.5222202745099537
0.8792591949025375 0.5059041043428516 0.4015263507177831
0.02760005434377143 0.6136431403560597 0.4184647306991567
0.019498412116332398 0.675780675100767 0.4896932616250121
0.12979159974531218 0.6272637709168569 0.5222202745099537
0.07925919490253742 0.7059041043428516 0.4015263507177831
0.22760005434377142 0.6136431403560597 0.4184647306991567
0.21949841211633242 0.675780675100767 0.4896932616250121
0.3297915997453122 0.6272637709168569 0.5222202745099537
0.2792591949025374 0.7059041043428516 0.4015263507177831
0.42760005434377146 0.6136431403560597 0.4184647306991567
0.4194984121163324 0.675780675100767 0.4896932616250121
0.5297915997453122 0.6272637709168569 0.5222202745099537
0.4792591949025375 0.7059041043428516 0.4015263507177831
0.6276000543437714 0.6136431403560597 0.4184647306991567
0.6194984121163324 0.675780675100767 0.4896932616250121
0.7297915997453122 0.6272637709168569 0.5222202745099537
0.6792591949025375 0.7059041043428516 0.4015263507177831
0.8276000543437715 0.6136431403560597 0.4184647306991567
0.8194984121163325 0.675780675100767 0.4896932616250121
0.9297915997453123 0.6272637709168569 0.5222202745099537
0.8792591949025375 0.7059041043428516 0.4015263507177831
0.02760005434377143 0.8136431403560597 0.4184647306991567
0.019498412116332398 0.875780675100767 0.4896932616250121
0.12979159974531218 0.8272637709168569 0.5222202745099537
0.07925919490253742 0.9059041043428515 0.4015263507177831
0.22760005434377142 0.8136431403560597 0.4184647306991567
0.21949841211633242 0.875780675100767 0.4896932616250121
0.3297915997453122 0.8272637709168569 0.5222202745099537
0.2792591949025374 0.9059041043428515 0.4015263507177831
0.42760005434377146 0.8136431403560597 0.4184647306991567
0.4194984121163324 0.875780675100767 0.4896932616250121
0.5297915997453122 0.8272637709168569 0.5222202745099537
0.4792591949025375 0.9059041043428515 0.4015263507177831
0.6276000543437714 0.8136431403560597 0.4184647306991567
0.6194984121163324 0.875780675100767 0.4896932616250121
0.7297915997453122 0.8272637709168569 0.5222202745099537
0.6792591949025375 0.9059041043428515 0.4015263507177831
0.8276000543437715 0.8136431403560597 0.4184647306991567
0.8194984121163325 0.875780675100767 0.4896932616250121
0.9297915997453123 0.8272637709168569 0.5222202745099537
0.8792591949025375 0.9059041043428515 0.4015263507177831
0.02760005434377143 0.01364314035605966 0.6184647306991566
0.019498412116332398 0.07578067510076697 0.6896932616250121
0.12979159974531218 0.02726377091685685 0.7222202745099537
0.07925919490253742 0.10590410434285154 0.601526350717783
0.22760005434377142 0.01364314035605966 0.6184647306991566
0.21949841211633242 0.07578067510076697 0.6896932616250121
0.3297915997453122 0.02726377091685685 0.7222202745099537
0.2792591949025374 0.10590410434285154 0.601526350717783
0.42760005434377146 0.01364314035605966 0.6184647306991566
0.4194984121163324 0.07578067510076697 0.6896932616250121
0.5297915997453122 0.02726377091685685 0.7222202745099537
0.4792591949025375 0.10590410434285154 0.601526350717783
0.6276000543437714 0.01364314035605966 0.6184647306991566
0.6194984121163324 0.07578067510076697 0.6896932616250121
0.7297915997453122 0.02726377091685685 0.7222202745099537
0.6792591949025375 0.10590410434285154 0.601526350717783
0.8276000543437715 0.01364314035605966 0.6184647306991566
0.8194984121163325 0.07578067510076697 0.6896932616250121
0.9297915997453123 0.02726377091685685 0.7222202745099537
0.8792591949025375 0.10590410434285154 0.601526350717783
0.02760005434377143 0.21364314035605966 0.6184647306991566
0.019498412116332398 0.275780675100767 0.6896932616250121
0.12979159974531218 0.22726377091685684 0.7222202745099537
0.07925919490253742 0.3059041043428516 0.601526350717783
0.22760005434377142 0.21364314035605966 0.6184647306991566
0.21949841211633242 0.275780675100767 0.6896932616250121
0.3297915997453122 0.22726377091685684 0.7222202745099537
0.2792591949025374 0.3059041043428516 0.601526350717783
0.42760005434377146 0.21364314035605966 0.6184647306991566
0.4194984121163324 0.275780675100767 0.6896932616250121
0.5297915997453122 0.22726377091685684 0.7222202745099537
0.4792591949025375 0.3059041043428516 0.601526350717783
0.6276000543437714 0.21364314035605966 0.6184647306991566
0.6194984121163324 0.275780675100767 0.6896932616250121
0.7297915997453122 0.22726377091685684 0.7222202745099537
0.6792591949025375 0.3059041043428516 0.601526350717783
0.8276000543437715 0.21364314035605966 0.6184647306991566
0.8194984121163325 0.275780675100767 0.6896932616250121
0.9297915997453123 0.22726377091685684 0.7222202745099537
0.8792591949025375 0.3059041043428516 0.601526350717783
0.02760005434377143 0.41364314035605965 0.6184647306991566
0.019498412116332398 0.475780675100767 0.6896932616250121
0.12979159974531218 0.4272637709168569 0.7222202745099537
0.07925919490253742 0.5059041043428516 0.601526350717783
0.22760005434377142 0.41364314035605965 0.6184647306991566
0.21949841211633242 0.475780675100767 0.6896932616250121
0.3297915997453122 0.4272637709168569 0.7222202745099537
0.2792591949025374 0.5059041043428516 0.601526350717783
0.42760005434377146 0.41364314035605965 0.6184647306991566
0.4194984121163324 0.475780675100767 0.6896932616250121
0.5297915997453122 0.4272637709168569 0.7222202745099537
0.4792591949025375 0.5059041043428516 0.601526350717783
0.6276000543437714 0.41364314035605965 0.6184647306991566
0.6194984121163324 0.475780675100767 0.6896932616250121
0.7297915997453122 0.4272637709168569 0.7222202745099537
0.6792591949025375 0.5059041043428516 0.601526350717783
0.8276000543437715 0.41364314035605965 0.6184647306991566
0.8194984121163325 0.475780675100767 0.6896932616250121
0.9297915997453123 0.4272637709168569 0.7222202745099537
0.8792591949025375 0.5059041043428516 0.601526350717783
0.02760005434377143 0.6136431403560597 0.6184647306991566
0.019498412116332398 0.675780675100767 0.6896932616250121
0.12979159974531218 0.6272637709168569 0.7222202745099537
0.07925919490253742 0.7059041043428516 0.601526350717783
0.22760005434377142 0.6136431403560597 0.6184647306991566
0.21949841211633242 0.675780675100767 0.6896932616250121
0.3297915997453122 0.6272637709168569 0.7222202745099537
0.2792591949025374 0.7059041043428516 0.601526350717783
0.42760005434377146 0.6136431403560597 0.6184647306991566
0.4194984121163324 0.675780675100767 0.6896932616250121
0.5297915997453122 0.6272637709168569 0.7222202745099537
0.4792591949025375 0.7059041043428516 0.601526350717783
0.6276000543437714 0.6136431403560597 0.6184647306991566
0.6194984121163324 0.675780675100767 0.6896932616250121
0.7297915997453122 0.6272637709168569 0.7222202745099537
0.6792591949025375 0.7059041043428516 0.601526350717783
0.8276000543437715 0.6136431403560597 0.6184647306991566
0.8194984121163325 0.675780675100767 0.6896932616250121
0.9297915997453123 0.6272637709168569 0.7222202745099537
0.8792591949025375 0.7059041043428516 0.601526350717783
0.02760005434377143 0.8136431403560597 0.6184647306991566
0.019498412116332398 0.875780675100767 0.6896932616250121
0.12979159974531218 0.8272637709168569 0.7222202745099537
0.07925919490253742 0.9059041043428515 0.601526350717783
0.22760005434377142 0.8136431403560597 0.6184647306991566
0.21949841211633242 0.875780675100767 0.6896932616250121
0.3297915997453122 0.8272637709168569 0.7222202745099537
0.2792591949025374 0.9059041043428515 0.601526350717783
0.42760005434377146 0.8136431403560597 0.6184647306991566
0.4194984121163324 0.875780675100767 0.6896932616250121
0.5297915997453122 0.8272637709168569 0.7222202745099537
0.4792591949025375 0.9059041043428515 0.601526350717783
0.6276000543437714 0.8136431403560597 0.6184647306991566
0.6194984121163324 0.875780675100767 0.6896932616250121
0.7297915997453122 0.8272637709168569 0.7222202745099537
0.6792591949025375 0.9059041043428515 0.601526350717783
0.8276000543437715 0.8136431403560597 0.6184647306991566
0.8194984121163325 0.875780675100767 0.6896932616250121
0.9297915997453123 0.8272637709168569 0.7222202745099537
0.8792591949025375 0.9059041043428515 0.601526350717783
0.02760005434377143 0.01364314035605966 0.8184647306991567
0.019498412116332398 0.07578067510076697 0.8896932616250122
0.12979159974531218 0.02726377091685685 0.9222202745099537
0.07925919490253742 0.10590410434285154 0.8015263507177832
0.22760005434377142 0.01364314035605966 0.8184647306991567
0.21949841211633242 0.07578067510076697 0.8896932616250122
0.3297915997453122 0.02726377091685685 0.9222202745099537
0.2792591949025374 0.10590410434285154 0.8015263507177832
0.42760005434377146 0.01364314035605966 0.8184647306991567
0.4194984121163324 0.07578067510076697 0.8896932616250122
0.5297915997453122 0.02726377091685685 0.9222202745099537
0.4792591949025375 0.10590410434285154 0.8015263507177832
0.6276000543437714 0.01364314035605966 0.8184647306991567
0.6194984121163324 0.07578067510076697 0.8896932616250122
0.7297915997453122 0.02726377091685685 0.9222202745099537
0.6792591949025375 0.10590410434285154 0.8015263507177832
0.8276000543437715 0.01364314035605966 0.8184647306991567
0.8194984121163325 0.07578067510076697 0.8896932616250122
0.9297915997453123 0.02726377091685685 0.9222202745099537
0.8792591949025375 0.10590410434285154 0.8015263507177832
0.02760005434377143 0.21364314035605966 0.8184647306991567
0.019498412116332398 0.275780675100767 0.8896932616250122
0.12979159974531218 0.22726377091685684 0.9222202745099537
0.07925919490253742 0.3059041043428516 0.8015263507177832
0.22760005434377142 0.21364314035605966 0.8184647306991567
0.21949841211633242 0.275780675100767 0.8896932616250122
0.3297915997453122 0.22726377091685684 0.9222202745099537
0.2792591949025374 0.3059041043428516 0.8015263507177832
0.42760005434377146 0.21364314035605966 0.8184647306991567
0.4194984121163324 0.275780675100767 0.8896932616250122
0.5297915997453122 0.22726377091685684 0.9222202745099537
0.4792591949025375 0.3059041043428516 0.8015263507177832
0.6276000543437714 0.21364314035605966 0.8184647306991567
0.6194984121163324 0.275780675100767 0.8896932616250122
0.7297915997453122 0.22726377091685684 0.9222202745099537
0.6792591949025375 0.3059041043428516 0.8015263507177832
0.8276000543437715 0.21364314035605966 0.8184647306991567
0.8194984121163325 0.275780675100767 0.8896932616250122
0.9297915997453123 0.22726377091685684 0.9222202745099537
0.8792591949025375 0.3059041043428516 0.8015263507177832
0.02760005434377143 0.41364314035605965 0.8184647306991567
0.019498412116332398 0.475780675100767 0.8896932616250122
0.12979159974531218 0.4272637709168569 0.9222202745099537
0.07925919490253742 0.5059041043428516 0.8015263507177832
0.22760005434377142 0.41364314035605965 0.8184647306991567
0.21949841211633242 0.475780675100767 0.8896932616250122
0.3297915997453122 0.4272637709168569 0.9222202745099537
0.2792591949025374 0.5059041043428516 0.8015263507177832
0.42760005434377146 0.41364314035605965 0.8184647306991567
0.4194984121163324 0.475780675100767 0.8896932616250122
0.5297915997453122 0.4272637709168569 0.9222202745099537
0.4792591949025375 0.5059041043428516 0.8015263507177832
0.6276000543437714 0.41364314035605965 0.8184647306991567
0.6194984121163324 0.475780675100767 0.8896932616250122
0.7297915997453122 0.4272637709168569 0.9222202745099537
0.6792591949025375 0.5059041043428516 0.8015263507177832
0.8276000543437715 0.41364314035605965 0.8184647306991567
0.8194984121163325 0.475780675100767 0.8896932616250122
0.9297915997453123 0.4272637709168569 0.9222202745099537
0.8792591949025375 0.5059041043428516 0.8015263507177832
0.02760005434377143 0.6136431403560597 0.8184647306991567
0.019498412116332398 0.675780675100767 0.8896932616250122
0.12979159974531218 0.6272637709168569 0.9222202745099537
0.07925919490253742 0.7059041043428516 0.8015263507177832
0.22760005434377142 0.6136431403560597 0.8184647306991567
0.21949841211633242 0.675780675100767 0.8896932616250122
0.3297915997453122 0.6272637709168569 0.9222202745099537
0.2792591949025374 0.7059041043428516 0.8015263507177832
0.42760005434377146 0.6136431403560597 0.8184647306991567
0.4194984121163324 0.675780675100767 0.8896932616250122
0.5297915997453122 0.6272637709168569 0.9222202745099537
0.4792591949025375 0.7059041043428516 0.8015263507177832
0.6276000543437714 0.6136431403560597 0.8184647306991567
0.6194984121163324 0.675780675100767 0.8896932616250122
0.7297915997453122 0.6272637709168569 0.9222202745099537
0.6792591949025375 0.7059041043428516 0.8015263507177832
0.8276000543437715 0.6136431403560597 0.8184647306991567
0.8194984121163325 0.675780675100767 0.8896932616250122
0.9297915997453123 0.6272637709168569 0.9222202745099537
0.8792591949025375 0.7059041043428516 0.8015263507177832
0.02760005434377143 0.8136431403560597 0.8184647306991567
0.019498412116332398 0.875780675100767 0.8896932616250122
0.12979159974531218 0.8272637709168569 0.9222202745099537
0.07925919490253742 0.9059041043428515 0.8015263507177832
0.22760005434377142 0.8136431403560597 0.8184647306991567
0.21949841211633242 0.875780675100767 0.8896932616250122
0.3297915997453122 0.8272637709168569 0.9222202745099537
0.2792591949025374 0.9059041043428515 0.8015263507177832
0.42760005434377146 0.8136431403560597 0.8184647306991567
0.4194984121163324 0.875780675100767 0.8896932616250122
0.5297915997453122 0.8272637709168569 0.9222202745099537
0.4792591949025375 0.9059041043428515 0.8015263507177832
0.6276000543437714 0.8136431403560597 0.8184647306991567
0.6194984121163324 0.875780675100767 0.8896932616250122
0.7297915997453122 0.8272637709168569 0.9222202745099537
0.6792591949025375 0.9059041043428515 0.8015263507177832
0.8276000543437715 0.8136431403560597 0.8184647306991567
0.8194984121163325 0.875780675100767 0.8896932616250122
0.9297915997453123 0.8272637709168569 0.9222202745099537
0.8792591949025375 0.9059041043428515 0.8015263507177832
0.087604881326472 0.02830673697093394 -0.011810443145023065
0.022765953254424497 0.07418998773585912 -0.014293130298612717
-0.008068799474124033 -0.006162918121915368 0.07948037301710568
0.08047209017151818 0.10966045249103135 0.08569854410428718
0.287604881326472 0.02830673697093394 -0.011810443145023065
0.2227659532544245 0.07418998773585912 -0.014293130298612717
0.19193120052587598 -0.006162918121915368 0.07948037301710568
0.2804720901715182 0.10966045249103135 0.08569854410428718
0.48760488132647206 0.02830673697093394 -0.011810443145023065
0.42276595325442456 0.07418998773585912 -0.014293130298612717
0.391931200525876 -0.006162918121915368 0.07948037301710568
0.48047209017151826 0.10966045249103135 0.08569854410428718
0.6876048813264721 0.02830673697093394 -0.011810443145023065
0.6227659532544245 0.07418998773585912 -0.014293130298612717
0.591931200525876 -0.006162918121915368 0.07948037301710568
0.6804720901715182 0.10966045249103135 0.08569854410428718
0.8876048813264721 0.02830673697093394 -0.011810443145023065
0.8227659532544245 0.07418998773585912 -0.014293130298612717
0.791931200525876 -0.006162918121915368 0.07948037301710568
0.8804720901715183 0.10966045249103135 0.08569854410428718
0.087604881326472 0.22830673697093395 -0.011810443145023065
0.022765953254424497 0.2741899877358591 -0.014293130298612717
-0.008068799474124033 0.19383708187808465 0.07948037301710568
0.08047209017151818 0.30966045249103136 0.08569854410428718
0.287604881326472 0.22830673697093395 -0.011810443145023065
0.2227659532544245 0.2741899877358591 -0.014293130298612717
0.19193120052587598 0.19383708187808465 0.07948037301710568
0.2804720901715182 0.30966045249103136 0.08569854410428718
0.48760488132647206 0.22830673697093395 -0.011810443145023065
0.42276595325442456 0.2741899877358591 -0.014293130298612717
0.391931200525876 0.19383708187808465 0.07948037301710568
0.48047209017151826 0.30966045249103136 0.08569854410428718
0.6876048813264721 0.22830673697093395 -0.011810443145023065
0.6227659532544245 0.2741899877358591 -0.014293130298612717
0.591931200525876 0.19383708187808465 0.07948037301710568
0.6804720901715182 0.30966045249103136 0.08569854410428718
0.8876048813264721 0.22830673697093395 -0.011810443145023065
0.8227659532544245 0.2741899877358591 -0.014293130298612717
0.791931200525876 0.19383708187808465 0.07948037301710568
0.8804720901715183 0.30966045249103136 0.08569854410428718
0.087604881326472 0.42830673697093397 -0.011810443145023065
0.022765953254424497 0.47418998773585913 -0.014293130298612717
-0.008068799474124033 0.39383708187808464 0.07948037301710568
0.08047209017151818 0.5096604524910314 0.08569854410428718
0.287604881326472 0.42830673697093397 -0.011810443145023065
0.2227659532544245 0.47418998773585913 -0.014293130298612717
0.19193120052587598 0.39383708187808464 0.07948037301710568
0.2804720901715182 0.5096604524910314 0.08569854410428718
0.48760488132647206 0.42830673697093397 -0.011810443145023065
0.42276595325442456 0.47418998773585913 -0.014293130298612717
0.391931200525876 0.39383708187808464 0.07948037301710568
0.48047209017151826 0.5096604524910314 0.08569854410428718
0.6876048813264721 0.42830673697093397 -0.011810443145023065
0.6227659532544245 0.47418998773585913 -0.014293130298612717
0.591931200525876 0.39383708187808464 0.07948037301710568
0.6804720901715182 0.5096604524910314 0.08569854410428718
0.8876048813264721 0.42830673697093397 -0.011810443145023065
0.8227659532544245 0.47418998773585913 -0.014293130298612717
0.791931200525876 0.39383708187808464 0.07948037301710568
0.8804720901715183 0.5096604524910314 0.08569854410428718
0.087604881326472 0.628306736970934 -0.011810443145023065
0.022765953254424497 0.6741899877358591 -0.014293130298612717
-0.008068799474124033 0.5938370818780847 0.07948037301710568
0.08047209017151818 0.7096604524910314 0.08569854410428718
0.287604881326472 0.628306736970934 -0.011810443145023065
0.2227659532544245 0.6741899877358591 -0.014293130298612717
0.19193120052587598 0.5938370818780847 0.07948037301710568
0.2804720901715182 0.7096604524910314 0.08569854410428718
0.48760488132647206 0.628306736970934 -0.011810443145023065
0.42276595325442456 0.6741899877358591 -0.014293130298612717
0.391931200525876 0.5938370818780847 0.07948037301710568
0.48047209017151826 0.7096604524910314 0.08569854410428718
0.6876048813264721 0.628306736970934 -0.011810443145023065
0.6227659532544245 0.6741899877358591 -0.014293130298612717
0.591931200525876 0.5938370818780847 0.07948037301710568
0.6804720901715182 0.7096604524910314 0.08569854410428718
0.8876048813264721 0.628306736970934 -0.011810443145023065
0.8227659532544245 0.6741899877358591 -0.014293130298612717
0.791931200525876 0.5938370818780847 0.07948037301710568
0.8804720901715183 0.7096604524910314 0.08569854410428718
0.087604881326472 0.828306736970934 -0.011810443145023065
0.022765953254424497 0.8741899877358592 -0.014293130298612717
-0.008068799474124033 0.7938370818780847 0.07948037301710568
0.08047209017151818 0.9096604524910314 0.08569854410428718
0.287604881326472 0.828306736970934 -0.011810443145023065
0.2227659532544245 0.8741899877358592 -0.014293130298612717
0.19193120052587598 0.7938370818780847 0.07948037301710568
0.2804720901715182 0.9096604524910314 0.08569854410428718
0.48760488132647206 0.828306736970934 -0.011810443145023065
0.42276595325442456 0.8741899877358592 -0.014293130298612717
0.391931200525876 0.7938370818780847 0.07948037301710568
0.48047209017151826 0.9096604524910314 0.08569854410428718
0.6876048813264721 0.828306736970934 -0.011810443145023065
0.6227659532544245 0.8741899877358592 -0.014293130298612717
0.591931200525876 0.7938370818780847 0.07948037301710568
0.6804720901715182 0.9096604524910314 0.08569854410428718
0.8876048813264721 0.828306736970934 -0.011810443145023065
0.8227659532544245 0.8741899877358592 -0.014293130298612717
0.791931200525876 0.7938370818780847 0.07948037301710568
0.8804720901715183 0.9096604524910314 0.08569854410428718
0.087604881326472 0.02830673697093394 0.18818955685497696
0.022765953254424497 0.07418998773585912 0.18570686970138728
-0.008068799474124033 -0.006162918121915368 0.2794803730171057
0.08047209017151818 0.10966045249103135 0.28569854410428713
0.287604881326472 0.02830673697093394 0.18818955685497696
0.2227659532544245 0.07418998773585912 0.18570686970138728
0.19193120052587598 -0.006162918121915368 0.2794803730171057
0.2804720901715182 0.10966045249103135 0.28569854410428713
0.48760488132647206 0.02830673697093394 0.18818955685497696
0.42276595325442456 0.07418998773585912 0.18570686970138728
0.391931200525876 -0.006162918121915368 0.2794803730171057
0.48047209017151826 0.10966045249103135 0.28569854410428713
0.6876048813264721 0.02830673697093394 0.18818955685497696
0.6227659532544245 0.07418998773585912 0.18570686970138728
0.591931200525876 -0.006162918121915368 0.2794803730171057
0.6804720901715182 0.10966045249103135 0.28569854410428713
0.8876048813264721 0.02830673697093394 0.18818955685497696
0.8227659532544245 0.07418998773585912 0.18570686970138728
0.791931200525876 -0.006162918121915368 0.2794803730171057
0.8804720901715183 0.10966045249103135 0.28569854410428713
0.087604881326472 0.22830673697093395 0.18818955685497696
0.022765953254424497 0.2741899877358591 0.18570686970138728
-0.008068799474124033 0.19383708187808465 0.2794803730171057
0.08047209017151818 0.30966045249103136 0.28569854410428713
0.287604881326472 0.22830673697093395 0.18818955685497696
0.2227659532544245 0.2741899877358591 0.18570686970138728
0.19193120052587598 0.19383708187808465 0.2794803730171057
0.2804720901715182 0.30966045249103136 0.28569854410428713
0.48760488132647206 0.22830673697093395 0.18818955685497696
0.42276595325442456 0.2741899877358591 0.18570686970138728
0.391931200525876 0.19383708187808465 0.2794803730171057
0.48047209017151826 0.30966045249103136 0.28569854410428713
0.6876048813264721 0.22830673697093395 0.18818955685497696
0.6227659532544245 0.2741899877358591 0.18570686970138728
0.591931200525876 0.19383708187808465 0.2794803730171057
0.6804720901715182 0.30966045249103136 0.28569854410428713
0.8876048813264721 0.22830673697093395 0.18818955685497696
0.8227659532544245 0.2741899877358591 0.18570686970138728
0.791931200525876 0.19383708187808465 0.2794803730171057
0.8804720901715183 0.30966045249103136 0.28569854410428713
0.087604881326472 0.42830673697093397 0.18818955685497696
0.022765953254424497 0.47418998773585913 0.18570686970138728
-0.008068799474124033 0.39383708187808464 0.2794803730171057
0.08047209017151818 0.5096604524910314 0.28569854410428713
0.287604881326472 0.42830673697093397 0.18818955685497696
0.2227659532544245 0.47418998773585913 0.18570686970138728
0.19193120052587598 0.39383708187808464 0.2794803730171057
0.2804720901715182 0.5096604524910314 0.28569854410428713
0.48760488132647206 0.42830673697093397 0.18818955685497696
0.42276595325442456 0.47418998773585913 0.18570686970138728
0.391931200525876 0.39383708187808464 0.2794803730171057
0.48047209017151826 0.5096604524910314 0.28569854410428713
0.6876048813264721 0.42830673697093397 0.18818955685497696
0.6227659532544245 0.47418998773585913 0.18570686970138728
0.591931200525876 0.39383708187808464 0.2794803730171057
0.6804720901715182 0.5096604524910314 0.28569854410428713
0.8876048813264721 0.42830673697093397 0.18818955685497696
0.8227659532544245 0.47418998773585913 0.18570686970138728
0.791931200525876 0.39383708187808464 0.2794803730171057
0.8804720901715183 0.5096604524910314 0.28569854410428713
0.087604881326472 0.628306736970934 0.18818955685497696
0.022765953254424497 0.6741899877358591 0.18570686970138728
-0.008068799474124033 0.5938370818780847 0.2794803730171057
0.08047209017151818 0.7096604524910314 0.28569854410428713
0.287604881326472 0.628306736970934 0.18818955685497696
0.2227659532544245 0.6741899877358591 0.18570686970138728
0.19193120052587598 0.5938370818780847 0.2794803730171057
0.2804720901715182 0.7096604524910314 0.28569854410428713
0.48760488132647206 0.628306736970934 0.18818955685497696
0.42276595325442456 0.6741899877358591 0.18570686970138728
0.391931200525876 0.5938370818780847 0.2794803730171057
0.48047209017151826 0.7096604524910314 0.28569854410428713
0.6876048813264721 0.628306736970934 0.18818955685497696
0.6227659532544245 0.6741899877358591 0.18570686970138728
0.591931200525876 0.5938370818780847 0.2794803730171057
0.6804720901715182 0.7096604524910314 0.28569854410428713
0.8876048813264721 0.628306736970934 0.18818955685497696
0.8227659532544245 0.6741899877358591 0.18570686970138728
0.791931200525876 0.5938370818780847 0.2794803730171057
0.8804720901715183 0.7096604524910314 0.28569854410428713
0.087604881326472 0.828306736970934 0.18818955685497696
0.022765953254424497 0.8741899877358592 0.18570686970138728
-0.008068799474124033 0.7938370818780847 0.2794803730171057
0.08047209017151818 0.9096604524910314 0.28569854410428713
0.287604881326472 0.828306736970934 0.18818955685497696
0.2227659532544245 0.8741899877358592 0.18570686970138728
0.19193120052587598 0.7938370818780847 0.2794803730171057
0.2804720901715182 0.9096604524910314 0.28569854410428713
0.48760488132647206 0.828306736970934 0.18818955685497696
0.42276595325442456 0.8741899877358592 0.18570686970138728
0.391931200525876 0.7938370818780847 0.2794803730171057
0.48047209017151826 0.9096604524910314 0.28569854410428713
0.6876048813264721 0.828306736970934 0.18818955685497696
0.6227659532544245 0.8741899877358592 0.18570686970138728
0.591931200525876 0.7938370818780847 0.2794803730171057
0.6804720901715182 0.9096604524910314 0.28569854410428713
0.8876048813264721 0.828306736970934 0.18818955685497696
0.8227659532544245 0.8741899877358592 0.18570686970138728
0.791931200525876 0.7938370818780847 0.2794803730171057
0.8804720901715183 0.9096604524910314 0.28569854410428713
0.087604881326472 0.02830673697093394 0.3881895568549769
0.022765953254424497 0.07418998773585912 0.3857068697013873
-0.008068799474124033 -0.006162918121915368 0.4794803730171057
0.08047209017151818 0.10966045249103135 0.48569854410428714
0.287604881326472 0.02830673697093394 0.3881895568549769
0.2227659532544245 0.07418998773585912 0.3857068697013873
0.19193120052587598 -0.006162918121915368 0.4794803730171057
0.2804720901715182 0.10966045249103135 0.48569854410428714
0.48760488132647206 0.02830673697093394 0.3881895568549769
0.42276595325442456 0.07418998773585912 0.3857068697013873
0.391931200525876 -0.006162918121915368 0.4794803730171057
0.48047209017151826 0.10966045249103135 0.48569854410428714
0.6876048813264721 0.02830673697093394 0.3881895568549769
0.6227659532544245 0.07418998773585912 0.3857068697013873
0.591931200525876 -0.006162918121915368 0.4794803730171057
0.6804720901715182 0.10966045249103135 0.48569854410428714
0.8876048813264721 0.02830673697093394 0.3881895568549769
0.8227659532544245 0.07418998773585912 0.3857068697013873
0.791931200525876 -0.006162918121915368 0.4794803730171057
0.8804720901715183 0.10966045249103135 0.48569854410428714
0.087604881326472 0.22830673697093395 0.3881895568549769
0.022765953254424497 0.2741899877358591 0.3857068697013873
-0.008068799474124033 0.19383708187808465 0.4794803730171057
0.08047209017151818 0.30966045249103136 0.48569854410428714
0.287604881326472 0.22830673697093395 0.3881895568549769
0.2227659532544245 0.2741899877358591 0.3857068697013873
0.19193120052587598 0.19383708187808465 0.4794803730171057
0.2804720901715182 0.30966045249103136 0.48569854410428714
0.48760488132647206 0.22830673697093395 0.3881895568549769
0.42276595325442456 0.2741899877358591 0.3857068697013873
0.391931200525876 0.19383708187808465 0.4794803730171057
0.48047209017151826 0.30966045249103136 0.48569854410428714
0.6876048813264721 0.22830673697093395 0.3881895568549769
0.6227659532544245 0.2741899877358591 0.3857068697013873
0.591931200525876 0.19383708187808465 0.4794803730171057
0.6804720901715182 0.30966045249103136 0.48569854410428714
0.8876048813264721 0.22830673697093395 0.3881895568549769
0.8227659532544245 0.2741899877358591 0.3857068697013873
0.791931200525876 0.19383708187808465 0.4794803730171057
0.8804720901715183 0.30966045249103136 0.48569854410428714
0.087604881326472 0.42830673697093397 0.3881895568549769
0.022765953254424497 0.47418998773585913 0.3857068697013873
-0.008068799474124033 0.39383708187808464 0.4794803730171057
0.08047209017151818 0.5096604524910314 0.48569854410428714
0.287604881326472 0.42830673697093397 0.3881895568549769
0.2227659532544245 0.47418998773585913 0.3857068697013873
0.19193120052587598 0.39383708187808464 0.4794803730171057
0.2804720901715182 0.5096604524910314 0.48569854410428714
0.48760488132647206 0.42830673697093397 0.3881895568549769
0.42276595325442456 0.47418998773585913 0.3857068697013873
0.391931200525876 0.39383708187808464 0.4794803730171057
0.48047209017151826 0.5096604524910314 0.48569854410428714
0.6876048813264721 0.42830673697093397 0.3881895568549769
0.6227659532544245 0.47418998773585913 0.3857068697013873
0.591931200525876 0.39383708187808464 0.4794803730171057
0.6804720901715182 0.5096604524910314 0.48569854410428714
0.8876048813264721 0.42830673697093397 0.3881895568549769
0.8227659532544245 0.47418998773585913 0.3857068697013873
0.791931200525876 0.39383708187808464 0.4794803730171057
0.8804720901715183 0.5096604524910314 0.48569854410428714
0.087604881326472 0.628306736970934 0.3881895568549769
0.022765953254424497 0.6741899877358591 0.3857068697013873
-0.008068799474124033 0.5938370818780847 0.4794803730171057
0.08047209017151818 0.7096604524910314 0.48569854410428714
0.287604881326472 0.628306736970934 0.3881895568549769
0.2227659532544245 0.6741899877358591 0.3857068697013873
0.19193120052587598 0.5938370818780847 0.4794803730171057
0.2804720901715182 0.7096604524910314 0.48569854410428714
0.48760488132647206 0.628306736970934 0.3881895568549769
0.42276595325442456 0.6741899877358591 0.3857068697013873
0.391931200525876 0.5938370818780847 0.4794803730171057
0.48047209017151826 0.7096604524910314 0.48569854410428714
0.6876048813264721 0.628306736970934 0.3881895568549769
0.6227659532544245 0.6741899877358591 0.3857068697013873
0.591931200525876 0.5938370818780847 0.4794803730171057
0.6804720901715182 0.7096604524910314 0.48569854410428714
0.8876048813264721 0.628306736970934 0.3881895568549769
0.8227659532544245 0.6741899877358591 0.3857068697013873
0.791931200525876 0.5938370818780847 0.4794803730171057
0.8804720901715183 0.7096604524910314 0.48569854410428714
0.087604881326472 0.828306736970934 0.3881895568549769
0.022765953254424497 0.8741899877358592 0.3857068697013873
-0.008068799474124033 0.7938370818780847 0.4794803730171057
0.08047209017151818 0.9096604524910314 0.48569854410428714
0.287604881326472 0.828306736970934 0.3881895568549769
0.2227659532544245 0.8741899877358592 0.3857068697013873
0.19193120052587598 0.7938370818780847 0.4794803730171057
0.2804720901715182 0.9096604524910314 0.48569854410428714
0.48760488132647206 0.828306736970934 0.3881895568549769
0.42276595325442456 0.8741899877358592 0.3857068697013873
0.391931200525876 0.7938370818780847 0.4794803730171057
0.48047209017151826 0.9096604524910314 0.48569854410428714
0.6876048813264721 0.828306736970934 0.3881895568549769
0.6227659532544245 0.8741899877358592 0.3857068697013873
0.591931200525876 0.7938370818780847 0.4794803730171057
0.6804720901715182 0.9096604524910314 0.48569854410428714
0.8876048813264721 0.828306736970934 0.3881895568549769
0.8227659532544245 0.8741899877358592 0.3857068697013873
0.791931200525876 0.7938370818780847 0.4794803730171057
0.8804720901715183 0.9096604524910314 0.48569854410428714
0.087604881326472 0.02830673697093394 0.588189556854977
0.022765953254424497 0.07418998773585912 0.5857068697013873
-0.008068799474124033 -0.006162918121915368 0.6794803730171057
0.08047209017151818 0.10966045249103135 0.6856985441042872
0.287604881326472 0.02830673697093394 0.588189556854977
0.2227659532544245 0.07418998773585912 0.5857068697013873
0.19193120052587598 -0.006162918121915368 0.6794803730171057
0.2804720901715182 0.10966045249103135 0.6856985441042872
0.48760488132647206 0.02830673697093394 0.588189556854977
0.42276595325442456 0.07418998773585912 0.5857068697013873
0.391931200525876 -0.006162918121915368 0.6794803730171057
0.48047209017151826 0.10966045249103135 0.6856985441042872
0.6876048813264721 0.02830673697093394 0.588189556854977
0.6227659532544245 0.07418998773585912 0.5857068697013873
0.591931200525876 -0.006162918121915368 0.6794803730171057
0.6804720901715182 0.10966045249103135 0.6856985441042872
0.8876048813264721 0.02830673697093394 0.588189556854977
0.8227659532544245 0.07418998773585912 0.5857068697013873
0.791931200525876 -0.006162918121915368 0.6794803730171057
0.8804720901715183 0.10966045249103135 0.6856985441042872
0.087604881326472 0.22830673697093395 0.588189556854977
0.022765953254424497 0.2741899877358591 0.5857068697013873
-0.008068799474124033 0.19383708187808465 0.6794803730171057
0.08047209017151818 0.30966045249103136 0.6856985441042872
0.287604881326472 0.22830673697093395 0.588189556854977
0.2227659532544245 0.2741899877358591 0.5857068697013873
0.19193120052587598 0.19383708187808465 0.6794803730171057
0.2804720901715182 0.30966045249103136 0.6856985441042872
0.48760488132647206 0.22830673697093395 0.588189556854977
0.42276595325442456 0.2741899877358591 0.5857068697013873
0.391931200525876 0.19383708187808465 0.6794803730171057
0.48047209017151826 0.30966045249103136 0.6856985441042872
0.6876048813264721 0.22830673697093395 0.588189556854977
0.6227659532544245 0.2741899877358591 0.5857068697013873
0.591931200525876 0.19383708187808465 0.6794803730171057
0.6804720901715182 0.30966045249103136 0.6856985441042872
0.8876048813264721 0.22830673697093395 0.588189556854977
0.8227659532544245 0.2741899877358591 0.5857068697013873
0.791931200525876 0.19383708187808465 0.6794803730171057
0.8804720901715183 0.30966045249103136 0.6856985441042872
0.087604881326472 0.42830673697093397 0.588189556854977
0.022765953254424497 0.47418998773585913 0.5857068697013873
-0.008068799474124033 0.39383708187808464 0.6794803730171057
0.08047209017151818 0.5096604524910314 0.6856985441042872
0.287604881326472 0.42830673697093397 0.588189556854977
0.2227659532544245 0.47418998773585913 0.5857068697013873
0.19193120052587598 0.39383708187808464 0.6794803730171057
0.2804720901715182 0.5096604524910314 0.6856985441042872
0.48760488132647206 0.42830673697093397 0.588189556854977
0.42276595325442456 0.47418998773585913 0.5857068697013873
0.391931200525876 0.39383708187808464 0.6794803730171057
0.48047209017151826 0.5096604524910314 0.6856985441042872
0.6876048813264721 0.42830673697093397 0.588189556854977
0.6227659532544245 0.47418998773585913 0.5857068697013873
0.591931200525876 0.39383708187808464 0.6794803730171057
0.6804720901715182 0.5096604524910314 0.6856985441042872
0.8876048813264721 0.42830673697093397 0.588189556854977
0.8227659532544245 0.47418998773585913 0.5857068697013873
0.791931200525876 0.39383708187808464 0.6794803730171057
0.8804720901715183 0.5096604524910314 0.6856985441042872
0.087604881326472 0.628306736970934 0.588189556854977
0.022765953254424497 0.6741899877358591 0.5857068697013873
-0.008068799474124033 0.5938370818780847 0.6794803730171057
0.08047209017151818 0.7096604524910314 0.6856985441042872
0.287604881326472 0.628306736970934 0.588189556854977
0.2227659532544245 0.6741899877358591 0.5857068697013873
0.19193120052587598 0.5938370818780847 0.6794803730171057
0.2804720901715182 0.7096604524910314 0.6856985441042872
0.48760488132647206 0.628306736970934 0.588189556854977
0.42276595325442456 0.6741899877358591 0.5857068697013873
0.391931200525876 0.5938370818780847 0.6794803730171057
0.48047209017151826 0.7096604524910314 0.6856985441042872
0.6876048813264721 0.628306736970934 0.588189556854977
0.6227659532544245 0.6741899877358591 0.5857068697013873
0.591931200525876 0.5938370818780847 0.6794803730171057
0.6804720901715182 0.7096604524910314 0.6856985441042872
0.8876048813264721 0.628306736970934 0.588189556854977
0.8227659532544245 0.6741899877358591 0.5857068697013873
0.791931200525876 0.5938370818780847 0.6794803730171057
0.8804720901715183 0.7096604524910314 0.6856985441042872
0.087604881326472 0.828306736970934 0.588189556854977
0.022765953254424497 0.8741899877358592 0.5857068697013873
-0.008068799474124033 0.7938370818780847 0.6794803730171057
0.08047209017151818 0.9096604524910314 0.6856985441042872
0.287604881326472 0.828306736970934 0.588189556854977
0.2227659532544245 0.8741899877358592 0.5857068697013873
0.19193120052587598 0.7938370818780847 0.6794803730171057
0.2804720901715182 0.9096604524910314 0.6856985441042872
0.48760488132647206 0.828306736970934 0.588189556854977
0.42276595325442456 0.8741899877358592 0.5857068697013873
0.391931200525876 0.7938370818780847 0.6794803730171057
0.48047209017151826 0.9096604524910314 0.6856985441042872
0.6876048813264721 0.828306736970934 0.588189556854977
0.6227659532544245 0.8741899877358592 0.5857068697013873
0.591931200525876 0.7938370818780847 0.6794803730171057
0.6804720901715182 0.9096604524910314 0.6856985441042872
0.8876048813264721 0.828306736970934 0.588189556854977
0.8227659532544245 0.8741899877358592 0.5857068697013873
0.791931200525876 0.7938370818780847 0.6794803730171057
0.8804720901715183 0.9096604524910314 0.6856985441042872
0.087604881326472 0.02830673697093394 0.7881895568549769
0.022765953254424497 0.07418998773585912 0.7857068697013874
-0.008068799474124033 -0.006162918121915368 0.8794803730171057
0.08047209017151818 0.10966045249103135 0.8856985441042872
0.287604881326472 0.02830673697093394 0.7881895568549769
0.2227659532544245 0.07418998773585912 0.7857068697013874
0.19193120052587598 -0.006162918121915368 0.8794803730171057
0.2804720901715182 0.10966045249103135 0.8856985441042872
0.48760488132647206 0.02830673697093394 0.7881895568549769
0.42276595325442456 0.07418998773585912 0.7857068697013874
0.391931200525876 -0.006162918121915368 0.8794803730171057
0.48047209017151826 0.10966045249103135 0.8856985441042872
0.6876048813264721 0.02830673697093394 0.7881895568549769
0.6227659532544245 0.07418998773585912 0.7857068697013874
0.591931200525876 -0.006162918121915368 0.8794803730171057
0.6804720901715182 0.10966045249103135 0.8856985441042872
0.8876048813264721 0.02830673697093394 0.7881895568549769
0.8227659532544245 0.07418998773585912 0.7857068697013874
0.791931200525876 -0.006162918121915368 0.8794803730171057
0.8804720901715183 0.10966045249103135 0.8856985441042872
0.087604881326472 0.22830673697093395 0.7881895568549769
0.022765953254424497 0.2741899877358591 0.7857068697013874
-0.008068799474124033 0.19383708187808465 0.8794803730171057
0.08047209017151818 0.30966045249103136 0.8856985441042872
0.287604881326472 0.22830673697093395 0.7881895568549769
0.2227659532544245 0.2741899877358591 0.7857068697013874
0.19193120052587598 0.19383708187808465 0.8794803730171057
0.2804720901715182 0.30966045249103136 0.8856985441042872
0.48760488132647206 0.22830673697093395 0.7881895568549769
0.42276595325442456 0.2741899877358591 0.7857068697013874
0.391931200525876 0.19383708187808465 0.8794803730171057
0.48047209017151826 0.30966045249103136 0.8856985441042872
0.6876048813264721 0.22830673697093395 0.7881895568549769
0.6227659532544245 0.2741899877358591 0.7857068697013874
0.591931200525876 0.19383708187808465 0.8794803730171057
0.6804720901715182 0.30966045249103136 0.8856985441042872
0.8876048813264721 0.22830673697093395 0.7881895568549769
0.8227659532544245 0.2741899877358591 0.7857068697013874
0.791931200525876 0.19383708187808465 0.8794803730171057
0.8804720901715183 0.30966045249103136 0.8856985441042872
0.087604881326472 0.42830673697093397 0.7881895568549769
0.022765953254424497 0.47418998773585913 0.7857068697013874
-0.008068799474124033 0.39383708187808464 0.8794803730171057
0.08047209017151818 0.5096604524910314 0.8856985441042872
0.287604881326472 0.42830673697093397 0.7881895568549769
0.2227659532544245 0.47418998773585913 0.7857068697013874
0.19193120052587598 0.39383708187808464 0.8794803730171057
0.2804720901715182 0.5096604524910314 0.8856985441042872
0.48760488132647206 0.42830673697093397 0.7881895568549769
0.42276595325442456 0.47418998773585913 0.7857068697013874
0.391931200525876 0.39383708187808464 0.8794803730171057
0.48047209017151826 0.5096604524910314 0.8856985441042872
0.6876048813264721 0.42830673697093397 0.7881895568549769
0.6227659532544245 0.47418998773585913 0.7857068697013874
0.591931200525876 0.39383708187808464 0.8794803730171057
0.6804720901715182 0.5096604524910314 0.8856985441042872
0.8876048813264721 0.42830673697093397 0.7881895568549769
0.8227659532544245 0.47418998773585913 0.7857068697013874
0.791931200525876 0.39383708187808464 0.8794803730171057
0.8804720901715183 0.5096604524910314 0.8856985441042872
0.087604881326472 0.628306736970934 0.7881895568549769
0.022765953254424497 0.6741899877358591 0.7857068697013874
-0.008068799474124033 0.5938370818780847 0.8794803730171057
0.08047209017151818 0.7096604524910314 0.8856985441042872
0.287604881326472 0.628306736970934 0.7881895568549769
0.2227659532544245 0.6741899877358591 0.7857068697013874
0.19193120052587598 0.5938370818780847 0.8794803730171057
0.2804720901715182 0.7096604524910314 0.8856985441042872
0.48760488132647206 0.628306736970934 0.7881895568549769
0.42276595325442456 0.6741899877358591 0.7857068697013874
0.391931200525876 0.5938370818780847 0.8794803730171057
0.48047209017151826 0.7096604524910314 0.8856985441042872
0.6876048813264721 0.628306736970934 0.7881895568549769
0.6227659532544245 0.6741899877358591 0.7857068697013874
0.591931200525876 0.5938370818780847 0.8794803730171057
0.6804720901715182 0.7096604524910314 0.8856985441042872
0.8876048813264721 0.628306736970934 0.7881895568549769
0.8227659532544245 0.6741899877358591 0.7857068697013874
0.791931200525876 0.5938370818780847 0.8794803730171057
0.8804720901715183 0.7096604524910314 0.8856985441042872
0.087604881326472 0.828306736970934 0.7881895568549769
0.022765953254424497 0.8741899877358592 0.7857068697013874
-0.008068799474124033 0.7938370818780847 0.8794803730171057
0.08047209017151818 0.9096604524910314 0.8856985441042872
0.287604881326472 0.828306736970934 0.7881895568549769
0.2227659532544245 0.8741899877358592 0.7857068697013874
0.19193120052587598 0.7938370818780847 0.8794803730171057
0.2804720901715182 0.9096604524910314 0.8856985441042872
0.48760488132647206 0.828306736970934 0.7881895568549769
0.42276595325442456 0.8741899877358592 0.7857068697013874
0.391931200525876 0.7938370818780847 0.8794803730171057
0.48047209017151826 0.9096604524910314 0.8856985441042872
0.6876048813264721 0.828306736970934 0.7881895568549769
0.6227659532544245 0.8741899877358592 0.7857068697013874
0.591931200525876 0.7938370818780847 0.8794803730171057
0.6804720901715182 0.9096604524910314 0.8856985441042872
0.8876048813264721 0.828306736970934 0.7881895568549769
0.8227659532544245 0.8741899877358592 0.7857068697013874
0.791931200525876 0.7938370818780847 0.8794803730171057
0.8804720901715183 0.9096604524910314 0.8856985441042872
