FCC BaO
3.971
5.0 0.0 0.0
0.0 5.0 0.0
0.0 0.0 5.0
Ba O 
500 500 
Direct
0.011759995171694721 0.007776673600681786 -0.027493751924023663
0.017064831804494238 0.09603921015347178 0.11330964035974321
0.09636691225020422 0.02595614860352278 0.10981114072551762
0.12282651929877714 0.12148115630137575 -0.00945189223529429
0.21175999517169475 0.007776673600681786 -0.027493751924023663
0.21706483180449423 0.09603921015347178 0.11330964035974321
0.29636691225020423 0.02595614860352278 0.10981114072551762
0.32282651929877715 0.12148115630137575 -0.00945189223529429
0.41175999517169476 0.007776673600681786 -0.027493751924023663
0.4170648318044943 0.09603921015347178 0.11330964035974321
0.4963669122502042 0.02595614860352278 0.10981114072551762
0.5228265192987771 0.12148115630137575 -0.00945189223529429
0.6117599951716948 0.007776673600681786 -0.027493751924023663
0.6170648318044942 0.09603921015347178 0.11330964035974321
0.6963669122502042 0.02595614860352278 0.10981114072551762
0.7228265192987772 0.12148115630137575 -0.00945189223529429
0.8117599951716947 0.007776673600681786 -0.027493751924023663
0.8170648318044944 0.09603921015347178 0.11330964035974321
0.8963669122502043 0.02595614860352278 0.10981114072551762
0.9228265192987772 0.12148115630137575 -0.00945189223529429
0.011759995171694721 0.20777667360068178 -0.027493751924023663
0.017064831804494238 0.2960392101534718 0.11330964035974321
0.09636691225020422 0.22595614860352278 0.10981114072551762
0.12282651929877714 0.32148115630137575 -0.00945189223529429
0.21175999517169475 0.20777667360068178 -0.027493751924023663
0.21706483180449423 0.2960392101534718 0.11330964035974321
0.29636691225020423 0.22595614860352278 0.10981114072551762
0.32282651929877715 0.32148115630137575 -0.00945189223529429
0.41175999517169476 0.20777667360068178 -0.027493751924023663
0.4170648318044943 0.2960392101534718 0.11330964035974321
0.4963669122502042 0.22595614860352278 0.10981114072551762
0.5228265192987771 0.32148115630137575 -0.00945189223529429
0.6117599951716948 0.20777667360068178 -0.027493751924023663
0.6170648318044942 0.2960392101534718 0.11330964035974321
0.6963669122502042 0.22595614860352278 0.10981114072551762
0.7228265192987772 0.32148115630137575 -0.00945189223529429
0.8117599951716947 0.20777667360068178 -0.027493751924023663
0.8170648318044944 0.2960392101534718 0.11330964035974321
0.8963669122502043 0.22595614860352278 0.10981114072551762
0.9228265192987772 0.32148115630137575 -0.00945189223529429
0.011759995171694721 0.4077766736006818 -0.027493751924023663
0.017064831804494238 0.49603921015347174 0.11330964035974321
0.09636691225020422 0.4259561486035228 0.10981114072551762
0.12282651929877714 0.5214811563013758 -0.00945189223529429
0.21175999517169475 0.4077766736006818 -0.027493751924023663
0.21706483180449423 0.49603921015347174 0.11330964035974321
0.29636691225020423 0.4259561486035228 0.10981114072551762
0.32282651929877715 0.5214811563013758 -0.00945189223529429
0.41175999517169476 0.4077766736006818 -0.027493751924023663
0.4170648318044943 0.49603921015347174 0.11330964035974321
0.4963669122502042 0.4259561486035228 0.10981114072551762
0.5228265192987771 0.5214811563013758 -0.00945189223529429
0.6117599951716948 0.4077766736006818 -0.027493751924023663
0.6170648318044942 0.49603921015347174 0.11330964035974321
0.6963669122502042 0.4259561486035228 0.10981114072551762
0.7228265192987772 0.5214811563013758 -0.00945189223529429
0.8117599951716947 0.4077766736006818 -0.027493751924023663
0.8170648318044944 0.49603921015347174 0.11330964035974321
0.8963669122502043 0.4259561486035228 0.10981114072551762
0.9228265192987772 0.5214811563013758 -0.00945189223529429
0.011759995171694721 0.6077766736006818 -0.027493751924023663
0.017064831804494238 0.6960392101534718 0.11330964035974321
0.09636691225020422 0.6259561486035228 0.10981114072551762
0.12282651929877714 0.7214811563013758 -0.00945189223529429
0.21175999517169475 0.6077766736006818 -0.027493751924023663
0.21706483180449423 0.6960392101534718 0.11330964035974321
0.29636691225020423 0.6259561486035228 0.10981114072551762
0.32282651929877715 0.7214811563013758 -0.00945189223529429
0.41175999517169476 0.6077766736006818 -0.027493751924023663
0.4170648318044943 0.6960392101534718 0.11330964035974321
0.4963669122502042 0.6259561486035228 0.10981114072551762
0.5228265192987771 0.7214811563013758 -0.00945189223529429
0.6117599951716948 0.6077766736006818 -0.027493751924023663
0.6170648318044942 0.6960392101534718 0.11330964035974321
0.6963669122502042 0.6259561486035228 0.10981114072551762
0.7228265192987772 0.7214811563013758 -0.00945189223529429
0.8117599951716947 0.6077766736006818 -0.027493751924023663
0.8170648318044944 0.6960392101534718 0.11330964035974321
0.8963669122502043 0.6259561486035228 0.10981114072551762
0.9228265192987772 0.7214811563013758 -0.00945189223529429
0.011759995171694721 0.807776673600682 -0.027493751924023663
0.017064831804494238 0.8960392101534718 0.11330964035974321
0.09636691225020422 0.8259561486035228 0.10981114072551762
0.12282651929877714 0.9214811563013758 -0.00945189223529429
0.21175999517169475 0.807776673600682 -0.027493751924023663
0.21706483180449423 0.8960392101534718 0.11330964035974321
0.29636691225020423 0.8259561486035228 0.10981114072551762
0.32282651929877715 0.9214811563013758 -0.00945189223529429
0.41175999517169476 0.807776673600682 -0.027493751924023663
0.4170648318044943 0.8960392101534718 0.11330964035974321
0.4963669122502042 0.8259561486035228 0.10981114072551762
0.5228265192987771 0.9214811563013758 -0.00945189223529429
0.6117599951716948 0.807776673600682 -0.027493751924023663
0.6170648318044942 0.8960392101534718 0.11330964035974321
0.6963669122502042 0.8259561486035228 0.10981114072551762
0.7228265192987772 0.9214811563013758 -0.00945189223529429
0.8117599951716947 0.807776673600682 -0.027493751924023663
0.8170648318044944 0.8960392101534718 0.11330964035974321
0.8963669122502043 0.8259561486035228 0.10981114072551762
0.9228265192987772 0.9214811563013758 -0.00945189223529429
0.011759995171694721 0.007776673600681786 0.17250624807597637
0.017064831804494238 0.09603921015347178 0.31330964035974324
0.09636691225020422 0.02595614860352278 0.30981114072551763
0.12282651929877714 0.12148115630137575 0.19054810776470574
0.21175999517169475 0.007776673600681786 0.17250624807597637
0.21706483180449423 0.09603921015347178 0.31330964035974324
0.29636691225020423 0.02595614860352278 0.30981114072551763
0.32282651929877715 0.12148115630137575 0.19054810776470574
0.41175999517169476 0.007776673600681786 0.17250624807597637
0.4170648318044943 0.09603921015347178 0.31330964035974324
0.4963669122502042 0.02595614860352278 0.30981114072551763
0.5228265192987771 0.12148115630137575 0.19054810776470574
0.6117599951716948 0.007776673600681786 0.17250624807597637
0.6170648318044942 0.09603921015347178 0.31330964035974324
0.6963669122502042 0.02595614860352278 0.30981114072551763
0.7228265192987772 0.12148115630137575 0.19054810776470574
0.8117599951716947 0.007776673600681786 0.17250624807597637
0.8170648318044944 0.09603921015347178 0.31330964035974324
0.8963669122502043 0.02595614860352278 0.30981114072551763
0.9228265192987772 0.12148115630137575 0.19054810776470574
0.011759995171694721 0.20777667360068178 0.17250624807597637
0.017064831804494238 0.2960392101534718 0.31330964035974324
0.09636691225020422 0.22595614860352278 0.30981114072551763
0.12282651929877714 0.32148115630137575 0.19054810776470574
0.21175999517169475 0.20777667360068178 0.17250624807597637
0.21706483180449423 0.2960392101534718 0.31330964035974324
0.29636691225020423 0.22595614860352278 0.30981114072551763
0.32282651929877715 0.32148115630137575 0.19054810776470574
0.41175999517169476 0.20777667360068178 0.17250624807597637
0.4170648318044943 0.2960392101534718 0.31330964035974324
0.4963669122502042 0.22595614860352278 0.30981114072551763
0.5228265192987771 0.32148115630137575 0.19054810776470574
0.6117599951716948 0.20777667360068178 0.17250624807597637
0.6170648318044942 0.2960392101534718 0.31330964035974324
0.6963669122502042 0.22595614860352278 0.30981114072551763
0.7228265192987772 0.32148115630137575 0.19054810776470574
0.8117599951716947 0.20777667360068178 0.17250624807597637
0.8170648318044944 0.2960392101534718 0.31330964035974324
0.8963669122502043 0.22595614860352278 0.30981114072551763
0.9228265192987772 0.32148115630137575 0.19054810776470574
0.011759995171694721 0.4077766736006818 0.17250624807597637
0.017064831804494238 0.49603921015347174 0.31330964035974324
0.09636691225020422 0.4259561486035228 0.30981114072551763
0.12282651929877714 0.5214811563013758 0.19054810776470574
0.21175999517169475 0.4077766736006818 0.17250624807597637
0.21706483180449423 0.49603921015347174 0.31330964035974324
0.29636691225020423 0.4259561486035228 0.30981114072551763
0.32282651929877715 0.5214811563013758 0.19054810776470574
0.41175999517169476 0.4077766736006818 0.17250624807597637
0.4170648318044943 0.49603921015347174 0.31330964035974324
0.4963669122502042 0.4259561486035228 0.30981114072551763
0.5228265192987771 0.5214811563013758 0.19054810776470574
0.6117599951716948 0.4077766736006818 0.17250624807597637
0.6170648318044942 0.49603921015347174 0.31330964035974324
0.6963669122502042 0.4259561486035228 0.30981114072551763
0.7228265192987772 0.5214811563013758 0.19054810776470574
0.8117599951716947 0.4077766736006818 0.17250624807597637
0.8170648318044944 0.49603921015347174 0.31330964035974324
0.8963669122502043 0.4259561486035228 0.30981114072551763
0.9228265192987772 0.5214811563013758 0.19054810776470574
0.011759995171694721 0.6077766736006818 0.17250624807597637
0.017064831804494238 0.6960392101534718 0.31330964035974324
0.09636691225020422 0.6259561486035228 0.30981114072551763
0.12282651929877714 0.7214811563013758 0.19054810776470574
0.21175999517169475 0.6077766736006818 0.17250624807597637
0.21706483180449423 0.6960392101534718 0.31330964035974324
0.29636691225020423 0.6259561486035228 0.30981114072551763
0.32282651929877715 0.7214811563013758 0.19054810776470574
0.41175999517169476 0.6077766736006818 0.17250624807597637
0.4170648318044943 0.6960392101534718 0.31330964035974324
0.4963669122502042 0.6259561486035228 0.30981114072551763
0.5228265192987771 0.7214811563013758 0.19054810776470574
0.6117599951716948 0.6077766736006818 0.17250624807597637
0.6170648318044942 0.6960392101534718 0.31330964035974324
0.6963669122502042 0.6259561486035228 0.30981114072551763
0.7228265192987772 0.7214811563013758 0.19054810776470574
0.8117599951716947 0.6077766736006818 0.17250624807597637
0.8170648318044944 0.6960392101534718 0.31330964035974324
0.8963669122502043 0.6259561486035228 0.30981114072551763
0.9228265192987772 0.7214811563013758 0.19054810776470574
0.011759995171694721 0.807776673600682 0.17250624807597637
0.017064831804494238 0.8960392101534718 0.31330964035974324
0.09636691225020422 0.8259561486035228 0.30981114072551763
0.12282651929877714 0.9214811563013758 0.19054810776470574
0.21175999517169475 0.807776673600682 0.17250624807597637
0.21706483180449423 0.8960392101534718 0.31330964035974324
0.29636691225020423 0.8259561486035228 0.30981114072551763
0.32282651929877715 0.9214811563013758 0.19054810776470574
0.41175999517169476 0.807776673600682 0.17250624807597637
0.4170648318044943 0.8960392101534718 0.31330964035974324
0.4963669122502042 0.8259561486035228 0.30981114072551763
0.5228265192987771 0.9214811563013758 0.19054810776470574
0.6117599951716948 0.807776673600682 0.17250624807597637
0.6170648318044942 0.8960392101534718 0.31330964035974324
0.6963669122502042 0.8259561486035228 0.30981114072551763
0.7228265192987772 0.9214811563013758 0.19054810776470574
0.8117599951716947 0.807776673600682 0.17250624807597637
0.8170648318044944 0.8960392101534718 0.31330964035974324
0.8963669122502043 0.8259561486035228 0.30981114072551763
0.9228265192987772 0.9214811563013758 0.19054810776470574
0.011759995171694721 0.007776673600681786 0.3725062480759764
0.017064831804494238 0.09603921015347178 0.5133096403597432
0.09636691225020422 0.02595614860352278 0.5098111407255177
0.12282651929877714 0.12148115630137575 0.3905481077647057
0.21175999517169475 0.007776673600681786 0.3725062480759764
0.21706483180449423 0.09603921015347178 0.5133096403597432
0.29636691225020423 0.02595614860352278 0.5098111407255177
0.32282651929877715 0.12148115630137575 0.3905481077647057
0.41175999517169476 0.007776673600681786 0.3725062480759764
0.4170648318044943 0.09603921015347178 0.5133096403597432
0.4963669122502042 0.02595614860352278 0.5098111407255177
0.5228265192987771 0.12148115630137575 0.3905481077647057
0.6117599951716948 0.007776673600681786 0.3725062480759764
0.6170648318044942 0.09603921015347178 0.5133096403597432
0.6963669122502042 0.02595614860352278 0.5098111407255177
0.7228265192987772 0.12148115630137575 0.3905481077647057
0.8117599951716947 0.007776673600681786 0.3725062480759764
0.8170648318044944 0.09603921015347178 0.5133096403597432
0.8963669122502043 0.02595614860352278 0.5098111407255177
0.9228265192987772 0.12148115630137575 0.3905481077647057
0.011759995171694721 0.20777667360068178 0.3725062480759764
0.017064831804494238 0.2960392101534718 0.5133096403597432
0.09636691225020422 0.22595614860352278 0.5098111407255177
0.12282651929877714 0.32148115630137575 0.3905481077647057
0.21175999517169475 0.20777667360068178 0.3725062480759764
0.21706483180449423 0.2960392101534718 0.5133096403597432
0.29636691225020423 0.22595614860352278 0.5098111407255177
0.32282651929877715 0.32148115630137575 0.3905481077647057
0.41175999517169476 0.20777667360068178 0.3725062480759764
0.4170648318044943 0.2960392101534718 0.5133096403597432
0.4963669122502042 0.22595614860352278 0.5098111407255177
0.5228265192987771 0.32148115630137575 0.3905481077647057
0.6117599951716948 0.20777667360068178 0.3725062480759764
0.6170648318044942 0.2960392101534718 0.5133096403597432
0.6963669122502042 0.22595614860352278 0.5098111407255177
0.7228265192987772 0.32148115630137575 0.3905481077647057
0.8117599951716947 0.20777667360068178 0.3725062480759764
0.8170648318044944 0.2960392101534718 0.5133096403597432
0.8963669122502043 0.22595614860352278 0.5098111407255177
0.9228265192987772 0.32148115630137575 0.3905481077647057
0.011759995171694721 0.4077766736006818 0.3725062480759764
0.017064831804494238 0.49603921015347174 0.5133096403597432
0.09636691225020422 0.4259561486035228 0.5098111407255177
0.12282651929877714 0.5214811563013758 0.3905481077647057
0.21175999517169475 0.4077766736006818 0.3725062480759764
0.21706483180449423 0.49603921015347174 0.5133096403597432
0.29636691225020423 0.4259561486035228 0.5098111407255177
0.32282651929877715 0.5214811563013758 0.3905481077647057
0.41175999517169476 0.4077766736006818 0.3725062480759764
0.4170648318044943 0.49603921015347174 0.5133096403597432
0.4963669122502042 0.4259561486035228 0.5098111407255177
0.5228265192987771 0.5214811563013758 0.3905481077647057
0.6117599951716948 0.4077766736006818 0.3725062480759764
0.6170648318044942 0.49603921015347174 0.5133096403597432
0.6963669122502042 0.4259561486035228 0.5098111407255177
0.7228265192987772 0.5214811563013758 0.3905481077647057
0.8117599951716947 0.4077766736006818 0.3725062480759764
0.8170648318044944 0.49603921015347174 0.5133096403597432
0.8963669122502043 0.4259561486035228 0.5098111407255177
0.9228265192987772 0.5214811563013758 0.3905481077647057
0.011759995171694721 0.6077766736006818 0.3725062480759764
0.017064831804494238 0.6960392101534718 0.5133096403597432
0.09636691225020422 0.6259561486035228 0.5098111407255177
0.12282651929877714 0.7214811563013758 0.3905481077647057
0.21175999517169475 0.6077766736006818 0.3725062480759764
0.21706483180449423 0.6960392101534718 0.5133096403597432
0.29636691225020423 0.6259561486035228 0.5098111407255177
0.32282651929877715 0.7214811563013758 0.3905481077647057
0.41175999517169476 0.6077766736006818 0.3725062480759764
0.4170648318044943 0.6960392101534718 0.5133096403597432
0.4963669122502042 0.6259561486035228 0.5098111407255177
0.5228265192987771 0.7214811563013758 0.3905481077647057
0.6117599951716948 0.6077766736006818 0.3725062480759764
0.6170648318044942 0.6960392101534718 0.5133096403597432
0.6963669122502042 0.6259561486035228 0.5098111407255177
0.7228265192987772 0.7214811563013758 0.3905481077647057
0.8117599951716947 0.6077766736006818 0.3725062480759764
0.8170648318044944 0.6960392101534718 0.5133096403597432
0.8963669122502043 0.6259561486035228 0.5098111407255177
0.9228265192987772 0.7214811563013758 0.3905481077647057
0.011759995171694721 0.807776673600682 0.3725062480759764
0.017064831804494238 0.8960392101534718 0.5133096403597432
0.09636691225020422 0.8259561486035228 0.5098111407255177
0.12282651929877714 0.9214811563013758 0.3905481077647057
0.21175999517169475 0.807776673600682 0.3725062480759764
0.21706483180449423 0.8960392101534718 0.5133096403597432
0.29636691225020423 0.8259561486035228 0.5098111407255177
0.32282651929877715 0.9214811563013758 0.3905481077647057
0.41175999517169476 0.807776673600682 0.3725062480759764
0.4170648318044943 0.8960392101534718 0.5133096403597432
0.4963669122502042 0.8259561486035228 0.5098111407255177
0.5228265192987771 0.9214811563013758 0.3905481077647057
0.6117599951716948 0.807776673600682 0.3725062480759764
0.6170648318044942 0.8960392101534718 0.5133096403597432
0.6963669122502042 0.8259561486035228 0.5098111407255177
0.7228265192987772 0.9214811563013758 0.3905481077647057
0.8117599951716947 0.807776673600682 0.3725062480759764
0.8170648318044944 0.8960392101534718 0.5133096403597432
0.8963669122502043 0.8259561486035228 0.5098111407255177
0.9228265192987772 0.9214811563013758 0.3905481077647057
0.011759995171694721 0.007776673600681786 0.5725062480759763
0.017064831804494238 0.09603921015347178 0.7133096403597432
0.09636691225020422 0.02595614860352278 0.7098111407255177
0.12282651929877714 0.12148115630137575 0.5905481077647057
0.21175999517169475 0.007776673600681786 0.5725062480759763
0.21706483180449423 0.09603921015347178 0.7133096403597432
0.29636691225020423 0.02595614860352278 0.7098111407255177
0.32282651929877715 0.12148115630137575 0.5905481077647057
0.41175999517169476 0.007776673600681786 0.5725062480759763
0.4170648318044943 0.09603921015347178 0.7133096403597432
0.4963669122502042 0.02595614860352278 0.7098111407255177
0.5228265192987771 0.12148115630137575 0.5905481077647057
0.6117599951716948 0.007776673600681786 0.5725062480759763
0.6170648318044942 0.09603921015347178 0.7133096403597432
0.6963669122502042 0.02595614860352278 0.7098111407255177
0.7228265192987772 0.12148115630137575 0.5905481077647057
0.8117599951716947 0.007776673600681786 0.5725062480759763
0.8170648318044944 0.09603921015347178 0.7133096403597432
0.8963669122502043 0.02595614860352278 0.7098111407255177
0.9228265192987772 0.12148115630137575 0.5905481077647057
0.011759995171694721 0.20777667360068178 0.5725062480759763
0.017064831804494238 0.2960392101534718 0.7133096403597432
0.09636691225020422 0.22595614860352278 0.7098111407255177
0.12282651929877714 0.32148115630137575 0.5905481077647057
0.21175999517169475 0.20777667360068178 0.5725062480759763
0.21706483180449423 0.2960392101534718 0.7133096403597432
0.29636691225020423 0.22595614860352278 0.7098111407255177
0.32282651929877715 0.32148115630137575 0.5905481077647057
0.41175999517169476 0.20777667360068178 0.5725062480759763
0.4170648318044943 0.2960392101534718 0.7133096403597432
0.4963669122502042 0.22595614860352278 0.7098111407255177
0.5228265192987771 0.32148115630137575 0.5905481077647057
0.6117599951716948 0.20777667360068178 0.5725062480759763
0.6170648318044942 0.2960392101534718 0.7133096403597432
0.6963669122502042 0.22595614860352278 0.7098111407255177
0.7228265192987772 0.32148115630137575 0.5905481077647057
0.8117599951716947 0.20777667360068178 0.5725062480759763
0.8170648318044944 0.2960392101534718 0.7133096403597432
0.8963669122502043 0.22595614860352278 0.7098111407255177
0.9228265192987772 0.32148115630137575 0.5905481077647057
0.011759995171694721 0.4077766736006818 0.5725062480759763
0.017064831804494238 0.49603921015347174 0.7133096403597432
0.09636691225020422 0.4259561486035228 0.7098111407255177
0.12282651929877714 0.5214811563013758 0.5905481077647057
0.21175999517169475 0.4077766736006818 0.5725062480759763
0.21706483180449423 0.49603921015347174 0.7133096403597432
0.29636691225020423 0.4259561486035228 0.7098111407255177
0.32282651929877715 0.5214811563013758 0.5905481077647057
0.41175999517169476 0.4077766736006818 0.5725062480759763
0.4170648318044943 0.49603921015347174 0.7133096403597432
0.4963669122502042 0.4259561486035228 0.7098111407255177
0.5228265192987771 0.5214811563013758 0.5905481077647057
0.6117599951716948 0.4077766736006818 0.5725062480759763
0.6170648318044942 0.49603921015347174 0.7133096403597432
0.6963669122502042 0.4259561486035228 0.7098111407255177
0.7228265192987772 0.5214811563013758 0.5905481077647057
0.8117599951716947 0.4077766736006818 0.5725062480759763
0.8170648318044944 0.49603921015347174 0.7133096403597432
0.8963669122502043 0.4259561486035228 0.7098111407255177
0.9228265192987772 0.5214811563013758 0.5905481077647057
0.011759995171694721 0.6077766736006818 0.5725062480759763
0.017064831804494238 0.6960392101534718 0.7133096403597432
0.09636691225020422 0.6259561486035228 0.7098111407255177
0.12282651929877714 0.7214811563013758 0.5905481077647057
0.21175999517169475 0.6077766736006818 0.5725062480759763
0.21706483180449423 0.6960392101534718 0.7133096403597432
0.29636691225020423 0.6259561486035228 0.7098111407255177
0.32282651929877715 0.7214811563013758 0.5905481077647057
0.41175999517169476 0.6077766736006818 0.5725062480759763
0.4170648318044943 0.6960392101534718 0.7133096403597432
0.4963669122502042 0.6259561486035228 0.7098111407255177
0.5228265192987771 0.7214811563013758 0.5905481077647057
0.6117599951716948 0.6077766736006818 0.5725062480759763
0.6170648318044942 0.6960392101534718 0.7133096403597432
0.6963669122502042 0.6259561486035228 0.7098111407255177
0.7228265192987772 0.7214811563013758 0.5905481077647057
0.8117599951716947 0.6077766736006818 0.5725062480759763
0.8170648318044944 0.6960392101534718 0.7133096403597432
0.8963669122502043 0.6259561486035228 0.7098111407255177
0.9228265192987772 0.7214811563013758 0.5905481077647057
0.011759995171694721 0.807776673600682 0.5725062480759763
0.017064831804494238 0.8960392101534718 0.7133096403597432
0.09636691225020422 0.8259561486035228 0.7098111407255177
0.12282651929877714 0.9214811563013758 0.5905481077647057
0.21175999517169475 0.807776673600682 0.5725062480759763
0.21706483180449423 0.8960392101534718 0.7133096403597432
0.29636691225020423 0.8259561486035228 0.7098111407255177
0.32282651929877715 0.9214811563013758 0.5905481077647057
0.41175999517169476 0.807776673600682 0.5725062480759763
0.4170648318044943 0.8960392101534718 0.7133096403597432
0.4963669122502042 0.8259561486035228 0.7098111407255177
0.5228265192987771 0.9214811563013758 0.5905481077647057
0.6117599951716948 0.807776673600682 0.5725062480759763
0.6170648318044942 0.8960392101534718 0.7133096403597432
0.6963669122502042 0.8259561486035228 0.7098111407255177
0.7228265192987772 0.9214811563013758 0.5905481077647057
0.8117599951716947 0.807776673600682 0.5725062480759763
0.8170648318044944 0.8960392101534718 0.7133096403597432
0.8963669122502043 0.8259561486035228 0.7098111407255177
0.9228265192987772 0.9214811563013758 0.5905481077647057
0.011759995171694721 0.007776673600681786 0.7725062480759763
0.017064831804494238 0.09603921015347178 0.9133096403597432
0.09636691225020422 0.02595614860352278 0.9098111407255177
0.12282651929877714 0.12148115630137575 0.7905481077647057
0.21175999517169475 0.007776673600681786 0.7725062480759763
0.21706483180449423 0.09603921015347178 0.9133096403597432
0.29636691225020423 0.02595614860352278 0.9098111407255177
0.32282651929877715 0.12148115630137575 0.7905481077647057
0.41175999517169476 0.007776673600681786 0.7725062480759763
0.4170648318044943 0.09603921015347178 0.9133096403597432
0.4963669122502042 0.02595614860352278 0.9098111407255177
0.5228265192987771 0.12148115630137575 0.7905481077647057
0.6117599951716948 0.007776673600681786 0.7725062480759763
0.6170648318044942 0.09603921015347178 0.9133096403597432
0.6963669122502042 0.02595614860352278 0.9098111407255177
0.7228265192987772 0.12148115630137575 0.7905481077647057
0.8117599951716947 0.007776673600681786 0.7725062480759763
0.8170648318044944 0.09603921015347178 0.9133096403597432
0.8963669122502043 0.02595614860352278 0.9098111407255177
0.9228265192987772 0.12148115630137575 0.7905481077647057
0.011759995171694721 0.20777667360068178 0.7725062480759763
0.017064831804494238 0.2960392101534718 0.9133096403597432
0.09636691225020422 0.22595614860352278 0.9098111407255177
0.12282651929877714 0.32148115630137575 0.7905481077647057
0.21175999517169475 0.20777667360068178 0.7725062480759763
0.21706483180449423 0.2960392101534718 0.9133096403597432
0.29636691225020423 0.22595614860352278 0.9098111407255177
0.32282651929877715 0.32148115630137575 0.7905481077647057
0.41175999517169476 0.20777667360068178 0.7725062480759763
0.4170648318044943 0.2960392101534718 0.9133096403597432
0.4963669122502042 0.22595614860352278 0.9098111407255177
0.5228265192987771 0.32148115630137575 0.7905481077647057
0.6117599951716948 0.20777667360068178 0.7725062480759763
0.6170648318044942 0.2960392101534718 0.9133096403597432
0.6963669122502042 0.22595614860352278 0.9098111407255177
0.7228265192987772 0.32148115630137575 0.7905481077647057
0.8117599951716947 0.20777667360068178 0.7725062480759763
0.8170648318044944 0.2960392101534718 0.9133096403597432
0.8963669122502043 0.22595614860352278 0.9098111407255177
0.9228265192987772 0.32148115630137575 0.7905481077647057
0.011759995171694721 0.4077766736006818 0.7725062480759763
0.017064831804494238 0.49603921015347174 0.9133096403597432
0.09636691225020422 0.4259561486035228 0.9098111407255177
0.12282651929877714 0.5214811563013758 0.7905481077647057
0.21175999517169475 0.4077766736006818 0.7725062480759763
0.21706483180449423 0.49603921015347174 0.9133096403597432
0.29636691225020423 0.4259561486035228 0.9098111407255177
0.32282651929877715 0.5214811563013758 0.7905481077647057
0.41175999517169476 0.4077766736006818 0.7725062480759763
0.4170648318044943 0.49603921015347174 0.9133096403597432
0.4963669122502042 0.4259561486035228 0.9098111407255177
0.5228265192987771 0.5214811563013758 0.7905481077647057
0.6117599951716948 0.4077766736006818 0.7725062480759763
0.6170648318044942 0.49603921015347174 0.9133096403597432
0.6963669122502042 0.4259561486035228 0.9098111407255177
0.7228265192987772 0.5214811563013758 0.7905481077647057
0.8117599951716947 0.4077766736006818 0.7725062480759763
0.8170648318044944 0.49603921015347174 0.9133096403597432
0.8963669122502043 0.4259561486035228 0.9098111407255177
0.9228265192987772 0.5214811563013758 0.7905481077647057
0.011759995171694721 0.6077766736006818 0.7725062480759763
0.017064831804494238 0.6960392101534718 0.9133096403597432
0.09636691225020422 0.6259561486035228 0.9098111407255177
0.12282651929877714 0.7214811563013758 0.7905481077647057
0.21175999517169475 0.6077766736006818 0.7725062480759763
0.21706483180449423 0.6960392101534718 0.9133096403597432
0.29636691225020423 0.6259561486035228 0.9098111407255177
0.32282651929877715 0.7214811563013758 0.7905481077647057
0.41175999517169476 0.6077766736006818 0.7725062480759763
0.4170648318044943 0.6960392101534718 0.9133096403597432
0.4963669122502042 0.6259561486035228 0.9098111407255177
0.5228265192987771 0.7214811563013758 0.7905481077647057
0.6117599951716948 0.6077766736006818 0.7725062480759763
0.6170648318044942 0.6960392101534718 0.9133096403597432
0.6963669122502042 0.6259561486035228 0.9098111407255177
0.7228265192987772 0.7214811563013758 0.7905481077647057
0.8117599951716947 0.6077766736006818 0.7725062480759763
0.8170648318044944 0.6960392101534718 0.9133096403597432
0.8963669122502043 0.6259561486035228 0.9098111407255177
0.9228265192987772 0.7214811563013758 0.7905481077647057
0.011759995171694721 0.807776673600682 0.7725062480759763
0.017064831804494238 0.8960392101534718 0.9133096403597432
0.09636691225020422 0.8259561486035228 0.9098111407255177
0.12282651929877714 0.9214811563013758 0.7905481077647057
0.21175999517169475 0.807776673600682 0.7725062480759763
0.21706483180449423 0.8960392101534718 0.9133096403597432
0.29636691225020423 0.8259561486035228 0.9098111407255177
0.32282651929877715 0.9214811563013758 0.7905481077647057
0.41175999517169476 0.807776673600682 0.7725062480759763
0.4170648318044943 0.8960392101534718 0.9133096403597432
0.4963669122502042 0.8259561486035228 0.9098111407255177
0.5228265192987771 0.9214811563013758 0.7905481077647057
0.6117599951716948 0.807776673600682 0.7725062480759763
0.6170648318044942 0.8960392101534718 0.9133096403597432
0.6963669122502042 0.8259561486035228 0.9098111407255177
0.7228265192987772 0.9214811563013758 0.7905481077647057
0.8117599951716947 0.807776673600682 0.7725062480759763
0.8170648318044944 0.8960392101534718 0.9133096403597432
0.8963669122502043 0.8259561486035228 0.9098111407255177
0.9228265192987772 0.9214811563013758 0.7905481077647057
0.12179157415312435 -0.025881275961827516 -0.012279053574624077
-0.0003919835105360659 0.08882814126660261 -0.023568894531254853
-0.020038704175335004 0.007250135285328101 0.10923303652021557
0.07724250084469769 0.09683078981707578 0.074107320096063
0.3217915741531243 -0.025881275961827516 -0.012279053574624077
0.19960801648946394 0.08882814126660261 -0.023568894531254853
0.17996129582466502 0.007250135285328101 0.10923303652021557
0.2772425008446977 0.09683078981707578 0.074107320096063
0.5217915741531244 -0.025881275961827516 -0.012279053574624077
0.399608016489464 0.08882814126660261 -0.023568894531254853
0.379961295824665 0.007250135285328101 0.10923303652021557
0.47724250084469766 0.09683078981707578 0.074107320096063
0.7217915741531243 -0.025881275961827516 -0.012279053574624077
0.5996080164894639 0.08882814126660261 -0.023568894531254853
0.579961295824665 0.007250135285328101 0.10923303652021557
0.6772425008446977 0.09683078981707578 0.074107320096063
0.9217915741531244 -0.025881275961827516 -0.012279053574624077
0.799608016489464 0.08882814126660261 -0.023568894531254853
0.779961295824665 0.007250135285328101 0.10923303652021557
0.8772425008446977 0.09683078981707578 0.074107320096063
0.12179157415312435 0.1741187240381725 -0.012279053574624077
-0.0003919835105360659 0.2888281412666026 -0.023568894531254853
-0.020038704175335004 0.20725013528532812 0.10923303652021557
0.07724250084469769 0.2968307898170758 0.074107320096063
0.3217915741531243 0.1741187240381725 -0.012279053574624077
0.19960801648946394 0.2888281412666026 -0.023568894531254853
0.17996129582466502 0.20725013528532812 0.10923303652021557
0.2772425008446977 0.2968307898170758 0.074107320096063
0.5217915741531244 0.1741187240381725 -0.012279053574624077
0.399608016489464 0.2888281412666026 -0.023568894531254853
0.379961295824665 0.20725013528532812 0.10923303652021557
0.47724250084469766 0.2968307898170758 0.074107320096063
0.7217915741531243 0.1741187240381725 -0.012279053574624077
0.5996080164894639 0.2888281412666026 -0.023568894531254853
0.579961295824665 0.20725013528532812 0.10923303652021557
0.6772425008446977 0.2968307898170758 0.074107320096063
0.9217915741531244 0.1741187240381725 -0.012279053574624077
0.799608016489464 0.2888281412666026 -0.023568894531254853
0.779961295824665 0.20725013528532812 0.10923303652021557
0.8772425008446977 0.2968307898170758 0.074107320096063
0.12179157415312435 0.3741187240381725 -0.012279053574624077
-0.0003919835105360659 0.4888281412666026 -0.023568894531254853
-0.020038704175335004 0.4072501352853281 0.10923303652021557
0.07724250084469769 0.4968307898170758 0.074107320096063
0.3217915741531243 0.3741187240381725 -0.012279053574624077
0.19960801648946394 0.4888281412666026 -0.023568894531254853
0.17996129582466502 0.4072501352853281 0.10923303652021557
0.2772425008446977 0.4968307898170758 0.074107320096063
0.5217915741531244 0.3741187240381725 -0.012279053574624077
0.399608016489464 0.4888281412666026 -0.023568894531254853
0.379961295824665 0.4072501352853281 0.10923303652021557
0.47724250084469766 0.4968307898170758 0.074107320096063
0.7217915741531243 0.3741187240381725 -0.012279053574624077
0.5996080164894639 0.4888281412666026 -0.023568894531254853
0.579961295824665 0.4072501352853281 0.10923303652021557
0.6772425008446977 0.4968307898170758 0.074107320096063
0.9217915741531244 0.3741187240381725 -0.012279053574624077
0.799608016489464 0.4888281412666026 -0.023568894531254853
0.779961295824665 0.4072501352853281 0.10923303652021557
0.8772425008446977 0.4968307898170758 0.074107320096063
0.12179157415312435 0.5741187240381725 -0.012279053574624077
-0.0003919835105360659 0.6888281412666026 -0.023568894531254853
-0.020038704175335004 0.6072501352853281 0.10923303652021557
0.07724250084469769 0.6968307898170758 0.074107320096063
0.3217915741531243 0.5741187240381725 -0.012279053574624077
0.19960801648946394 0.6888281412666026 -0.023568894531254853
0.17996129582466502 0.6072501352853281 0.10923303652021557
0.2772425008446977 0.6968307898170758 0.074107320096063
0.5217915741531244 0.5741187240381725 -0.012279053574624077
0.399608016489464 0.6888281412666026 -0.023568894531254853
0.379961295824665 0.6072501352853281 0.10923303652021557
0.47724250084469766 0.6968307898170758 0.074107320096063
0.7217915741531243 0.5741187240381725 -0.012279053574624077
0.5996080164894639 0.6888281412666026 -0.023568894531254853
0.579961295824665 0.6072501352853281 0.10923303652021557
0.6772425008446977 0.6968307898170758 0.074107320096063
0.9217915741531244 0.5741187240381725 -0.012279053574624077
0.799608016489464 0.6888281412666026 -0.023568894531254853
0.779961295824665 0.6072501352853281 0.10923303652021557
0.8772425008446977 0.6968307898170758 0.074107320096063
0.12179157415312435 0.7741187240381726 -0.012279053574624077
-0.0003919835105360659 0.8888281412666027 -0.023568894531254853
-0.020038704175335004 0.8072501352853282 0.10923303652021557
0.07724250084469769 0.8968307898170759 0.074107320096063
0.3217915741531243 0.7741187240381726 -0.012279053574624077
0.19960801648946394 0.8888281412666027 -0.023568894531254853
0.17996129582466502 0.8072501352853282 0.10923303652021557
0.2772425008446977 0.8968307898170759 0.074107320096063
0.5217915741531244 0.7741187240381726 -0.012279053574624077
0.399608016489464 0.8888281412666027 -0.023568894531254853
0.379961295824665 0.8072501352853282 0.10923303652021557
0.47724250084469766 0.8968307898170759 0.074107320096063
0.7217915741531243 0.7741187240381726 -0.012279053574624077
0.5996080164894639 0.8888281412666027 -0.023568894531254853
0.579961295824665 0.8072501352853282 0.10923303652021557
0.6772425008446977 0.8968307898170759 0.074107320096063
0.9217915741531244 0.7741187240381726 -0.012279053574624077
0.799608016489464 0.8888281412666027 -0.023568894531254853
0.779961295824665 0.8072501352853282 0.10923303652021557
0.8772425008446977 0.8968307898170759 0.074107320096063
0.12179157415312435 -0.025881275961827516 0.18772094642537593
-0.0003919835105360659 0.08882814126660261 0.17643110546874516
-0.020038704175335004 0.007250135285328101 0.3092330365202156
0.07724250084469769 0.09683078981707578 0.27410732009606303
0.3217915741531243 -0.025881275961827516 0.18772094642537593
0.19960801648946394 0.08882814126660261 0.17643110546874516
0.17996129582466502 0.007250135285328101 0.3092330365202156
0.2772425008446977 0.09683078981707578 0.27410732009606303
0.5217915741531244 -0.025881275961827516 0.18772094642537593
0.399608016489464 0.08882814126660261 0.17643110546874516
0.379961295824665 0.007250135285328101 0.3092330365202156
0.47724250084469766 0.09683078981707578 0.27410732009606303
0.7217915741531243 -0.025881275961827516 0.18772094642537593
0.5996080164894639 0.08882814126660261 0.17643110546874516
0.579961295824665 0.007250135285328101 0.3092330365202156
0.6772425008446977 0.09683078981707578 0.27410732009606303
0.9217915741531244 -0.025881275961827516 0.18772094642537593
0.799608016489464 0.08882814126660261 0.17643110546874516
0.779961295824665 0.007250135285328101 0.3092330365202156
0.8772425008446977 0.09683078981707578 0.27410732009606303
0.12179157415312435 0.1741187240381725 0.18772094642537593
-0.0003919835105360659 0.2888281412666026 0.17643110546874516
-0.020038704175335004 0.20725013528532812 0.3092330365202156
0.07724250084469769 0.2968307898170758 0.27410732009606303
0.3217915741531243 0.1741187240381725 0.18772094642537593
0.19960801648946394 0.2888281412666026 0.17643110546874516
0.17996129582466502 0.20725013528532812 0.3092330365202156
0.2772425008446977 0.2968307898170758 0.27410732009606303
0.5217915741531244 0.1741187240381725 0.18772094642537593
0.399608016489464 0.2888281412666026 0.17643110546874516
0.379961295824665 0.20725013528532812 0.3092330365202156
0.47724250084469766 0.2968307898170758 0.27410732009606303
0.7217915741531243 0.1741187240381725 0.18772094642537593
0.5996080164894639 0.2888281412666026 0.17643110546874516
0.579961295824665 0.20725013528532812 0.3092330365202156
0.6772425008446977 0.2968307898170758 0.27410732009606303
0.9217915741531244 0.1741187240381725 0.18772094642537593
0.799608016489464 0.2888281412666026 0.17643110546874516
0.779961295824665 0.20725013528532812 0.3092330365202156
0.8772425008446977 0.2968307898170758 0.27410732009606303
0.12179157415312435 0.3741187240381725 0.18772094642537593
-0.0003919835105360659 0.4888281412666026 0.17643110546874516
-0.020038704175335004 0.4072501352853281 0.3092330365202156
0.07724250084469769 0.4968307898170758 0.27410732009606303
0.3217915741531243 0.3741187240381725 0.18772094642537593
0.19960801648946394 0.4888281412666026 0.17643110546874516
0.17996129582466502 0.4072501352853281 0.3092330365202156
0.2772425008446977 0.4968307898170758 0.27410732009606303
0.5217915741531244 0.3741187240381725 0.18772094642537593
0.399608016489464 0.4888281412666026 0.17643110546874516
0.379961295824665 0.4072501352853281 0.3092330365202156
0.47724250084469766 0.4968307898170758 0.27410732009606303
0.7217915741531243 0.3741187240381725 0.18772094642537593
0.5996080164894639 0.4888281412666026 0.17643110546874516
0.579961295824665 0.4072501352853281 0.3092330365202156
0.6772425008446977 0.4968307898170758 0.27410732009606303
0.9217915741531244 0.3741187240381725 0.18772094642537593
0.799608016489464 0.4888281412666026 0.17643110546874516
0.779961295824665 0.4072501352853281 0.3092330365202156
0.8772425008446977 0.4968307898170758 0.27410732009606303
0.12179157415312435 0.5741187240381725 0.18772094642537593
-0.0003919835105360659 0.6888281412666026 0.17643110546874516
-0.020038704175335004 0.6072501352853281 0.3092330365202156
0.07724250084469769 0.6968307898170758 0.27410732009606303
0.3217915741531243 0.5741187240381725 0.18772094642537593
0.19960801648946394 0.6888281412666026 0.17643110546874516
0.17996129582466502 0.6072501352853281 0.3092330365202156
0.2772425008446977 0.6968307898170758 0.27410732009606303
0.5217915741531244 0.5741187240381725 0.18772094642537593
0.399608016489464 0.6888281412666026 0.17643110546874516
0.379961295824665 0.6072501352853281 0.3092330365202156
0.47724250084469766 0.6968307898170758 0.27410732009606303
0.7217915741531243 0.5741187240381725 0.18772094642537593
0.5996080164894639 0.6888281412666026 0.17643110546874516
0.579961295824665 0.6072501352853281 0.3092330365202156
0.6772425008446977 0.6968307898170758 0.27410732009606303
0.9217915741531244 0.5741187240381725 0.18772094642537593
0.799608016489464 0.6888281412666026 0.17643110546874516
0.779961295824665 0.6072501352853281 0.3092330365202156
0.8772425008446977 0.6968307898170758 0.27410732009606303
0.12179157415312435 0.7741187240381726 0.18772094642537593
-0.0003919835105360659 0.8888281412666027 0.17643110546874516
-0.020038704175335004 0.8072501352853282 0.3092330365202156
0.07724250084469769 0.8968307898170759 0.27410732009606303
0.3217915741531243 0.7741187240381726 0.18772094642537593
0.19960801648946394 0.8888281412666027 0.17643110546874516
0.17996129582466502 0.8072501352853282 0.3092330365202156
0.2772425008446977 0.8968307898170759 0.27410732009606303
0.5217915741531244 0.7741187240381726 0.18772094642537593
0.399608016489464 0.8888281412666027 0.17643110546874516
0.379961295824665 0.8072501352853282 0.3092330365202156
0.47724250084469766 0.8968307898170759 0.27410732009606303
0.7217915741531243 0.7741187240381726 0.18772094642537593
0.5996080164894639 0.8888281412666027 0.17643110546874516
0.579961295824665 0.8072501352853282 0.3092330365202156
0.6772425008446977 0.8968307898170759 0.27410732009606303
0.9217915741531244 0.7741187240381726 0.18772094642537593
0.799608016489464 0.8888281412666027 0.17643110546874516
0.779961295824665 0.8072501352853282 0.3092330365202156
0.8772425008446977 0.8968307898170759 0.27410732009606303
0.12179157415312435 -0.025881275961827516 0.3877209464253759
-0.0003919835105360659 0.08882814126660261 0.3764311054687452
-0.020038704175335004 0.007250135285328101 0.5092330365202156
0.07724250084469769 0.09683078981707578 0.474107320096063
0.3217915741531243 -0.025881275961827516 0.3877209464253759
0.19960801648946394 0.08882814126660261 0.3764311054687452
0.17996129582466502 0.007250135285328101 0.5092330365202156
0.2772425008446977 0.09683078981707578 0.474107320096063
0.5217915741531244 -0.025881275961827516 0.3877209464253759
0.399608016489464 0.08882814126660261 0.3764311054687452
0.379961295824665 0.007250135285328101 0.5092330365202156
0.47724250084469766 0.09683078981707578 0.474107320096063
0.7217915741531243 -0.025881275961827516 0.3877209464253759
0.5996080164894639 0.08882814126660261 0.3764311054687452
0.579961295824665 0.007250135285328101 0.5092330365202156
0.6772425008446977 0.09683078981707578 0.474107320096063
0.9217915741531244 -0.025881275961827516 0.3877209464253759
0.799608016489464 0.08882814126660261 0.3764311054687452
0.779961295824665 0.007250135285328101 0.5092330365202156
0.8772425008446977 0.09683078981707578 0.474107320096063
0.12179157415312435 0.1741187240381725 0.3877209464253759
-0.0003919835105360659 0.2888281412666026 0.3764311054687452
-0.020038704175335004 0.20725013528532812 0.5092330365202156
0.07724250084469769 0.2968307898170758 0.474107320096063
0.3217915741531243 0.1741187240381725 0.3877209464253759
0.19960801648946394 0.2888281412666026 0.3764311054687452
0.17996129582466502 0.20725013528532812 0.5092330365202156
0.2772425008446977 0.2968307898170758 0.474107320096063
0.5217915741531244 0.1741187240381725 0.3877209464253759
0.399608016489464 0.2888281412666026 0.3764311054687452
0.379961295824665 0.20725013528532812 0.5092330365202156
0.47724250084469766 0.2968307898170758 0.474107320096063
0.7217915741531243 0.1741187240381725 0.3877209464253759
0.5996080164894639 0.2888281412666026 0.3764311054687452
0.579961295824665 0.20725013528532812 0.5092330365202156
0.6772425008446977 0.2968307898170758 0.474107320096063
0.9217915741531244 0.1741187240381725 0.3877209464253759
0.799608016489464 0.2888281412666026 0.3764311054687452
0.779961295824665 0.20725013528532812 0.5092330365202156
0.8772425008446977 0.2968307898170758 0.474107320096063
0.12179157415312435 0.3741187240381725 0.3877209464253759
-0.0003919835105360659 0.4888281412666026 0.3764311054687452
-0.020038704175335004 0.4072501352853281 0.5092330365202156
0.07724250084469769 0.4968307898170758 0.474107320096063
0.3217915741531243 0.3741187240381725 0.3877209464253759
0.19960801648946394 0.4888281412666026 0.3764311054687452
0.17996129582466502 0.4072501352853281 0.5092330365202156
0.2772425008446977 0.4968307898170758 0.474107320096063
0.5217915741531244 0.3741187240381725 0.3877209464253759
0.399608016489464 0.4888281412666026 0.3764311054687452
0.379961295824665 0.4072501352853281 0.5092330365202156
0.47724250084469766 0.4968307898170758 0.474107320096063
0.7217915741531243 0.3741187240381725 0.3877209464253759
0.5996080164894639 0.4888281412666026 0.3764311054687452
0.579961295824665 0.4072501352853281 0.5092330365202156
0.6772425008446977 0.4968307898170758 0.474107320096063
0.9217915741531244 0.3741187240381725 0.3877209464253759
0.799608016489464 0.4888281412666026 0.3764311054687452
0.779961295824665 0.4072501352853281 0.5092330365202156
0.8772425008446977 0.4968307898170758 0.474107320096063
0.12179157415312435 0.5741187240381725 0.3877209464253759
-0.0003919835105360659 0.6888281412666026 0.3764311054687452
-0.020038704175335004 0.6072501352853281 0.5092330365202156
0.07724250084469769 0.6968307898170758 0.474107320096063
0.3217915741531243 0.5741187240381725 0.3877209464253759
0.19960801648946394 0.6888281412666026 0.3764311054687452
0.17996129582466502 0.6072501352853281 0.5092330365202156
0.2772425008446977 0.6968307898170758 0.474107320096063
0.5217915741531244 0.5741187240381725 0.3877209464253759
0.399608016489464 0.6888281412666026 0.3764311054687452
0.379961295824665 0.6072501352853281 0.5092330365202156
0.47724250084469766 0.6968307898170758 0.474107320096063
0.7217915741531243 0.5741187240381725 0.3877209464253759
0.5996080164894639 0.6888281412666026 0.3764311054687452
0.579961295824665 0.6072501352853281 0.5092330365202156
0.6772425008446977 0.6968307898170758 0.474107320096063
0.9217915741531244 0.5741187240381725 0.3877209464253759
0.799608016489464 0.6888281412666026 0.3764311054687452
0.779961295824665 0.6072501352853281 0.5092330365202156
0.8772425008446977 0.6968307898170758 0.474107320096063
0.12179157415312435 0.7741187240381726 0.3877209464253759
-0.0003919835105360659 0.8888281412666027 0.3764311054687452
-0.020038704175335004 0.8072501352853282 0.5092330365202156
0.07724250084469769 0.8968307898170759 0.474107320096063
0.3217915741531243 0.7741187240381726 0.3877209464253759
0.19960801648946394 0.8888281412666027 0.3764311054687452
0.17996129582466502 0.8072501352853282 0.5092330365202156
0.2772425008446977 0.8968307898170759 0.474107320096063
0.5217915741531244 0.7741187240381726 0.3877209464253759
0.399608016489464 0.8888281412666027 0.3764311054687452
0.379961295824665 0.8072501352853282 0.5092330365202156
0.47724250084469766 0.8968307898170759 0.474107320096063
0.7217915741531243 0.7741187240381726 0.3877209464253759
0.5996080164894639 0.8888281412666027 0.3764311054687452
0.579961295824665 0.8072501352853282 0.5092330365202156
0.6772425008446977 0.8968307898170759 0.474107320096063
0.9217915741531244 0.7741187240381726 0.3877209464253759
0.799608016489464 0.8888281412666027 0.3764311054687452
0.779961295824665 0.8072501352853282 0.5092330365202156
0.8772425008446977 0.8968307898170759 0.474107320096063
0.12179157415312435 -0.025881275961827516 0.587720946425376
-0.0003919835105360659 0.08882814126660261 0.5764311054687451
-0.020038704175335004 0.007250135285328101 0.7092330365202155
0.07724250084469769 0.09683078981707578 0.674107320096063
0.3217915741531243 -0.025881275961827516 0.587720946425376
0.19960801648946394 0.08882814126660261 0.5764311054687451
0.17996129582466502 0.007250135285328101 0.7092330365202155
0.2772425008446977 0.09683078981707578 0.674107320096063
0.5217915741531244 -0.025881275961827516 0.587720946425376
0.399608016489464 0.08882814126660261 0.5764311054687451
0.379961295824665 0.007250135285328101 0.7092330365202155
0.47724250084469766 0.09683078981707578 0.674107320096063
0.7217915741531243 -0.025881275961827516 0.587720946425376
0.5996080164894639 0.08882814126660261 0.5764311054687451
0.579961295824665 0.007250135285328101 0.7092330365202155
0.6772425008446977 0.09683078981707578 0.674107320096063
0.9217915741531244 -0.025881275961827516 0.587720946425376
0.799608016489464 0.08882814126660261 0.5764311054687451
0.779961295824665 0.007250135285328101 0.7092330365202155
0.8772425008446977 0.09683078981707578 0.674107320096063
0.12179157415312435 0.1741187240381725 0.587720946425376
-0.0003919835105360659 0.2888281412666026 0.5764311054687451
-0.020038704175335004 0.20725013528532812 0.7092330365202155
0.07724250084469769 0.2968307898170758 0.674107320096063
0.3217915741531243 0.1741187240381725 0.587720946425376
0.19960801648946394 0.2888281412666026 0.5764311054687451
0.17996129582466502 0.20725013528532812 0.7092330365202155
0.2772425008446977 0.2968307898170758 0.674107320096063
0.5217915741531244 0.1741187240381725 0.587720946425376
0.399608016489464 0.2888281412666026 0.5764311054687451
0.379961295824665 0.20725013528532812 0.7092330365202155
0.47724250084469766 0.2968307898170758 0.674107320096063
0.7217915741531243 0.1741187240381725 0.587720946425376
0.5996080164894639 0.2888281412666026 0.5764311054687451
0.579961295824665 0.20725013528532812 0.7092330365202155
0.6772425008446977 0.2968307898170758 0.674107320096063
0.9217915741531244 0.1741187240381725 0.587720946425376
0.799608016489464 0.2888281412666026 0.5764311054687451
0.779961295824665 0.20725013528532812 0.7092330365202155
0.8772425008446977 0.2968307898170758 0.674107320096063
0.12179157415312435 0.3741187240381725 0.587720946425376
-0.0003919835105360659 0.4888281412666026 0.5764311054687451
-0.020038704175335004 0.4072501352853281 0.7092330365202155
0.07724250084469769 0.4968307898170758 0.674107320096063
0.3217915741531243 0.3741187240381725 0.587720946425376
0.19960801648946394 0.4888281412666026 0.5764311054687451
0.17996129582466502 0.4072501352853281 0.7092330365202155
0.2772425008446977 0.4968307898170758 0.674107320096063
0.5217915741531244 0.3741187240381725 0.587720946425376
0.399608016489464 0.4888281412666026 0.5764311054687451
0.379961295824665 0.4072501352853281 0.7092330365202155
0.47724250084469766 0.4968307898170758 0.674107320096063
0.7217915741531243 0.3741187240381725 0.587720946425376
0.5996080164894639 0.4888281412666026 0.5764311054687451
0.579961295824665 0.4072501352853281 0.7092330365202155
0.6772425008446977 0.4968307898170758 0.674107320096063
0.9217915741531244 0.3741187240381725 0.587720946425376
0.799608016489464 0.4888281412666026 0.5764311054687451
0.779961295824665 0.4072501352853281 0.7092330365202155
0.8772425008446977 0.4968307898170758 0.674107320096063
0.12179157415312435 0.5741187240381725 0.587720946425376
-0.0003919835105360659 0.6888281412666026 0.5764311054687451
-0.020038704175335004 0.6072501352853281 0.7092330365202155
0.07724250084469769 0.6968307898170758 0.674107320096063
0.3217915741531243 0.5741187240381725 0.587720946425376
0.19960801648946394 0.6888281412666026 0.5764311054687451
0.17996129582466502 0.6072501352853281 0.7092330365202155
0.2772425008446977 0.6968307898170758 0.674107320096063
0.5217915741531244 0.5741187240381725 0.587720946425376
0.399608016489464 0.6888281412666026 0.5764311054687451
0.379961295824665 0.6072501352853281 0.7092330365202155
0.47724250084469766 0.6968307898170758 0.674107320096063
0.7217915741531243 0.5741187240381725 0.587720946425376
0.5996080164894639 0.6888281412666026 0.5764311054687451
0.579961295824665 0.6072501352853281 0.7092330365202155
0.6772425008446977 0.6968307898170758 0.674107320096063
0.9217915741531244 0.5741187240381725 0.587720946425376
0.799608016489464 0.6888281412666026 0.5764311054687451
0.779961295824665 0.6072501352853281 0.7092330365202155
0.8772425008446977 0.6968307898170758 0.674107320096063
0.12179157415312435 0.7741187240381726 0.587720946425376
-0.0003919835105360659 0.8888281412666027 0.5764311054687451
-0.020038704175335004 0.8072501352853282 0.7092330365202155
0.07724250084469769 0.8968307898170759 0.674107320096063
0.3217915741531243 0.7741187240381726 0.587720946425376
0.19960801648946394 0.8888281412666027 0.5764311054687451
0.17996129582466502 0.8072501352853282 0.7092330365202155
0.2772425008446977 0.8968307898170759 0.674107320096063
0.5217915741531244 0.7741187240381726 0.587720946425376
0.399608016489464 0.8888281412666027 0.5764311054687451
0.379961295824665 0.8072501352853282 0.7092330365202155
0.47724250084469766 0.8968307898170759 0.674107320096063
0.7217915741531243 0.7741187240381726 0.587720946425376
0.5996080164894639 0.8888281412666027 0.5764311054687451
0.579961295824665 0.8072501352853282 0.7092330365202155
0.6772425008446977 0.8968307898170759 0.674107320096063
0.9217915741531244 0.7741187240381726 0.587720946425376
0.799608016489464 0.8888281412666027 0.5764311054687451
0.779961295824665 0.8072501352853282 0.7092330365202155
0.8772425008446977 0.8968307898170759 0.674107320096063
0.12179157415312435 -0.025881275961827516 0.787720946425376
-0.0003919835105360659 0.08882814126660261 0.7764311054687452
-0.020038704175335004 0.007250135285328101 0.9092330365202156
0.07724250084469769 0.09683078981707578 0.874107320096063
0.3217915741531243 -0.025881275961827516 0.787720946425376
0.19960801648946394 0.08882814126660261 0.7764311054687452
0.17996129582466502 0.007250135285328101 0.9092330365202156
0.2772425008446977 0.09683078981707578 0.874107320096063
0.5217915741531244 -0.025881275961827516 0.787720946425376
0.399608016489464 0.08882814126660261 0.7764311054687452
0.379961295824665 0.007250135285328101 0.9092330365202156
0.47724250084469766 0.09683078981707578 0.874107320096063
0.7217915741531243 -0.025881275961827516 0.787720946425376
0.5996080164894639 0.08882814126660261 0.7764311054687452
0.579961295824665 0.007250135285328101 0.9092330365202156
0.6772425008446977 0.09683078981707578 0.874107320096063
0.9217915741531244 -0.025881275961827516 0.787720946425376
0.799608016489464 0.08882814126660261 0.7764311054687452
0.779961295824665 0.007250135285328101 0.9092330365202156
0.8772425008446977 0.09683078981707578 0.874107320096063
0.12179157415312435 0.1741187240381725 0.787720946425376
-0.0003919835105360659 0.2888281412666026 0.7764311054687452
-0.020038704175335004 0.20725013528532812 0.9092330365202156
0.07724250084469769 0.2968307898170758 0.874107320096063
0.3217915741531243 0.1741187240381725 0.787720946425376
0.19960801648946394 0.2888281412666026 0.7764311054687452
0.17996129582466502 0.20725013528532812 0.9092330365202156
0.2772425008446977 0.2968307898170758 0.874107320096063
0.5217915741531244 0.1741187240381725 0.787720946425376
0.399608016489464 0.2888281412666026 0.7764311054687452
0.379961295824665 0.20725013528532812 0.9092330365202156
0.47724250084469766 0.2968307898170758 0.874107320096063
0.7217915741531243 0.1741187240381725 0.787720946425376
0.5996080164894639 0.2888281412666026 0.7764311054687452
0.579961295824665 0.20725013528532812 0.9092330365202156
0.6772425008446977 0.2968307898170758 0.874107320096063
0.9217915741531244 0.1741187240381725 0.787720946425376
0.799608016489464 0.2888281412666026 0.7764311054687452
0.779961295824665 0.20725013528532812 0.9092330365202156
0.8772425008446977 0.2968307898170758 0.874107320096063
0.12179157415312435 0.3741187240381725 0.787720946425376
-0.0003919835105360659 0.4888281412666026 0.7764311054687452
-0.020038704175335004 0.4072501352853281 0.9092330365202156
0.07724250084469769 0.4968307898170758 0.874107320096063
0.3217915741531243 0.3741187240381725 0.787720946425376
0.19960801648946394 0.4888281412666026 0.7764311054687452
0.17996129582466502 0.4072501352853281 0.9092330365202156
0.2772425008446977 0.4968307898170758 0.874107320096063
0.5217915741531244 0.3741187240381725 0.787720946425376
0.399608016489464 0.4888281412666026 0.7764311054687452
0.379961295824665 0.4072501352853281 0.9092330365202156
0.47724250084469766 0.4968307898170758 0.874107320096063
0.7217915741531243 0.3741187240381725 0.787720946425376
0.5996080164894639 0.4888281412666026 0.7764311054687452
0.579961295824665 0.4072501352853281 0.9092330365202156
0.6772425008446977 0.4968307898170758 0.874107320096063
0.9217915741531244 0.3741187240381725 0.787720946425376
0.799608016489464 0.4888281412666026 0.7764311054687452
0.779961295824665 0.4072501352853281 0.9092330365202156
0.8772425008446977 0.4968307898170758 0.874107320096063
0.12179157415312435 0.5741187240381725 0.787720946425376
-0.0003919835105360659 0.6888281412666026 0.7764311054687452
-0.020038704175335004 0.6072501352853281 0.9092330365202156
0.07724250084469769 0.6968307898170758 0.874107320096063
0.3217915741531243 0.5741187240381725 0.787720946425376
0.19960801648946394 0.6888281412666026 0.7764311054687452
0.17996129582466502 0.6072501352853281 0.9092330365202156
0.2772425008446977 0.6968307898170758 0.874107320096063
0.5217915741531244 0.5741187240381725 0.787720946425376
0.399608016489464 0.6888281412666026 0.7764311054687452
0.379961295824665 0.6072501352853281 0.9092330365202156
0.47724250084469766 0.6968307898170758 0.874107320096063
0.7217915741531243 0.5741187240381725 0.787720946425376
0.5996080164894639 0.6888281412666026 0.7764311054687452
0.579961295824665 0.6072501352853281 0.9092330365202156
0.6772425008446977 0.6968307898170758 0.874107320096063
0.9217915741531244 0.5741187240381725 0.787720946425376
0.799608016489464 0.6888281412666026 0.7764311054687452
0.779961295824665 0.6072501352853281 0.9092330365202156
0.8772425008446977 0.6968307898170758 0.874107320096063
0.12179157415312435 0.7741187240381726 0.787720946425376
-0.0003919835105360659 0.8888281412666027 0.7764311054687452
-0.020038704175335004 0.8072501352853282 0.9092330365202156
0.07724250084469769 0.8968307898170759 0.874107320096063
0.3217915741531243 0.7741187240381726 0.787720946425376
0.19960801648946394 0.8888281412666027 0.7764311054687452
0.17996129582466502 0.8072501352853282 0.9092330365202156
0.2772425008446977 0.8968307898170759 0.874107320096063
0.5217915741531244 0.7741187240381726 0.787720946425376
0.399608016489464 0.8888281412666027 0.7764311054687452
0.379961295824665 0.8072501352853282 0.9092330365202156
0.47724250084469766 0.8968307898170759 0.874107320096063
0.7217915741531243 0.7741187240381726 0.787720946425376
0.5996080164894639 0.8888281412666027 0.7764311054687452
0.579961295824665 0.8072501352853282 0.9092330365202156
0.6772425008446977 0.8968307898170759 0.874107320096063
0.9217915741531244 0.7741187240381726 0.787720946425376
0.799608016489464 0.8888281412666027 0.7764311054687452
0.779961295824665 0.8072501352853282 0.9092330365202156
0.8772425008446977 0.8968307898170759 0.874107320096063
