FCC BaO
3.971
5.0 0.0 0.0
0.0 5.0 0.0
0.0 0.0 5.0
Ba O 
500 500 
Direct
0.0015903128373431488 -0.025666443709059468 -0.02225987408027124
0.017521724235050027 0.0763405469654932 0.08364704393492103
0.1229747459143225 -0.02902478872245817 0.1271417213739848
0.10606878701495795 0.11067480160424092 0.01239072802884973
0.2015903128373432 -0.025666443709059468 -0.02225987408027124
0.21752172423505 0.0763405469654932 0.08364704393492103
0.3229747459143225 -0.02902478872245817 0.1271417213739848
0.306068787014958 0.11067480160424092 0.01239072802884973
0.4015903128373432 -0.025666443709059468 -0.02225987408027124
0.4175217242350501 0.0763405469654932 0.08364704393492103
0.5229747459143225 -0.02902478872245817 0.1271417213739848
0.5060687870149579 0.11067480160424092 0.01239072802884973
0.6015903128373432 -0.025666443709059468 -0.02225987408027124
0.6175217242350501 0.0763405469654932 0.08364704393492103
0.7229747459143225 -0.02902478872245817 0.1271417213739848
0.706068787014958 0.11067480160424092 0.01239072802884973
0.8015903128373432 -0.025666443709059468 -0.02225987408027124
0.8175217242350501 0.0763405469654932 0.08364704393492103
0.9229747459143225 -0.02902478872245817 0.1271417213739848
0.906068787014958 0.11067480160424092 0.01239072802884973
0.0015903128373431488 0.17433355629094055 -0.02225987408027124
0.017521724235050027 0.2763405469654932 0.08364704393492103
0.1229747459143225 0.17097521127754184 0.1271417213739848
0.10606878701495795 0.31067480160424094 0.01239072802884973
0.2015903128373432 0.17433355629094055 -0.02225987408027124
0.21752172423505 0.2763405469654932 0.08364704393492103
0.3229747459143225 0.17097521127754184 0.1271417213739848
0.306068787014958 0.31067480160424094 0.01239072802884973
0.4015903128373432 0.17433355629094055 -0.02225987408027124
0.4175217242350501 0.2763405469654932 0.08364704393492103
0.5229747459143225 0.17097521127754184 0.1271417213739848
0.5060687870149579 0.31067480160424094 0.01239072802884973
0.6015903128373432 0.17433355629094055 -0.02225987408027124
0.6175217242350501 0.2763405469654932 0.08364704393492103
0.7229747459143225 0.17097521127754184 0.1271417213739848
0.706068787014958 0.31067480160424094 0.01239072802884973
0.8015903128373432 0.17433355629094055 -0.02225987408027124
0.8175217242350501 0.2763405469654932 0.08364704393492103
0.9229747459143225 0.17097521127754184 0.1271417213739848
0.906068787014958 0.31067480160424094 0.01239072802884973
0.0015903128373431488 0.37433355629094056 -0.02225987408027124
0.017521724235050027 0.47634054696549316 0.08364704393492103
0.1229747459143225 0.37097521127754185 0.1271417213739848
0.10606878701495795 0.510674801604241 0.01239072802884973
0.2015903128373432 0.37433355629094056 -0.02225987408027124
0.21752172423505 0.47634054696549316 0.08364704393492103
0.3229747459143225 0.37097521127754185 0.1271417213739848
0.306068787014958 0.510674801604241 0.01239072802884973
0.4015903128373432 0.37433355629094056 -0.02225987408027124
0.4175217242350501 0.47634054696549316 0.08364704393492103
0.5229747459143225 0.37097521127754185 0.1271417213739848
0.5060687870149579 0.510674801604241 0.01239072802884973
0.6015903128373432 0.37433355629094056 -0.02225987408027124
0.6175217242350501 0.47634054696549316 0.08364704393492103
0.7229747459143225 0.37097521127754185 0.1271417213739848
0.706068787014958 0.510674801604241 0.01239072802884973
0.8015903128373432 0.37433355629094056 -0.02225987408027124
0.8175217242350501 0.47634054696549316 0.08364704393492103
0.9229747459143225 0.37097521127754185 0.1271417213739848
0.906068787014958 0.510674801604241 0.01239072802884973
0.0015903128373431488 0.5743335562909405 -0.02225987408027124
0.017521724235050027 0.6763405469654932 0.08364704393492103
0.1229747459143225 0.5709752112775418 0.1271417213739848
0.10606878701495795 0.710674801604241 0.01239072802884973
0.2015903128373432 0.5743335562909405 -0.02225987408027124
0.21752172423505 0.6763405469654932 0.08364704393492103
0.3229747459143225 0.5709752112775418 0.1271417213739848
0.306068787014958 0.710674801604241 0.01239072802884973
0.4015903128373432 0.5743335562909405 -0.02225987408027124
0.4175217242350501 0.6763405469654932 0.08364704393492103
0.5229747459143225 0.5709752112775418 0.1271417213739848
0.5060687870149579 0.710674801604241 0.01239072802884973
0.6015903128373432 0.5743335562909405 -0.02225987408027124
0.6175217242350501 0.6763405469654932 0.08364704393492103
0.7229747459143225 0.5709752112775418 0.1271417213739848
0.706068787014958 0.710674801604241 0.01239072802884973
0.8015903128373432 0.5743335562909405 -0.02225987408027124
0.8175217242350501 0.6763405469654932 0.08364704393492103
0.9229747459143225 0.5709752112775418 0.1271417213739848
0.906068787014958 0.710674801604241 0.01239072802884973
0.0015903128373431488 0.7743335562909406 -0.02225987408027124
0.017521724235050027 0.8763405469654932 0.08364704393492103
0.1229747459143225 0.7709752112775419 0.1271417213739848
0.10606878701495795 0.910674801604241 0.01239072802884973
0.2015903128373432 0.7743335562909406 -0.02225987408027124
0.21752172423505 0.8763405469654932 0.08364704393492103
0.3229747459143225 0.7709752112775419 0.1271417213739848
0.306068787014958 0.910674801604241 0.01239072802884973
0.4015903128373432 0.7743335562909406 -0.02225987408027124
0.4175217242350501 0.8763405469654932 0.08364704393492103
0.5229747459143225 0.7709752112775419 0.1271417213739848
0.5060687870149579 0.910674801604241 0.01239072802884973
0.6015903128373432 0.7743335562909406 -0.02225987408027124
0.6175217242350501 0.8763405469654932 0.08364704393492103
0.7229747459143225 0.7709752112775419 0.1271417213739848
0.706068787014958 0.910674801604241 0.01239072802884973
0.8015903128373432 0.7743335562909406 -0.02225987408027124
0.8175217242350501 0.8763405469654932 0.08364704393492103
0.9229747459143225 0.7709752112775419 0.1271417213739848
0.906068787014958 0.910674801604241 0.01239072802884973
0.0015903128373431488 -0.025666443709059468 0.17774012591972876
0.017521724235050027 0.0763405469654932 0.283647043934921
0.1229747459143225 -0.02902478872245817 0.3271417213739848
0.10606878701495795 0.11067480160424092 0.21239072802884973
0.2015903128373432 -0.025666443709059468 0.17774012591972876
0.21752172423505 0.0763405469654932 0.283647043934921
0.3229747459143225 -0.02902478872245817 0.3271417213739848
0.306068787014958 0.11067480160424092 0.21239072802884973
0.4015903128373432 -0.025666443709059468 0.17774012591972876
0.4175217242350501 0.0763405469654932 0.283647043934921
0.5229747459143225 -0.02902478872245817 0.3271417213739848
0.5060687870149579 0.11067480160424092 0.21239072802884973
0.6015903128373432 -0.025666443709059468 0.17774012591972876
0.6175217242350501 0.0763405469654932 0.283647043934921
0.7229747459143225 -0.02902478872245817 0.3271417213739848
0.706068787014958 0.11067480160424092 0.21239072802884973
0.8015903128373432 -0.025666443709059468 0.17774012591972876
0.8175217242350501 0.0763405469654932 0.283647043934921
0.9229747459143225 -0.02902478872245817 0.3271417213739848
0.906068787014958 0.11067480160424092 0.21239072802884973
0.0015903128373431488 0.17433355629094055 0.17774012591972876
0.017521724235050027 0.2763405469654932 0.283647043934921
0.1229747459143225 0.17097521127754184 0.3271417213739848
0.10606878701495795 0.31067480160424094 0.21239072802884973
0.2015903128373432 0.17433355629094055 0.17774012591972876
0.21752172423505 0.2763405469654932 0.283647043934921
0.3229747459143225 0.17097521127754184 0.3271417213739848
0.306068787014958 0.31067480160424094 0.21239072802884973
0.4015903128373432 0.17433355629094055 0.17774012591972876
0.4175217242350501 0.2763405469654932 0.283647043934921
0.5229747459143225 0.17097521127754184 0.3271417213739848
0.5060687870149579 0.31067480160424094 0.21239072802884973
0.6015903128373432 0.17433355629094055 0.17774012591972876
0.6175217242350501 0.2763405469654932 0.283647043934921
0.7229747459143225 0.17097521127754184 0.3271417213739848
0.706068787014958 0.31067480160424094 0.21239072802884973
0.8015903128373432 0.17433355629094055 0.17774012591972876
0.8175217242350501 0.2763405469654932 0.283647043934921
0.9229747459143225 0.17097521127754184 0.3271417213739848
0.906068787014958 0.31067480160424094 0.21239072802884973
0.0015903128373431488 0.37433355629094056 0.17774012591972876
0.017521724235050027 0.47634054696549316 0.283647043934921
0.1229747459143225 0.37097521127754185 0.3271417213739848
0.10606878701495795 0.510674801604241 0.21239072802884973
0.2015903128373432 0.37433355629094056 0.17774012591972876
0.21752172423505 0.47634054696549316 0.283647043934921
0.3229747459143225 0.37097521127754185 0.3271417213739848
0.306068787014958 0.510674801604241 0.21239072802884973
0.4015903128373432 0.37433355629094056 0.17774012591972876
0.4175217242350501 0.47634054696549316 0.283647043934921
0.5229747459143225 0.37097521127754185 0.3271417213739848
0.5060687870149579 0.510674801604241 0.21239072802884973
0.6015903128373432 0.37433355629094056 0.17774012591972876
0.6175217242350501 0.47634054696549316 0.283647043934921
0.7229747459143225 0.37097521127754185 0.3271417213739848
0.706068787014958 0.510674801604241 0.21239072802884973
0.8015903128373432 0.37433355629094056 0.17774012591972876
0.8175217242350501 0.47634054696549316 0.283647043934921
0.9229747459143225 0.37097521127754185 0.3271417213739848
0.906068787014958 0.510674801604241 0.21239072802884973
0.0015903128373431488 0.5743335562909405 0.17774012591972876
0.017521724235050027 0.6763405469654932 0.283647043934921
0.1229747459143225 0.5709752112775418 0.3271417213739848
0.10606878701495795 0.710674801604241 0.21239072802884973
0.2015903128373432 0.5743335562909405 0.17774012591972876
0.21752172423505 0.6763405469654932 0.283647043934921
0.3229747459143225 0.5709752112775418 0.3271417213739848
0.306068787014958 0.710674801604241 0.21239072802884973
0.4015903128373432 0.5743335562909405 0.17774012591972876
0.4175217242350501 0.6763405469654932 0.283647043934921
0.5229747459143225 0.5709752112775418 0.3271417213739848
0.5060687870149579 0.710674801604241 0.21239072802884973
0.6015903128373432 0.5743335562909405 0.17774012591972876
0.6175217242350501 0.6763405469654932 0.283647043934921
0.7229747459143225 0.5709752112775418 0.3271417213739848
0.706068787014958 0.710674801604241 0.21239072802884973
0.8015903128373432 0.5743335562909405 0.17774012591972876
0.8175217242350501 0.6763405469654932 0.283647043934921
0.9229747459143225 0.5709752112775418 0.3271417213739848
0.906068787014958 0.710674801604241 0.21239072802884973
0.0015903128373431488 0.7743335562909406 0.17774012591972876
0.017521724235050027 0.8763405469654932 0.283647043934921
0.1229747459143225 0.7709752112775419 0.3271417213739848
0.10606878701495795 0.910674801604241 0.21239072802884973
0.2015903128373432 0.7743335562909406 0.17774012591972876
0.21752172423505 0.8763405469654932 0.283647043934921
0.3229747459143225 0.7709752112775419 0.3271417213739848
0.306068787014958 0.910674801604241 0.21239072802884973
0.4015903128373432 0.7743335562909406 0.17774012591972876
0.4175217242350501 0.8763405469654932 0.283647043934921
0.5229747459143225 0.7709752112775419 0.3271417213739848
0.5060687870149579 0.910674801604241 0.21239072802884973
0.6015903128373432 0.7743335562909406 0.17774012591972876
0.6175217242350501 0.8763405469654932 0.283647043934921
0.7229747459143225 0.7709752112775419 0.3271417213739848
0.706068787014958 0.910674801604241 0.21239072802884973
0.8015903128373432 0.7743335562909406 0.17774012591972876
0.8175217242350501 0.8763405469654932 0.283647043934921
0.9229747459143225 0.7709752112775419 0.3271417213739848
0.906068787014958 0.910674801604241 0.21239072802884973
0.0015903128373431488 -0.025666443709059468 0.3777401259197288
0.017521724235050027 0.0763405469654932 0.4836470439349211
0.1229747459143225 -0.02902478872245817 0.5271417213739847
0.10606878701495795 0.11067480160424092 0.41239072802884974
0.2015903128373432 -0.025666443709059468 0.3777401259197288
0.21752172423505 0.0763405469654932 0.4836470439349211
0.3229747459143225 -0.02902478872245817 0.5271417213739847
0.306068787014958 0.11067480160424092 0.41239072802884974
0.4015903128373432 -0.025666443709059468 0.3777401259197288
0.4175217242350501 0.0763405469654932 0.4836470439349211
0.5229747459143225 -0.02902478872245817 0.5271417213739847
0.5060687870149579 0.11067480160424092 0.41239072802884974
0.6015903128373432 -0.025666443709059468 0.3777401259197288
0.6175217242350501 0.0763405469654932 0.4836470439349211
0.7229747459143225 -0.02902478872245817 0.5271417213739847
0.706068787014958 0.11067480160424092 0.41239072802884974
0.8015903128373432 -0.025666443709059468 0.3777401259197288
0.8175217242350501 0.0763405469654932 0.4836470439349211
0.9229747459143225 -0.02902478872245817 0.5271417213739847
0.906068787014958 0.11067480160424092 0.41239072802884974
0.0015903128373431488 0.17433355629094055 0.3777401259197288
0.017521724235050027 0.2763405469654932 0.4836470439349211
0.1229747459143225 0.17097521127754184 0.5271417213739847
0.10606878701495795 0.31067480160424094 0.41239072802884974
0.2015903128373432 0.17433355629094055 0.3777401259197288
0.21752172423505 0.2763405469654932 0.4836470439349211
0.3229747459143225 0.17097521127754184 0.5271417213739847
0.306068787014958 0.31067480160424094 0.41239072802884974
0.4015903128373432 0.17433355629094055 0.3777401259197288
0.4175217242350501 0.2763405469654932 0.4836470439349211
0.5229747459143225 0.17097521127754184 0.5271417213739847
0.5060687870149579 0.31067480160424094 0.41239072802884974
0.6015903128373432 0.17433355629094055 0.3777401259197288
0.6175217242350501 0.2763405469654932 0.4836470439349211
0.7229747459143225 0.17097521127754184 0.5271417213739847
0.706068787014958 0.31067480160424094 0.41239072802884974
0.8015903128373432 0.17433355629094055 0.3777401259197288
0.8175217242350501 0.2763405469654932 0.4836470439349211
0.9229747459143225 0.17097521127754184 0.5271417213739847
0.906068787014958 0.31067480160424094 0.41239072802884974
0.0015903128373431488 0.37433355629094056 0.3777401259197288
0.017521724235050027 0.47634054696549316 0.4836470439349211
0.1229747459143225 0.37097521127754185 0.5271417213739847
0.10606878701495795 0.510674801604241 0.41239072802884974
0.2015903128373432 0.37433355629094056 0.3777401259197288
0.21752172423505 0.47634054696549316 0.4836470439349211
0.3229747459143225 0.37097521127754185 0.5271417213739847
0.306068787014958 0.510674801604241 0.41239072802884974
0.4015903128373432 0.37433355629094056 0.3777401259197288
0.4175217242350501 0.47634054696549316 0.4836470439349211
0.5229747459143225 0.37097521127754185 0.5271417213739847
0.5060687870149579 0.510674801604241 0.41239072802884974
0.6015903128373432 0.37433355629094056 0.3777401259197288
0.6175217242350501 0.47634054696549316 0.4836470439349211
0.7229747459143225 0.37097521127754185 0.5271417213739847
0.706068787014958 0.510674801604241 0.41239072802884974
0.8015903128373432 0.37433355629094056 0.3777401259197288
0.8175217242350501 0.47634054696549316 0.4836470439349211
0.9229747459143225 0.37097521127754185 0.5271417213739847
0.906068787014958 0.510674801604241 0.41239072802884974
0.0015903128373431488 0.5743335562909405 0.3777401259197288
0.017521724235050027 0.6763405469654932 0.4836470439349211
0.1229747459143225 0.5709752112775418 0.5271417213739847
0.10606878701495795 0.710674801604241 0.41239072802884974
0.2015903128373432 0.5743335562909405 0.3777401259197288
0.21752172423505 0.6763405469654932 0.4836470439349211
0.3229747459143225 0.5709752112775418 0.5271417213739847
0.306068787014958 0.710674801604241 0.41239072802884974
0.4015903128373432 0.5743335562909405 0.3777401259197288
0.4175217242350501 0.6763405469654932 0.4836470439349211
0.5229747459143225 0.5709752112775418 0.5271417213739847
0.5060687870149579 0.710674801604241 0.41239072802884974
0.6015903128373432 0.5743335562909405 0.3777401259197288
0.6175217242350501 0.6763405469654932 0.4836470439349211
0.7229747459143225 0.5709752112775418 0.5271417213739847
0.706068787014958 0.710674801604241 0.41239072802884974
0.8015903128373432 0.5743335562909405 0.3777401259197288
0.8175217242350501 0.6763405469654932 0.4836470439349211
0.9229747459143225 0.5709752112775418 0.5271417213739847
0.906068787014958 0.710674801604241 0.41239072802884974
0.0015903128373431488 0.7743335562909406 0.3777401259197288
0.017521724235050027 0.8763405469654932 0.4836470439349211
0.1229747459143225 0.7709752112775419 0.5271417213739847
0.10606878701495795 0.910674801604241 0.41239072802884974
0.2015903128373432 0.7743335562909406 0.3777401259197288
0.21752172423505 0.8763405469654932 0.4836470439349211
0.3229747459143225 0.7709752112775419 0.5271417213739847
0.306068787014958 0.910674801604241 0.41239072802884974
0.4015903128373432 0.7743335562909406 0.3777401259197288
0.4175217242350501 0.8763405469654932 0.4836470439349211
0.5229747459143225 0.7709752112775419 0.5271417213739847
0.5060687870149579 0.910674801604241 0.41239072802884974
0.6015903128373432 0.7743335562909406 0.3777401259197288
0.6175217242350501 0.8763405469654932 0.4836470439349211
0.7229747459143225 0.7709752112775419 0.5271417213739847
0.706068787014958 0.910674801604241 0.41239072802884974
0.8015903128373432 0.7743335562909406 0.3777401259197288
0.8175217242350501 0.8763405469654932 0.4836470439349211
0.9229747459143225 0.7709752112775419 0.5271417213739847
0.906068787014958 0.910674801604241 0.41239072802884974
0.0015903128373431488 -0.025666443709059468 0.5777401259197288
0.017521724235050027 0.0763405469654932 0.6836470439349212
0.1229747459143225 -0.02902478872245817 0.7271417213739848
0.10606878701495795 0.11067480160424092 0.6123907280288498
0.2015903128373432 -0.025666443709059468 0.5777401259197288
0.21752172423505 0.0763405469654932 0.6836470439349212
0.3229747459143225 -0.02902478872245817 0.7271417213739848
0.306068787014958 0.11067480160424092 0.6123907280288498
0.4015903128373432 -0.025666443709059468 0.5777401259197288
0.4175217242350501 0.0763405469654932 0.6836470439349212
0.5229747459143225 -0.02902478872245817 0.7271417213739848
0.5060687870149579 0.11067480160424092 0.6123907280288498
0.6015903128373432 -0.025666443709059468 0.5777401259197288
0.6175217242350501 0.0763405469654932 0.6836470439349212
0.7229747459143225 -0.02902478872245817 0.7271417213739848
0.706068787014958 0.11067480160424092 0.6123907280288498
0.8015903128373432 -0.025666443709059468 0.5777401259197288
0.8175217242350501 0.0763405469654932 0.6836470439349212
0.9229747459143225 -0.02902478872245817 0.7271417213739848
0.906068787014958 0.11067480160424092 0.6123907280288498
0.0015903128373431488 0.17433355629094055 0.5777401259197288
0.017521724235050027 0.2763405469654932 0.6836470439349212
0.1229747459143225 0.17097521127754184 0.7271417213739848
0.10606878701495795 0.31067480160424094 0.6123907280288498
0.2015903128373432 0.17433355629094055 0.5777401259197288
0.21752172423505 0.2763405469654932 0.6836470439349212
0.3229747459143225 0.17097521127754184 0.7271417213739848
0.306068787014958 0.31067480160424094 0.6123907280288498
0.4015903128373432 0.17433355629094055 0.5777401259197288
0.4175217242350501 0.2763405469654932 0.6836470439349212
0.5229747459143225 0.17097521127754184 0.7271417213739848
0.5060687870149579 0.31067480160424094 0.6123907280288498
0.6015903128373432 0.17433355629094055 0.5777401259197288
0.6175217242350501 0.2763405469654932 0.6836470439349212
0.7229747459143225 0.17097521127754184 0.7271417213739848
0.706068787014958 0.31067480160424094 0.6123907280288498
0.8015903128373432 0.17433355629094055 0.5777401259197288
0.8175217242350501 0.2763405469654932 0.6836470439349212
0.9229747459143225 0.17097521127754184 0.7271417213739848
0.906068787014958 0.31067480160424094 0.6123907280288498
0.0015903128373431488 0.37433355629094056 0.5777401259197288
0.017521724235050027 0.47634054696549316 0.6836470439349212
0.1229747459143225 0.37097521127754185 0.7271417213739848
0.10606878701495795 0.510674801604241 0.6123907280288498
0.2015903128373432 0.37433355629094056 0.5777401259197288
0.21752172423505 0.47634054696549316 0.6836470439349212
0.3229747459143225 0.37097521127754185 0.7271417213739848
0.306068787014958 0.510674801604241 0.6123907280288498
0.4015903128373432 0.37433355629094056 0.5777401259197288
0.4175217242350501 0.47634054696549316 0.6836470439349212
0.5229747459143225 0.37097521127754185 0.7271417213739848
0.5060687870149579 0.510674801604241 0.6123907280288498
0.6015903128373432 0.37433355629094056 0.5777401259197288
0.6175217242350501 0.47634054696549316 0.6836470439349212
0.7229747459143225 0.37097521127754185 0.7271417213739848
0.706068787014958 0.510674801604241 0.6123907280288498
0.8015903128373432 0.37433355629094056 0.5777401259197288
0.8175217242350501 0.47634054696549316 0.6836470439349212
0.9229747459143225 0.37097521127754185 0.7271417213739848
0.906068787014958 0.510674801604241 0.6123907280288498
0.0015903128373431488 0.5743335562909405 0.5777401259197288
0.017521724235050027 0.6763405469654932 0.6836470439349212
0.1229747459143225 0.5709752112775418 0.7271417213739848
0.10606878701495795 0.710674801604241 0.6123907280288498
0.2015903128373432 0.5743335562909405 0.5777401259197288
0.21752172423505 0.6763405469654932 0.6836470439349212
0.3229747459143225 0.5709752112775418 0.7271417213739848
0.306068787014958 0.710674801604241 0.6123907280288498
0.4015903128373432 0.5743335562909405 0.5777401259197288
0.4175217242350501 0.6763405469654932 0.6836470439349212
0.5229747459143225 0.5709752112775418 0.7271417213739848
0.5060687870149579 0.710674801604241 0.6123907280288498
0.6015903128373432 0.5743335562909405 0.5777401259197288
0.6175217242350501 0.6763405469654932 0.6836470439349212
0.7229747459143225 0.5709752112775418 0.7271417213739848
0.706068787014958 0.710674801604241 0.6123907280288498
0.8015903128373432 0.5743335562909405 0.5777401259197288
0.8175217242350501 0.6763405469654932 0.6836470439349212
0.9229747459143225 0.5709752112775418 0.7271417213739848
0.906068787014958 0.710674801604241 0.6123907280288498
0.0015903128373431488 0.7743335562909406 0.5777401259197288
0.017521724235050027 0.8763405469654932 0.6836470439349212
0.1229747459143225 0.7709752112775419 0.7271417213739848
0.10606878701495795 0.910674801604241 0.6123907280288498
0.2015903128373432 0.7743335562909406 0.5777401259197288
0.21752172423505 0.8763405469654932 0.6836470439349212
0.3229747459143225 0.7709752112775419 0.7271417213739848
0.306068787014958 0.910674801604241 0.6123907280288498
0.4015903128373432 0.7743335562909406 0.5777401259197288
0.4175217242350501 0.8763405469654932 0.6836470439349212
0.5229747459143225 0.7709752112775419 0.7271417213739848
0.5060687870149579 0.910674801604241 0.6123907280288498
0.6015903128373432 0.7743335562909406 0.5777401259197288
0.6175217242350501 0.8763405469654932 0.6836470439349212
0.7229747459143225 0.7709752112775419 0.7271417213739848
0.706068787014958 0.910674801604241 0.6123907280288498
0.8015903128373432 0.7743335562909406 0.5777401259197288
0.8175217242350501 0.8763405469654932 0.6836470439349212
0.9229747459143225 0.7709752112775419 0.7271417213739848
0.906068787014958 0.910674801604241 0.6123907280288498
0.0015903128373431488 -0.025666443709059468 0.7777401259197289
0.017521724235050027 0.0763405469654932 0.883647043934921
0.1229747459143225 -0.02902478872245817 0.9271417213739849
0.10606878701495795 0.11067480160424092 0.8123907280288498
0.2015903128373432 -0.025666443709059468 0.7777401259197289
0.21752172423505 0.0763405469654932 0.883647043934921
0.3229747459143225 -0.02902478872245817 0.9271417213739849
0.306068787014958 0.11067480160424092 0.8123907280288498
0.4015903128373432 -0.025666443709059468 0.7777401259197289
0.4175217242350501 0.0763405469654932 0.883647043934921
0.5229747459143225 -0.02902478872245817 0.9271417213739849
0.5060687870149579 0.11067480160424092 0.8123907280288498
0.6015903128373432 -0.025666443709059468 0.7777401259197289
0.6175217242350501 0.0763405469654932 0.883647043934921
0.7229747459143225 -0.02902478872245817 0.9271417213739849
0.706068787014958 0.11067480160424092 0.8123907280288498
0.8015903128373432 -0.025666443709059468 0.7777401259197289
0.8175217242350501 0.0763405469654932 0.883647043934921
0.9229747459143225 -0.02902478872245817 0.9271417213739849
0.906068787014958 0.11067480160424092 0.8123907280288498
0.0015903128373431488 0.17433355629094055 0.7777401259197289
0.017521724235050027 0.2763405469654932 0.883647043934921
0.1229747459143225 0.17097521127754184 0.9271417213739849
0.10606878701495795 0.31067480160424094 0.8123907280288498
0.2015903128373432 0.17433355629094055 0.7777401259197289
0.21752172423505 0.2763405469654932 0.883647043934921
0.3229747459143225 0.17097521127754184 0.9271417213739849
0.306068787014958 0.31067480160424094 0.8123907280288498
0.4015903128373432 0.17433355629094055 0.7777401259197289
0.4175217242350501 0.2763405469654932 0.883647043934921
0.5229747459143225 0.17097521127754184 0.9271417213739849
0.5060687870149579 0.31067480160424094 0.8123907280288498
0.6015903128373432 0.17433355629094055 0.7777401259197289
0.6175217242350501 0.2763405469654932 0.883647043934921
0.7229747459143225 0.17097521127754184 0.9271417213739849
0.706068787014958 0.31067480160424094 0.8123907280288498
0.8015903128373432 0.17433355629094055 0.7777401259197289
0.8175217242350501 0.2763405469654932 0.883647043934921
0.9229747459143225 0.17097521127754184 0.9271417213739849
0.906068787014958 0.31067480160424094 0.8123907280288498
0.0015903128373431488 0.37433355629094056 0.7777401259197289
0.017521724235050027 0.47634054696549316 0.883647043934921
0.1229747459143225 0.37097521127754185 0.9271417213739849
0.10606878701495795 0.510674801604241 0.8123907280288498
0.2015903128373432 0.37433355629094056 0.7777401259197289
0.21752172423505 0.47634054696549316 0.883647043934921
0.3229747459143225 0.37097521127754185 0.9271417213739849
0.306068787014958 0.510674801604241 0.8123907280288498
0.4015903128373432 0.37433355629094056 0.7777401259197289
0.4175217242350501 0.47634054696549316 0.883647043934921
0.5229747459143225 0.37097521127754185 0.9271417213739849
0.5060687870149579 0.510674801604241 0.8123907280288498
0.6015903128373432 0.37433355629094056 0.7777401259197289
0.6175217242350501 0.47634054696549316 0.883647043934921
0.7229747459143225 0.37097521127754185 0.9271417213739849
0.706068787014958 0.510674801604241 0.8123907280288498
0.8015903128373432 0.37433355629094056 0.7777401259197289
0.8175217242350501 0.47634054696549316 0.883647043934921
0.9229747459143225 0.37097521127754185 0.9271417213739849
0.906068787014958 0.510674801604241 0.8123907280288498
0.0015903128373431488 0.5743335562909405 0.7777401259197289
0.017521724235050027 0.6763405469654932 0.883647043934921
0.1229747459143225 0.5709752112775418 0.9271417213739849
0.10606878701495795 0.710674801604241 0.8123907280288498
0.2015903128373432 0.5743335562909405 0.7777401259197289
0.21752172423505 0.6763405469654932 0.883647043934921
0.3229747459143225 0.5709752112775418 0.9271417213739849
0.306068787014958 0.710674801604241 0.8123907280288498
0.4015903128373432 0.5743335562909405 0.7777401259197289
0.4175217242350501 0.6763405469654932 0.883647043934921
0.5229747459143225 0.5709752112775418 0.9271417213739849
0.5060687870149579 0.710674801604241 0.8123907280288498
0.6015903128373432 0.5743335562909405 0.7777401259197289
0.6175217242350501 0.6763405469654932 0.883647043934921
0.7229747459143225 0.5709752112775418 0.9271417213739849
0.706068787014958 0.710674801604241 0.8123907280288498
0.8015903128373432 0.5743335562909405 0.7777401259197289
0.8175217242350501 0.6763405469654932 0.883647043934921
0.9229747459143225 0.5709752112775418 0.9271417213739849
0.906068787014958 0.710674801604241 0.8123907280288498
0.0015903128373431488 0.7743335562909406 0.7777401259197289
0.017521724235050027 0.8763405469654932 0.883647043934921
0.1229747459143225 0.7709752112775419 0.9271417213739849
0.10606878701495795 0.910674801604241 0.8123907280288498
0.2015903128373432 0.7743335562909406 0.7777401259197289
0.21752172423505 0.8763405469654932 0.883647043934921
0.3229747459143225 0.7709752112775419 0.9271417213739849
0.306068787014958 0.910674801604241 0.8123907280288498
0.4015903128373432 0.7743335562909406 0.7777401259197289
0.4175217242350501 0.8763405469654932 0.883647043934921
0.5229747459143225 0.7709752112775419 0.9271417213739849
0.5060687870149579 0.910674801604241 0.8123907280288498
0.6015903128373432 0.7743335562909406 0.7777401259197289
0.6175217242350501 0.8763405469654932 0.883647043934921
0.7229747459143225 0.7709752112775419 0.9271417213739849
0.706068787014958 0.910674801604241 0.8123907280288498
0.8015903128373432 0.7743335562909406 0.7777401259197289
0.8175217242350501 0.8763405469654932 0.883647043934921
0.9229747459143225 0.7709752112775419 0.9271417213739849
0.906068787014958 0.910674801604241 0.8123907280288498
0.12122712499537575 0.008855372997040116 -0.025669709219219218
0.014144060936655182 0.09927610459031436 0.02225649097505783
-0.029878751530272536 0.017862895793576528 0.12459241039987333
0.07096866815873512 0.1173591003405778 0.11997285360107751
0.32122712499537576 0.008855372997040116 -0.025669709219219218
0.21414406093665517 0.09927610459031436 0.02225649097505783
0.17012124846972748 0.017862895793576528 0.12459241039987333
0.2709686681587351 0.1173591003405778 0.11997285360107751
0.5212271249953758 0.008855372997040116 -0.025669709219219218
0.41414406093665523 0.09927610459031436 0.02225649097505783
0.3701212484697275 0.017862895793576528 0.12459241039987333
0.47096866815873517 0.1173591003405778 0.11997285360107751
0.7212271249953758 0.008855372997040116 -0.025669709219219218
0.6141440609366553 0.09927610459031436 0.02225649097505783
0.5701212484697274 0.017862895793576528 0.12459241039987333
0.6709686681587352 0.1173591003405778 0.11997285360107751
0.9212271249953757 0.008855372997040116 -0.025669709219219218
0.8141440609366551 0.09927610459031436 0.02225649097505783
0.7701212484697275 0.017862895793576528 0.12459241039987333
0.8709686681587352 0.1173591003405778 0.11997285360107751
0.12122712499537575 0.20885537299704013 -0.025669709219219218
0.014144060936655182 0.29927610459031434 0.02225649097505783
-0.029878751530272536 0.21786289579357654 0.12459241039987333
0.07096866815873512 0.3173591003405778 0.11997285360107751
0.32122712499537576 0.20885537299704013 -0.025669709219219218
0.21414406093665517 0.29927610459031434 0.02225649097505783
0.17012124846972748 0.21786289579357654 0.12459241039987333
0.2709686681587351 0.3173591003405778 0.11997285360107751
0.5212271249953758 0.20885537299704013 -0.025669709219219218
0.41414406093665523 0.29927610459031434 0.02225649097505783
0.3701212484697275 0.21786289579357654 0.12459241039987333
0.47096866815873517 0.3173591003405778 0.11997285360107751
0.7212271249953758 0.20885537299704013 -0.025669709219219218
0.6141440609366553 0.29927610459031434 0.02225649097505783
0.5701212484697274 0.21786289579357654 0.12459241039987333
0.6709686681587352 0.3173591003405778 0.11997285360107751
0.9212271249953757 0.20885537299704013 -0.025669709219219218
0.8141440609366551 0.29927610459031434 0.02225649097505783
0.7701212484697275 0.21786289579357654 0.12459241039987333
0.8709686681587352 0.3173591003405778 0.11997285360107751
0.12122712499537575 0.40885537299704017 -0.025669709219219218
0.014144060936655182 0.49927610459031435 0.02225649097505783
-0.029878751530272536 0.41786289579357655 0.12459241039987333
0.07096866815873512 0.5173591003405779 0.11997285360107751
0.32122712499537576 0.40885537299704017 -0.025669709219219218
0.21414406093665517 0.49927610459031435 0.02225649097505783
0.17012124846972748 0.41786289579357655 0.12459241039987333
0.2709686681587351 0.5173591003405779 0.11997285360107751
0.5212271249953758 0.40885537299704017 -0.025669709219219218
0.41414406093665523 0.49927610459031435 0.02225649097505783
0.3701212484697275 0.41786289579357655 0.12459241039987333
0.47096866815873517 0.5173591003405779 0.11997285360107751
0.7212271249953758 0.40885537299704017 -0.025669709219219218
0.6141440609366553 0.49927610459031435 0.02225649097505783
0.5701212484697274 0.41786289579357655 0.12459241039987333
0.6709686681587352 0.5173591003405779 0.11997285360107751
0.9212271249953757 0.40885537299704017 -0.025669709219219218
0.8141440609366551 0.49927610459031435 0.02225649097505783
0.7701212484697275 0.41786289579357655 0.12459241039987333
0.8709686681587352 0.5173591003405779 0.11997285360107751
0.12122712499537575 0.6088553729970402 -0.025669709219219218
0.014144060936655182 0.6992761045903144 0.02225649097505783
-0.029878751530272536 0.6178628957935766 0.12459241039987333
0.07096866815873512 0.7173591003405778 0.11997285360107751
0.32122712499537576 0.6088553729970402 -0.025669709219219218
0.21414406093665517 0.6992761045903144 0.02225649097505783
0.17012124846972748 0.6178628957935766 0.12459241039987333
0.2709686681587351 0.7173591003405778 0.11997285360107751
0.5212271249953758 0.6088553729970402 -0.025669709219219218
0.41414406093665523 0.6992761045903144 0.02225649097505783
0.3701212484697275 0.6178628957935766 0.12459241039987333
0.47096866815873517 0.7173591003405778 0.11997285360107751
0.7212271249953758 0.6088553729970402 -0.025669709219219218
0.6141440609366553 0.6992761045903144 0.02225649097505783
0.5701212484697274 0.6178628957935766 0.12459241039987333
0.6709686681587352 0.7173591003405778 0.11997285360107751
0.9212271249953757 0.6088553729970402 -0.025669709219219218
0.8141440609366551 0.6992761045903144 0.02225649097505783
0.7701212484697275 0.6178628957935766 0.12459241039987333
0.8709686681587352 0.7173591003405778 0.11997285360107751
0.12122712499537575 0.8088553729970402 -0.025669709219219218
0.014144060936655182 0.8992761045903145 0.02225649097505783
-0.029878751530272536 0.8178628957935766 0.12459241039987333
0.07096866815873512 0.9173591003405779 0.11997285360107751
0.32122712499537576 0.8088553729970402 -0.025669709219219218
0.21414406093665517 0.8992761045903145 0.02225649097505783
0.17012124846972748 0.8178628957935766 0.12459241039987333
0.2709686681587351 0.9173591003405779 0.11997285360107751
0.5212271249953758 0.8088553729970402 -0.025669709219219218
0.41414406093665523 0.8992761045903145 0.02225649097505783
0.3701212484697275 0.8178628957935766 0.12459241039987333
0.47096866815873517 0.9173591003405779 0.11997285360107751
0.7212271249953758 0.8088553729970402 -0.025669709219219218
0.6141440609366553 0.8992761045903145 0.02225649097505783
0.5701212484697274 0.8178628957935766 0.12459241039987333
0.6709686681587352 0.9173591003405779 0.11997285360107751
0.9212271249953757 0.8088553729970402 -0.025669709219219218
0.8141440609366551 0.8992761045903145 0.02225649097505783
0.7701212484697275 0.8178628957935766 0.12459241039987333
0.8709686681587352 0.9173591003405779 0.11997285360107751
0.12122712499537575 0.008855372997040116 0.1743302907807808
0.014144060936655182 0.09927610459031436 0.22225649097505784
-0.029878751530272536 0.017862895793576528 0.32459241039987335
0.07096866815873512 0.1173591003405778 0.3199728536010775
0.32122712499537576 0.008855372997040116 0.1743302907807808
0.21414406093665517 0.09927610459031436 0.22225649097505784
0.17012124846972748 0.017862895793576528 0.32459241039987335
0.2709686681587351 0.1173591003405778 0.3199728536010775
0.5212271249953758 0.008855372997040116 0.1743302907807808
0.41414406093665523 0.09927610459031436 0.22225649097505784
0.3701212484697275 0.017862895793576528 0.32459241039987335
0.47096866815873517 0.1173591003405778 0.3199728536010775
0.7212271249953758 0.008855372997040116 0.1743302907807808
0.6141440609366553 0.09927610459031436 0.22225649097505784
0.5701212484697274 0.017862895793576528 0.32459241039987335
0.6709686681587352 0.1173591003405778 0.3199728536010775
0.9212271249953757 0.008855372997040116 0.1743302907807808
0.8141440609366551 0.09927610459031436 0.22225649097505784
0.7701212484697275 0.017862895793576528 0.32459241039987335
0.8709686681587352 0.1173591003405778 0.3199728536010775
0.12122712499537575 0.20885537299704013 0.1743302907807808
0.014144060936655182 0.29927610459031434 0.22225649097505784
-0.029878751530272536 0.21786289579357654 0.32459241039987335
0.07096866815873512 0.3173591003405778 0.3199728536010775
0.32122712499537576 0.20885537299704013 0.1743302907807808
0.21414406093665517 0.29927610459031434 0.22225649097505784
0.17012124846972748 0.21786289579357654 0.32459241039987335
0.2709686681587351 0.3173591003405778 0.3199728536010775
0.5212271249953758 0.20885537299704013 0.1743302907807808
0.41414406093665523 0.29927610459031434 0.22225649097505784
0.3701212484697275 0.21786289579357654 0.32459241039987335
0.47096866815873517 0.3173591003405778 0.3199728536010775
0.7212271249953758 0.20885537299704013 0.1743302907807808
0.6141440609366553 0.29927610459031434 0.22225649097505784
0.5701212484697274 0.21786289579357654 0.32459241039987335
0.6709686681587352 0.3173591003405778 0.3199728536010775
0.9212271249953757 0.20885537299704013 0.1743302907807808
0.8141440609366551 0.29927610459031434 0.22225649097505784
0.7701212484697275 0.21786289579357654 0.32459241039987335
0.8709686681587352 0.3173591003405778 0.3199728536010775
0.12122712499537575 0.40885537299704017 0.1743302907807808
0.014144060936655182 0.49927610459031435 0.22225649097505784
-0.029878751530272536 0.41786289579357655 0.32459241039987335
0.07096866815873512 0.5173591003405779 0.3199728536010775
0.32122712499537576 0.40885537299704017 0.1743302907807808
0.21414406093665517 0.49927610459031435 0.22225649097505784
0.17012124846972748 0.41786289579357655 0.32459241039987335
0.2709686681587351 0.5173591003405779 0.3199728536010775
0.5212271249953758 0.40885537299704017 0.1743302907807808
0.41414406093665523 0.49927610459031435 0.22225649097505784
0.3701212484697275 0.41786289579357655 0.32459241039987335
0.47096866815873517 0.5173591003405779 0.3199728536010775
0.7212271249953758 0.40885537299704017 0.1743302907807808
0.6141440609366553 0.49927610459031435 0.22225649097505784
0.5701212484697274 0.41786289579357655 0.32459241039987335
0.6709686681587352 0.5173591003405779 0.3199728536010775
0.9212271249953757 0.40885537299704017 0.1743302907807808
0.8141440609366551 0.49927610459031435 0.22225649097505784
0.7701212484697275 0.41786289579357655 0.32459241039987335
0.8709686681587352 0.5173591003405779 0.3199728536010775
0.12122712499537575 0.6088553729970402 0.1743302907807808
0.014144060936655182 0.6992761045903144 0.22225649097505784
-0.029878751530272536 0.6178628957935766 0.32459241039987335
0.07096866815873512 0.7173591003405778 0.3199728536010775
0.32122712499537576 0.6088553729970402 0.1743302907807808
0.21414406093665517 0.6992761045903144 0.22225649097505784
0.17012124846972748 0.6178628957935766 0.32459241039987335
0.2709686681587351 0.7173591003405778 0.3199728536010775
0.5212271249953758 0.6088553729970402 0.1743302907807808
0.41414406093665523 0.6992761045903144 0.22225649097505784
0.3701212484697275 0.6178628957935766 0.32459241039987335
0.47096866815873517 0.7173591003405778 0.3199728536010775
0.7212271249953758 0.6088553729970402 0.1743302907807808
0.6141440609366553 0.6992761045903144 0.22225649097505784
0.5701212484697274 0.6178628957935766 0.32459241039987335
0.6709686681587352 0.7173591003405778 0.3199728536010775
0.9212271249953757 0.6088553729970402 0.1743302907807808
0.8141440609366551 0.6992761045903144 0.22225649097505784
0.7701212484697275 0.6178628957935766 0.32459241039987335
0.8709686681587352 0.7173591003405778 0.3199728536010775
0.12122712499537575 0.8088553729970402 0.1743302907807808
0.014144060936655182 0.8992761045903145 0.22225649097505784
-0.029878751530272536 0.8178628957935766 0.32459241039987335
0.07096866815873512 0.9173591003405779 0.3199728536010775
0.32122712499537576 0.8088553729970402 0.1743302907807808
0.21414406093665517 0.8992761045903145 0.22225649097505784
0.17012124846972748 0.8178628957935766 0.32459241039987335
0.2709686681587351 0.9173591003405779 0.3199728536010775
0.5212271249953758 0.8088553729970402 0.1743302907807808
0.41414406093665523 0.8992761045903145 0.22225649097505784
0.3701212484697275 0.8178628957935766 0.32459241039987335
0.47096866815873517 0.9173591003405779 0.3199728536010775
0.7212271249953758 0.8088553729970402 0.1743302907807808
0.6141440609366553 0.8992761045903145 0.22225649097505784
0.5701212484697274 0.8178628957935766 0.32459241039987335
0.6709686681587352 0.9173591003405779 0.3199728536010775
0.9212271249953757 0.8088553729970402 0.1743302907807808
0.8141440609366551 0.8992761045903145 0.22225649097505784
0.7701212484697275 0.8178628957935766 0.32459241039987335
0.8709686681587352 0.9173591003405779 0.3199728536010775
0.12122712499537575 0.008855372997040116 0.37433029078078084
0.014144060936655182 0.09927610459031436 0.42225649097505785
-0.029878751530272536 0.017862895793576528 0.5245924103998734
0.07096866815873512 0.1173591003405778 0.5199728536010775
0.32122712499537576 0.008855372997040116 0.37433029078078084
0.21414406093665517 0.09927610459031436 0.42225649097505785
0.17012124846972748 0.017862895793576528 0.5245924103998734
0.2709686681587351 0.1173591003405778 0.5199728536010775
0.5212271249953758 0.008855372997040116 0.37433029078078084
0.41414406093665523 0.09927610459031436 0.42225649097505785
0.3701212484697275 0.017862895793576528 0.5245924103998734
0.47096866815873517 0.1173591003405778 0.5199728536010775
0.7212271249953758 0.008855372997040116 0.37433029078078084
0.6141440609366553 0.09927610459031436 0.42225649097505785
0.5701212484697274 0.017862895793576528 0.5245924103998734
0.6709686681587352 0.1173591003405778 0.5199728536010775
0.9212271249953757 0.008855372997040116 0.37433029078078084
0.8141440609366551 0.09927610459031436 0.42225649097505785
0.7701212484697275 0.017862895793576528 0.5245924103998734
0.8709686681587352 0.1173591003405778 0.5199728536010775
0.12122712499537575 0.20885537299704013 0.37433029078078084
0.014144060936655182 0.29927610459031434 0.42225649097505785
-0.029878751530272536 0.21786289579357654 0.5245924103998734
0.07096866815873512 0.3173591003405778 0.5199728536010775
0.32122712499537576 0.20885537299704013 0.37433029078078084
0.21414406093665517 0.29927610459031434 0.42225649097505785
0.17012124846972748 0.21786289579357654 0.5245924103998734
0.2709686681587351 0.3173591003405778 0.5199728536010775
0.5212271249953758 0.20885537299704013 0.37433029078078084
0.41414406093665523 0.29927610459031434 0.42225649097505785
0.3701212484697275 0.21786289579357654 0.5245924103998734
0.47096866815873517 0.3173591003405778 0.5199728536010775
0.7212271249953758 0.20885537299704013 0.37433029078078084
0.6141440609366553 0.29927610459031434 0.42225649097505785
0.5701212484697274 0.21786289579357654 0.5245924103998734
0.6709686681587352 0.3173591003405778 0.5199728536010775
0.9212271249953757 0.20885537299704013 0.37433029078078084
0.8141440609366551 0.29927610459031434 0.42225649097505785
0.7701212484697275 0.21786289579357654 0.5245924103998734
0.8709686681587352 0.3173591003405778 0.5199728536010775
0.12122712499537575 0.40885537299704017 0.37433029078078084
0.014144060936655182 0.49927610459031435 0.42225649097505785
-0.029878751530272536 0.41786289579357655 0.5245924103998734
0.07096866815873512 0.5173591003405779 0.5199728536010775
0.32122712499537576 0.40885537299704017 0.37433029078078084
0.21414406093665517 0.49927610459031435 0.42225649097505785
0.17012124846972748 0.41786289579357655 0.5245924103998734
0.2709686681587351 0.5173591003405779 0.5199728536010775
0.5212271249953758 0.40885537299704017 0.37433029078078084
0.41414406093665523 0.49927610459031435 0.42225649097505785
0.3701212484697275 0.41786289579357655 0.5245924103998734
0.47096866815873517 0.5173591003405779 0.5199728536010775
0.7212271249953758 0.40885537299704017 0.37433029078078084
0.6141440609366553 0.49927610459031435 0.42225649097505785
0.5701212484697274 0.41786289579357655 0.5245924103998734
0.6709686681587352 0.5173591003405779 0.5199728536010775
0.9212271249953757 0.40885537299704017 0.37433029078078084
0.8141440609366551 0.49927610459031435 0.42225649097505785
0.7701212484697275 0.41786289579357655 0.5245924103998734
0.8709686681587352 0.5173591003405779 0.5199728536010775
0.12122712499537575 0.6088553729970402 0.37433029078078084
0.014144060936655182 0.6992761045903144 0.42225649097505785
-0.029878751530272536 0.6178628957935766 0.5245924103998734
0.07096866815873512 0.7173591003405778 0.5199728536010775
0.32122712499537576 0.6088553729970402 0.37433029078078084
0.21414406093665517 0.6992761045903144 0.42225649097505785
0.17012124846972748 0.6178628957935766 0.5245924103998734
0.2709686681587351 0.7173591003405778 0.5199728536010775
0.5212271249953758 0.6088553729970402 0.37433029078078084
0.41414406093665523 0.6992761045903144 0.42225649097505785
0.3701212484697275 0.6178628957935766 0.5245924103998734
0.47096866815873517 0.7173591003405778 0.5199728536010775
0.7212271249953758 0.6088553729970402 0.37433029078078084
0.6141440609366553 0.6992761045903144 0.42225649097505785
0.5701212484697274 0.6178628957935766 0.5245924103998734
0.6709686681587352 0.7173591003405778 0.5199728536010775
0.9212271249953757 0.6088553729970402 0.37433029078078084
0.8141440609366551 0.6992761045903144 0.42225649097505785
0.7701212484697275 0.6178628957935766 0.5245924103998734
0.8709686681587352 0.7173591003405778 0.5199728536010775
0.12122712499537575 0.8088553729970402 0.37433029078078084
0.014144060936655182 0.8992761045903145 0.42225649097505785
-0.029878751530272536 0.8178628957935766 0.5245924103998734
0.07096866815873512 0.9173591003405779 0.5199728536010775
0.32122712499537576 0.8088553729970402 0.37433029078078084
0.21414406093665517 0.8992761045903145 0.42225649097505785
0.17012124846972748 0.8178628957935766 0.5245924103998734
0.2709686681587351 0.9173591003405779 0.5199728536010775
0.5212271249953758 0.8088553729970402 0.37433029078078084
0.41414406093665523 0.8992761045903145 0.42225649097505785
0.3701212484697275 0.8178628957935766 0.5245924103998734
0.47096866815873517 0.9173591003405779 0.5199728536010775
0.7212271249953758 0.8088553729970402 0.37433029078078084
0.6141440609366553 0.8992761045903145 0.42225649097505785
0.5701212484697274 0.8178628957935766 0.5245924103998734
0.6709686681587352 0.9173591003405779 0.5199728536010775
0.9212271249953757 0.8088553729970402 0.37433029078078084
0.8141440609366551 0.8992761045903145 0.42225649097505785
0.7701212484697275 0.8178628957935766 0.5245924103998734
0.8709686681587352 0.9173591003405779 0.5199728536010775
0.12122712499537575 0.008855372997040116 0.5743302907807808
0.014144060936655182 0.09927610459031436 0.6222564909750579
-0.029878751530272536 0.017862895793576528 0.7245924103998734
0.07096866815873512 0.1173591003405778 0.7199728536010775
0.32122712499537576 0.008855372997040116 0.5743302907807808
0.21414406093665517 0.09927610459031436 0.6222564909750579
0.17012124846972748 0.017862895793576528 0.7245924103998734
0.2709686681587351 0.1173591003405778 0.7199728536010775
0.5212271249953758 0.008855372997040116 0.5743302907807808
0.41414406093665523 0.09927610459031436 0.6222564909750579
0.3701212484697275 0.017862895793576528 0.7245924103998734
0.47096866815873517 0.1173591003405778 0.7199728536010775
0.7212271249953758 0.008855372997040116 0.5743302907807808
0.6141440609366553 0.09927610459031436 0.6222564909750579
0.5701212484697274 0.017862895793576528 0.7245924103998734
0.6709686681587352 0.1173591003405778 0.7199728536010775
0.9212271249953757 0.008855372997040116 0.5743302907807808
0.8141440609366551 0.09927610459031436 0.6222564909750579
0.7701212484697275 0.017862895793576528 0.7245924103998734
0.8709686681587352 0.1173591003405778 0.7199728536010775
0.12122712499537575 0.20885537299704013 0.5743302907807808
0.014144060936655182 0.29927610459031434 0.6222564909750579
-0.029878751530272536 0.21786289579357654 0.7245924103998734
0.07096866815873512 0.3173591003405778 0.7199728536010775
0.32122712499537576 0.20885537299704013 0.5743302907807808
0.21414406093665517 0.29927610459031434 0.6222564909750579
0.17012124846972748 0.21786289579357654 0.7245924103998734
0.2709686681587351 0.3173591003405778 0.7199728536010775
0.5212271249953758 0.20885537299704013 0.5743302907807808
0.41414406093665523 0.29927610459031434 0.6222564909750579
0.3701212484697275 0.21786289579357654 0.7245924103998734
0.47096866815873517 0.3173591003405778 0.7199728536010775
0.7212271249953758 0.20885537299704013 0.5743302907807808
0.6141440609366553 0.29927610459031434 0.6222564909750579
0.5701212484697274 0.21786289579357654 0.7245924103998734
0.6709686681587352 0.3173591003405778 0.7199728536010775
0.9212271249953757 0.20885537299704013 0.5743302907807808
0.8141440609366551 0.29927610459031434 0.6222564909750579
0.7701212484697275 0.21786289579357654 0.7245924103998734
0.8709686681587352 0.3173591003405778 0.7199728536010775
0.12122712499537575 0.40885537299704017 0.5743302907807808
0.014144060936655182 0.49927610459031435 0.6222564909750579
-0.029878751530272536 0.41786289579357655 0.7245924103998734
0.07096866815873512 0.5173591003405779 0.7199728536010775
0.32122712499537576 0.40885537299704017 0.5743302907807808
0.21414406093665517 0.49927610459031435 0.6222564909750579
0.17012124846972748 0.41786289579357655 0.7245924103998734
0.2709686681587351 0.5173591003405779 0.7199728536010775
0.5212271249953758 0.40885537299704017 0.5743302907807808
0.41414406093665523 0.49927610459031435 0.6222564909750579
0.3701212484697275 0.41786289579357655 0.7245924103998734
0.47096866815873517 0.5173591003405779 0.7199728536010775
0.7212271249953758 0.40885537299704017 0.5743302907807808
0.6141440609366553 0.49927610459031435 0.6222564909750579
0.5701212484697274 0.41786289579357655 0.7245924103998734
0.6709686681587352 0.5173591003405779 0.7199728536010775
0.9212271249953757 0.40885537299704017 0.5743302907807808
0.8141440609366551 0.49927610459031435 0.6222564909750579
0.7701212484697275 0.41786289579357655 0.7245924103998734
0.8709686681587352 0.5173591003405779 0.7199728536010775
0.12122712499537575 0.6088553729970402 0.5743302907807808
0.014144060936655182 0.6992761045903144 0.6222564909750579
-0.029878751530272536 0.6178628957935766 0.7245924103998734
0.07096866815873512 0.7173591003405778 0.7199728536010775
0.32122712499537576 0.6088553729970402 0.5743302907807808
0.21414406093665517 0.6992761045903144 0.6222564909750579
0.17012124846972748 0.6178628957935766 0.7245924103998734
0.2709686681587351 0.7173591003405778 0.7199728536010775
0.5212271249953758 0.6088553729970402 0.5743302907807808
0.41414406093665523 0.6992761045903144 0.6222564909750579
0.3701212484697275 0.6178628957935766 0.7245924103998734
0.47096866815873517 0.7173591003405778 0.7199728536010775
0.7212271249953758 0.6088553729970402 0.5743302907807808
0.6141440609366553 0.6992761045903144 0.6222564909750579
0.5701212484697274 0.6178628957935766 0.7245924103998734
0.6709686681587352 0.7173591003405778 0.7199728536010775
0.9212271249953757 0.6088553729970402 0.5743302907807808
0.8141440609366551 0.6992761045903144 0.6222564909750579
0.7701212484697275 0.6178628957935766 0.7245924103998734
0.8709686681587352 0.7173591003405778 0.7199728536010775
0.12122712499537575 0.8088553729970402 0.5743302907807808
0.014144060936655182 0.8992761045903145 0.6222564909750579
-0.029878751530272536 0.8178628957935766 0.7245924103998734
0.07096866815873512 0.9173591003405779 0.7199728536010775
0.32122712499537576 0.8088553729970402 0.5743302907807808
0.21414406093665517 0.8992761045903145 0.6222564909750579
0.17012124846972748 0.8178628957935766 0.7245924103998734
0.2709686681587351 0.9173591003405779 0.7199728536010775
0.5212271249953758 0.8088553729970402 0.5743302907807808
0.41414406093665523 0.8992761045903145 0.6222564909750579
0.3701212484697275 0.8178628957935766 0.7245924103998734
0.47096866815873517 0.9173591003405779 0.7199728536010775
0.7212271249953758 0.8088553729970402 0.5743302907807808
0.6141440609366553 0.8992761045903145 0.6222564909750579
0.5701212484697274 0.8178628957935766 0.7245924103998734
0.6709686681587352 0.9173591003405779 0.7199728536010775
0.9212271249953757 0.8088553729970402 0.5743302907807808
0.8141440609366551 0.8992761045903145 0.6222564909750579
0.7701212484697275 0.8178628957935766 0.7245924103998734
0.8709686681587352 0.9173591003405779 0.7199728536010775
0.12122712499537575 0.008855372997040116 0.7743302907807808
0.014144060936655182 0.09927610459031436 0.8222564909750579
-0.029878751530272536 0.017862895793576528 0.9245924103998734
0.07096866815873512 0.1173591003405778 0.9199728536010776
0.32122712499537576 0.008855372997040116 0.7743302907807808
0.21414406093665517 0.09927610459031436 0.8222564909750579
0.17012124846972748 0.017862895793576528 0.9245924103998734
0.2709686681587351 0.1173591003405778 0.9199728536010776
0.5212271249953758 0.008855372997040116 0.7743302907807808
0.41414406093665523 0.09927610459031436 0.8222564909750579
0.3701212484697275 0.017862895793576528 0.9245924103998734
0.47096866815873517 0.1173591003405778 0.9199728536010776
0.7212271249953758 0.008855372997040116 0.7743302907807808
0.6141440609366553 0.09927610459031436 0.8222564909750579
0.5701212484697274 0.017862895793576528 0.9245924103998734
0.6709686681587352 0.1173591003405778 0.9199728536010776
0.9212271249953757 0.008855372997040116 0.7743302907807808
0.8141440609366551 0.09927610459031436 0.8222564909750579
0.7701212484697275 0.017862895793576528 0.9245924103998734
0.8709686681587352 0.1173591003405778 0.9199728536010776
0.12122712499537575 0.20885537299704013 0.7743302907807808
0.014144060936655182 0.29927610459031434 0.8222564909750579
-0.029878751530272536 0.21786289579357654 0.9245924103998734
0.07096866815873512 0.3173591003405778 0.9199728536010776
0.32122712499537576 0.20885537299704013 0.7743302907807808
0.21414406093665517 0.29927610459031434 0.8222564909750579
0.17012124846972748 0.21786289579357654 0.9245924103998734
0.2709686681587351 0.3173591003405778 0.9199728536010776
0.5212271249953758 0.20885537299704013 0.7743302907807808
0.41414406093665523 0.29927610459031434 0.8222564909750579
0.3701212484697275 0.21786289579357654 0.9245924103998734
0.47096866815873517 0.3173591003405778 0.9199728536010776
0.7212271249953758 0.20885537299704013 0.7743302907807808
0.6141440609366553 0.29927610459031434 0.8222564909750579
0.5701212484697274 0.21786289579357654 0.9245924103998734
0.6709686681587352 0.3173591003405778 0.9199728536010776
0.9212271249953757 0.20885537299704013 0.7743302907807808
0.8141440609366551 0.29927610459031434 0.8222564909750579
0.7701212484697275 0.21786289579357654 0.9245924103998734
0.8709686681587352 0.3173591003405778 0.9199728536010776
0.12122712499537575 0.40885537299704017 0.7743302907807808
0.014144060936655182 0.49927610459031435 0.8222564909750579
-0.029878751530272536 0.41786289579357655 0.9245924103998734
0.07096866815873512 0.5173591003405779 0.9199728536010776
0.32122712499537576 0.40885537299704017 0.7743302907807808
0.21414406093665517 0.49927610459031435 0.8222564909750579
0.17012124846972748 0.41786289579357655 0.9245924103998734
0.2709686681587351 0.5173591003405779 0.9199728536010776
0.5212271249953758 0.40885537299704017 0.7743302907807808
0.41414406093665523 0.49927610459031435 0.8222564909750579
0.3701212484697275 0.41786289579357655 0.9245924103998734
0.47096866815873517 0.5173591003405779 0.9199728536010776
0.7212271249953758 0.40885537299704017 0.7743302907807808
0.6141440609366553 0.49927610459031435 0.8222564909750579
0.5701212484697274 0.41786289579357655 0.9245924103998734
0.6709686681587352 0.5173591003405779 0.9199728536010776
0.9212271249953757 0.40885537299704017 0.7743302907807808
0.8141440609366551 0.49927610459031435 0.8222564909750579
0.7701212484697275 0.41786289579357655 0.9245924103998734
0.8709686681587352 0.5173591003405779 0.9199728536010776
0.12122712499537575 0.6088553729970402 0.7743302907807808
0.014144060936655182 0.6992761045903144 0.8222564909750579
-0.029878751530272536 0.6178628957935766 0.9245924103998734
0.07096866815873512 0.7173591003405778 0.9199728536010776
0.32122712499537576 0.6088553729970402 0.7743302907807808
0.21414406093665517 0.6992761045903144 0.8222564909750579
0.17012124846972748 0.6178628957935766 0.9245924103998734
0.2709686681587351 0.7173591003405778 0.9199728536010776
0.5212271249953758 0.6088553729970402 0.7743302907807808
0.41414406093665523 0.6992761045903144 0.8222564909750579
0.3701212484697275 0.6178628957935766 0.9245924103998734
0.47096866815873517 0.7173591003405778 0.9199728536010776
0.7212271249953758 0.6088553729970402 0.7743302907807808
0.6141440609366553 0.6992761045903144 0.8222564909750579
0.5701212484697274 0.6178628957935766 0.9245924103998734
0.6709686681587352 0.7173591003405778 0.9199728536010776
0.9212271249953757 0.6088553729970402 0.7743302907807808
0.8141440609366551 0.6992761045903144 0.8222564909750579
0.7701212484697275 0.6178628957935766 0.9245924103998734
0.8709686681587352 0.7173591003405778 0.9199728536010776
0.12122712499537575 0.8088553729970402 0.7743302907807808
0.014144060936655182 0.8992761045903145 0.8222564909750579
-0.029878751530272536 0.8178628957935766 0.9245924103998734
0.07096866815873512 0.9173591003405779 0.9199728536010776
0.32122712499537576 0.8088553729970402 0.7743302907807808
0.21414406093665517 0.8992761045903145 0.8222564909750579
0.17012124846972748 0.8178628957935766 0.9245924103998734
0.2709686681587351 0.9173591003405779 0.9199728536010776
0.5212271249953758 0.8088553729970402 0.7743302907807808
0.41414406093665523 0.8992761045903145 0.8222564909750579
0.3701212484697275 0.8178628957935766 0.9245924103998734
0.47096866815873517 0.9173591003405779 0.9199728536010776
0.7212271249953758 0.8088553729970402 0.7743302907807808
0.6141440609366553 0.8992761045903145 0.8222564909750579
0.5701212484697274 0.8178628957935766 0.9245924103998734
0.6709686681587352 0.9173591003405779 0.9199728536010776
0.9212271249953757 0.8088553729970402 0.7743302907807808
0.8141440609366551 0.8992761045903145 0.8222564909750579
0.7701212484697275 0.8178628957935766 0.9245924103998734
0.8709686681587352 0.9173591003405779 0.9199728536010776
