FCC BaO
3.971
5.0 0.0 0.0
0.0 5.0 0.0
0.0 0.0 5.0
Ba O 
500 500 
Direct
0.01191349761800816 -0.01440734045389646 0.026478631448254516
0.008532412560242954 0.0847310435037334 0.12835795620730212
0.11407264140510479 -0.018937346251805348 0.1024031396811104
0.126714655303163 0.08638053570838299 0.004229219803145326
0.21191349761800815 -0.01440734045389646 0.026478631448254516
0.208532412560243 0.0847310435037334 0.12835795620730212
0.31407264140510477 -0.018937346251805348 0.1024031396811104
0.326714655303163 0.08638053570838299 0.004229219803145326
0.41191349761800816 -0.01440734045389646 0.026478631448254516
0.408532412560243 0.0847310435037334 0.12835795620730212
0.5140726414051048 -0.018937346251805348 0.1024031396811104
0.526714655303163 0.08638053570838299 0.004229219803145326
0.6119134976180082 -0.01440734045389646 0.026478631448254516
0.608532412560243 0.0847310435037334 0.12835795620730212
0.7140726414051048 -0.018937346251805348 0.1024031396811104
0.726714655303163 0.08638053570838299 0.004229219803145326
0.8119134976180082 -0.01440734045389646 0.026478631448254516
0.808532412560243 0.0847310435037334 0.12835795620730212
0.9140726414051049 -0.018937346251805348 0.1024031396811104
0.926714655303163 0.08638053570838299 0.004229219803145326
0.01191349761800816 0.18559265954610354 0.026478631448254516
0.008532412560242954 0.2847310435037334 0.12835795620730212
0.11407264140510479 0.18106265374819466 0.1024031396811104
0.126714655303163 0.286380535708383 0.004229219803145326
0.21191349761800815 0.18559265954610354 0.026478631448254516
0.208532412560243 0.2847310435037334 0.12835795620730212
0.31407264140510477 0.18106265374819466 0.1024031396811104
0.326714655303163 0.286380535708383 0.004229219803145326
0.41191349761800816 0.18559265954610354 0.026478631448254516
0.408532412560243 0.2847310435037334 0.12835795620730212
0.5140726414051048 0.18106265374819466 0.1024031396811104
0.526714655303163 0.286380535708383 0.004229219803145326
0.6119134976180082 0.18559265954610354 0.026478631448254516
0.608532412560243 0.2847310435037334 0.12835795620730212
0.7140726414051048 0.18106265374819466 0.1024031396811104
0.726714655303163 0.286380535708383 0.004229219803145326
0.8119134976180082 0.18559265954610354 0.026478631448254516
0.808532412560243 0.2847310435037334 0.12835795620730212
0.9140726414051049 0.18106265374819466 0.1024031396811104
0.926714655303163 0.286380535708383 0.004229219803145326
0.01191349761800816 0.38559265954610356 0.026478631448254516
0.008532412560242954 0.48473104350373347 0.12835795620730212
0.11407264140510479 0.3810626537481947 0.1024031396811104
0.126714655303163 0.486380535708383 0.004229219803145326
0.21191349761800815 0.38559265954610356 0.026478631448254516
0.208532412560243 0.48473104350373347 0.12835795620730212
0.31407264140510477 0.3810626537481947 0.1024031396811104
0.326714655303163 0.486380535708383 0.004229219803145326
0.41191349761800816 0.38559265954610356 0.026478631448254516
0.408532412560243 0.48473104350373347 0.12835795620730212
0.5140726414051048 0.3810626537481947 0.1024031396811104
0.526714655303163 0.486380535708383 0.004229219803145326
0.6119134976180082 0.38559265954610356 0.026478631448254516
0.608532412560243 0.48473104350373347 0.12835795620730212
0.7140726414051048 0.3810626537481947 0.1024031396811104
0.726714655303163 0.486380535708383 0.004229219803145326
0.8119134976180082 0.38559265954610356 0.026478631448254516
0.808532412560243 0.48473104350373347 0.12835795620730212
0.9140726414051049 0.3810626537481947 0.1024031396811104
0.926714655303163 0.486380535708383 0.004229219803145326
0.01191349761800816 0.5855926595461035 0.026478631448254516
0.008532412560242954 0.6847310435037335 0.12835795620730212
0.11407264140510479 0.5810626537481947 0.1024031396811104
0.126714655303163 0.6863805357083831 0.004229219803145326
0.21191349761800815 0.5855926595461035 0.026478631448254516
0.208532412560243 0.6847310435037335 0.12835795620730212
0.31407264140510477 0.5810626537481947 0.1024031396811104
0.326714655303163 0.6863805357083831 0.004229219803145326
0.41191349761800816 0.5855926595461035 0.026478631448254516
0.408532412560243 0.6847310435037335 0.12835795620730212
0.5140726414051048 0.5810626537481947 0.1024031396811104
0.526714655303163 0.6863805357083831 0.004229219803145326
0.6119134976180082 0.5855926595461035 0.026478631448254516
0.608532412560243 0.6847310435037335 0.12835795620730212
0.7140726414051048 0.5810626537481947 0.1024031396811104
0.726714655303163 0.6863805357083831 0.004229219803145326
0.8119134976180082 0.5855926595461035 0.026478631448254516
0.808532412560243 0.6847310435037335 0.12835795620730212
0.9140726414051049 0.5810626537481947 0.1024031396811104
0.926714655303163 0.6863805357083831 0.004229219803145326
0.01191349761800816 0.7855926595461036 0.026478631448254516
0.008532412560242954 0.8847310435037334 0.12835795620730212
0.11407264140510479 0.7810626537481946 0.1024031396811104
0.126714655303163 0.886380535708383 0.004229219803145326
0.21191349761800815 0.7855926595461036 0.026478631448254516
0.208532412560243 0.8847310435037334 0.12835795620730212
0.31407264140510477 0.7810626537481946 0.1024031396811104
0.326714655303163 0.886380535708383 0.004229219803145326
0.41191349761800816 0.7855926595461036 0.026478631448254516
0.408532412560243 0.8847310435037334 0.12835795620730212
0.5140726414051048 0.7810626537481946 0.1024031396811104
0.526714655303163 0.886380535708383 0.004229219803145326
0.6119134976180082 0.7855926595461036 0.026478631448254516
0.608532412560243 0.8847310435037334 0.12835795620730212
0.7140726414051048 0.7810626537481946 0.1024031396811104
0.726714655303163 0.886380535708383 0.004229219803145326
0.8119134976180082 0.7855926595461036 0.026478631448254516
0.808532412560243 0.8847310435037334 0.12835795620730212
0.9140726414051049 0.7810626537481946 0.1024031396811104
0.926714655303163 0.886380535708383 0.004229219803145326
0.01191349761800816 -0.01440734045389646 0.22647863144825453
0.008532412560242954 0.0847310435037334 0.3283579562073021
0.11407264140510479 -0.018937346251805348 0.30240313968111043
0.126714655303163 0.08638053570838299 0.20422921980314535
0.21191349761800815 -0.01440734045389646 0.22647863144825453
0.208532412560243 0.0847310435037334 0.3283579562073021
0.31407264140510477 -0.018937346251805348 0.30240313968111043
0.326714655303163 0.08638053570838299 0.20422921980314535
0.41191349761800816 -0.01440734045389646 0.22647863144825453
0.408532412560243 0.0847310435037334 0.3283579562073021
0.5140726414051048 -0.018937346251805348 0.30240313968111043
0.526714655303163 0.08638053570838299 0.20422921980314535
0.6119134976180082 -0.01440734045389646 0.22647863144825453
0.608532412560243 0.0847310435037334 0.3283579562073021
0.7140726414051048 -0.018937346251805348 0.30240313968111043
0.726714655303163 0.08638053570838299 0.20422921980314535
0.8119134976180082 -0.01440734045389646 0.22647863144825453
0.808532412560243 0.0847310435037334 0.3283579562073021
0.9140726414051049 -0.018937346251805348 0.30240313968111043
0.926714655303163 0.08638053570838299 0.20422921980314535
0.01191349761800816 0.18559265954610354 0.22647863144825453
0.008532412560242954 0.2847310435037334 0.3283579562073021
0.11407264140510479 0.18106265374819466 0.30240313968111043
0.126714655303163 0.286380535708383 0.20422921980314535
0.21191349761800815 0.18559265954610354 0.22647863144825453
0.208532412560243 0.2847310435037334 0.3283579562073021
0.31407264140510477 0.18106265374819466 0.30240313968111043
0.326714655303163 0.286380535708383 0.20422921980314535
0.41191349761800816 0.18559265954610354 0.22647863144825453
0.408532412560243 0.2847310435037334 0.3283579562073021
0.5140726414051048 0.18106265374819466 0.30240313968111043
0.526714655303163 0.286380535708383 0.20422921980314535
0.6119134976180082 0.18559265954610354 0.22647863144825453
0.608532412560243 0.2847310435037334 0.3283579562073021
0.7140726414051048 0.18106265374819466 0.30240313968111043
0.726714655303163 0.286380535708383 0.20422921980314535
0.8119134976180082 0.18559265954610354 0.22647863144825453
0.808532412560243 0.2847310435037334 0.3283579562073021
0.9140726414051049 0.18106265374819466 0.30240313968111043
0.926714655303163 0.286380535708383 0.20422921980314535
0.01191349761800816 0.38559265954610356 0.22647863144825453
0.008532412560242954 0.48473104350373347 0.3283579562073021
0.11407264140510479 0.3810626537481947 0.30240313968111043
0.126714655303163 0.486380535708383 0.20422921980314535
0.21191349761800815 0.38559265954610356 0.22647863144825453
0.208532412560243 0.48473104350373347 0.3283579562073021
0.31407264140510477 0.3810626537481947 0.30240313968111043
0.326714655303163 0.486380535708383 0.20422921980314535
0.41191349761800816 0.38559265954610356 0.22647863144825453
0.408532412560243 0.48473104350373347 0.3283579562073021
0.5140726414051048 0.3810626537481947 0.30240313968111043
0.526714655303163 0.486380535708383 0.20422921980314535
0.6119134976180082 0.38559265954610356 0.22647863144825453
0.608532412560243 0.48473104350373347 0.3283579562073021
0.7140726414051048 0.3810626537481947 0.30240313968111043
0.726714655303163 0.486380535708383 0.20422921980314535
0.8119134976180082 0.38559265954610356 0.22647863144825453
0.808532412560243 0.48473104350373347 0.3283579562073021
0.9140726414051049 0.3810626537481947 0.30240313968111043
0.926714655303163 0.486380535708383 0.20422921980314535
0.01191349761800816 0.5855926595461035 0.22647863144825453
0.008532412560242954 0.6847310435037335 0.3283579562073021
0.11407264140510479 0.5810626537481947 0.30240313968111043
0.126714655303163 0.6863805357083831 0.20422921980314535
0.21191349761800815 0.5855926595461035 0.22647863144825453
0.208532412560243 0.6847310435037335 0.3283579562073021
0.31407264140510477 0.5810626537481947 0.30240313968111043
0.326714655303163 0.6863805357083831 0.20422921980314535
0.41191349761800816 0.5855926595461035 0.22647863144825453
0.408532412560243 0.6847310435037335 0.3283579562073021
0.5140726414051048 0.5810626537481947 0.30240313968111043
0.526714655303163 0.6863805357083831 0.20422921980314535
0.6119134976180082 0.5855926595461035 0.22647863144825453
0.608532412560243 0.6847310435037335 0.3283579562073021
0.7140726414051048 0.5810626537481947 0.30240313968111043
0.726714655303163 0.6863805357083831 0.20422921980314535
0.8119134976180082 0.5855926595461035 0.22647863144825453
0.808532412560243 0.6847310435037335 0.3283579562073021
0.9140726414051049 0.5810626537481947 0.30240313968111043
0.926714655303163 0.6863805357083831 0.20422921980314535
0.01191349761800816 0.7855926595461036 0.22647863144825453
0.008532412560242954 0.8847310435037334 0.3283579562073021
0.11407264140510479 0.7810626537481946 0.30240313968111043
0.126714655303163 0.886380535708383 0.20422921980314535
0.21191349761800815 0.7855926595461036 0.22647863144825453
0.208532412560243 0.8847310435037334 0.3283579562073021
0.31407264140510477 0.7810626537481946 0.30240313968111043
0.326714655303163 0.886380535708383 0.20422921980314535
0.41191349761800816 0.7855926595461036 0.22647863144825453
0.408532412560243 0.8847310435037334 0.3283579562073021
0.5140726414051048 0.7810626537481946 0.30240313968111043
0.526714655303163 0.886380535708383 0.20422921980314535
0.6119134976180082 0.7855926595461036 0.22647863144825453
0.608532412560243 0.8847310435037334 0.3283579562073021
0.7140726414051048 0.7810626537481946 0.30240313968111043
0.726714655303163 0.886380535708383 0.20422921980314535
0.8119134976180082 0.7855926595461036 0.22647863144825453
0.808532412560243 0.8847310435037334 0.3283579562073021
0.9140726414051049 0.7810626537481946 0.30240313968111043
0.926714655303163 0.886380535708383 0.20422921980314535
0.01191349761800816 -0.01440734045389646 0.4264786314482545
0.008532412560242954 0.0847310435037334 0.5283579562073021
0.11407264140510479 -0.018937346251805348 0.5024031396811104
0.126714655303163 0.08638053570838299 0.40422921980314536
0.21191349761800815 -0.01440734045389646 0.4264786314482545
0.208532412560243 0.0847310435037334 0.5283579562073021
0.31407264140510477 -0.018937346251805348 0.5024031396811104
0.326714655303163 0.08638053570838299 0.40422921980314536
0.41191349761800816 -0.01440734045389646 0.4264786314482545
0.408532412560243 0.0847310435037334 0.5283579562073021
0.5140726414051048 -0.018937346251805348 0.5024031396811104
0.526714655303163 0.08638053570838299 0.40422921980314536
0.6119134976180082 -0.01440734045389646 0.4264786314482545
0.608532412560243 0.0847310435037334 0.5283579562073021
0.7140726414051048 -0.018937346251805348 0.5024031396811104
0.726714655303163 0.08638053570838299 0.40422921980314536
0.8119134976180082 -0.01440734045389646 0.4264786314482545
0.808532412560243 0.0847310435037334 0.5283579562073021
0.9140726414051049 -0.018937346251805348 0.5024031396811104
0.926714655303163 0.08638053570838299 0.40422921980314536
0.01191349761800816 0.18559265954610354 0.4264786314482545
0.008532412560242954 0.2847310435037334 0.5283579562073021
0.11407264140510479 0.18106265374819466 0.5024031396811104
0.126714655303163 0.286380535708383 0.40422921980314536
0.21191349761800815 0.18559265954610354 0.4264786314482545
0.208532412560243 0.2847310435037334 0.5283579562073021
0.31407264140510477 0.18106265374819466 0.5024031396811104
0.326714655303163 0.286380535708383 0.40422921980314536
0.41191349761800816 0.18559265954610354 0.4264786314482545
0.408532412560243 0.2847310435037334 0.5283579562073021
0.5140726414051048 0.18106265374819466 0.5024031396811104
0.526714655303163 0.286380535708383 0.40422921980314536
0.6119134976180082 0.18559265954610354 0.4264786314482545
0.608532412560243 0.2847310435037334 0.5283579562073021
0.7140726414051048 0.18106265374819466 0.5024031396811104
0.726714655303163 0.286380535708383 0.40422921980314536
0.8119134976180082 0.18559265954610354 0.4264786314482545
0.808532412560243 0.2847310435037334 0.5283579562073021
0.9140726414051049 0.18106265374819466 0.5024031396811104
0.926714655303163 0.286380535708383 0.40422921980314536
0.01191349761800816 0.38559265954610356 0.4264786314482545
0.008532412560242954 0.48473104350373347 0.5283579562073021
0.11407264140510479 0.3810626537481947 0.5024031396811104
0.126714655303163 0.486380535708383 0.40422921980314536
0.21191349761800815 0.38559265954610356 0.4264786314482545
0.208532412560243 0.48473104350373347 0.5283579562073021
0.31407264140510477 0.3810626537481947 0.5024031396811104
0.326714655303163 0.486380535708383 0.40422921980314536
0.41191349761800816 0.38559265954610356 0.4264786314482545
0.408532412560243 0.48473104350373347 0.5283579562073021
0.5140726414051048 0.3810626537481947 0.5024031396811104
0.526714655303163 0.486380535708383 0.40422921980314536
0.6119134976180082 0.38559265954610356 0.4264786314482545
0.608532412560243 0.48473104350373347 0.5283579562073021
0.7140726414051048 0.3810626537481947 0.5024031396811104
0.726714655303163 0.486380535708383 0.40422921980314536
0.8119134976180082 0.38559265954610356 0.4264786314482545
0.808532412560243 0.48473104350373347 0.5283579562073021
0.9140726414051049 0.3810626537481947 0.5024031396811104
0.926714655303163 0.486380535708383 0.40422921980314536
0.01191349761800816 0.5855926595461035 0.4264786314482545
0.008532412560242954 0.6847310435037335 0.5283579562073021
0.11407264140510479 0.5810626537481947 0.5024031396811104
0.126714655303163 0.6863805357083831 0.40422921980314536
0.21191349761800815 0.5855926595461035 0.4264786314482545
0.208532412560243 0.6847310435037335 0.5283579562073021
0.31407264140510477 0.5810626537481947 0.5024031396811104
0.326714655303163 0.6863805357083831 0.40422921980314536
0.41191349761800816 0.5855926595461035 0.4264786314482545
0.408532412560243 0.6847310435037335 0.5283579562073021
0.5140726414051048 0.5810626537481947 0.5024031396811104
0.526714655303163 0.6863805357083831 0.40422921980314536
0.6119134976180082 0.5855926595461035 0.4264786314482545
0.608532412560243 0.6847310435037335 0.5283579562073021
0.7140726414051048 0.5810626537481947 0.5024031396811104
0.726714655303163 0.6863805357083831 0.40422921980314536
0.8119134976180082 0.5855926595461035 0.4264786314482545
0.808532412560243 0.6847310435037335 0.5283579562073021
0.9140726414051049 0.5810626537481947 0.5024031396811104
0.926714655303163 0.6863805357083831 0.40422921980314536
0.01191349761800816 0.7855926595461036 0.4264786314482545
0.008532412560242954 0.8847310435037334 0.5283579562073021
0.11407264140510479 0.7810626537481946 0.5024031396811104
0.126714655303163 0.886380535708383 0.40422921980314536
0.21191349761800815 0.7855926595461036 0.4264786314482545
0.208532412560243 0.8847310435037334 0.5283579562073021
0.31407264140510477 0.7810626537481946 0.5024031396811104
0.326714655303163 0.886380535708383 0.40422921980314536
0.41191349761800816 0.7855926595461036 0.4264786314482545
0.408532412560243 0.8847310435037334 0.5283579562073021
0.5140726414051048 0.7810626537481946 0.5024031396811104
0.526714655303163 0.886380535708383 0.40422921980314536
0.6119134976180082 0.7855926595461036 0.4264786314482545
0.608532412560243 0.8847310435037334 0.5283579562073021
0.7140726414051048 0.7810626537481946 0.5024031396811104
0.726714655303163 0.886380535708383 0.40422921980314536
0.8119134976180082 0.7855926595461036 0.4264786314482545
0.808532412560243 0.8847310435037334 0.5283579562073021
0.9140726414051049 0.7810626537481946 0.5024031396811104
0.926714655303163 0.886380535708383 0.40422921980314536
0.01191349761800816 -0.01440734045389646 0.6264786314482546
0.008532412560242954 0.0847310435037334 0.7283579562073021
0.11407264140510479 -0.018937346251805348 0.7024031396811105
0.126714655303163 0.08638053570838299 0.6042292198031454
0.21191349761800815 -0.01440734045389646 0.6264786314482546
0.208532412560243 0.0847310435037334 0.7283579562073021
0.31407264140510477 -0.018937346251805348 0.7024031396811105
0.326714655303163 0.08638053570838299 0.6042292198031454
0.41191349761800816 -0.01440734045389646 0.6264786314482546
0.408532412560243 0.0847310435037334 0.7283579562073021
0.5140726414051048 -0.018937346251805348 0.7024031396811105
0.526714655303163 0.08638053570838299 0.6042292198031454
0.6119134976180082 -0.01440734045389646 0.6264786314482546
0.608532412560243 0.0847310435037334 0.7283579562073021
0.7140726414051048 -0.018937346251805348 0.7024031396811105
0.726714655303163 0.08638053570838299 0.6042292198031454
0.8119134976180082 -0.01440734045389646 0.6264786314482546
0.808532412560243 0.0847310435037334 0.7283579562073021
0.9140726414051049 -0.018937346251805348 0.7024031396811105
0.926714655303163 0.08638053570838299 0.6042292198031454
0.01191349761800816 0.18559265954610354 0.6264786314482546
0.008532412560242954 0.2847310435037334 0.7283579562073021
0.11407264140510479 0.18106265374819466 0.7024031396811105
0.126714655303163 0.286380535708383 0.6042292198031454
0.21191349761800815 0.18559265954610354 0.6264786314482546
0.208532412560243 0.2847310435037334 0.7283579562073021
0.31407264140510477 0.18106265374819466 0.7024031396811105
0.326714655303163 0.286380535708383 0.6042292198031454
0.41191349761800816 0.18559265954610354 0.6264786314482546
0.408532412560243 0.2847310435037334 0.7283579562073021
0.5140726414051048 0.18106265374819466 0.7024031396811105
0.526714655303163 0.286380535708383 0.6042292198031454
0.6119134976180082 0.18559265954610354 0.6264786314482546
0.608532412560243 0.2847310435037334 0.7283579562073021
0.7140726414051048 0.18106265374819466 0.7024031396811105
0.726714655303163 0.286380535708383 0.6042292198031454
0.8119134976180082 0.18559265954610354 0.6264786314482546
0.808532412560243 0.2847310435037334 0.7283579562073021
0.9140726414051049 0.18106265374819466 0.7024031396811105
0.926714655303163 0.286380535708383 0.6042292198031454
0.01191349761800816 0.38559265954610356 0.6264786314482546
0.008532412560242954 0.48473104350373347 0.7283579562073021
0.11407264140510479 0.3810626537481947 0.7024031396811105
0.126714655303163 0.486380535708383 0.6042292198031454
0.21191349761800815 0.38559265954610356 0.6264786314482546
0.208532412560243 0.48473104350373347 0.7283579562073021
0.31407264140510477 0.3810626537481947 0.7024031396811105
0.326714655303163 0.486380535708383 0.6042292198031454
0.41191349761800816 0.38559265954610356 0.6264786314482546
0.408532412560243 0.48473104350373347 0.7283579562073021
0.5140726414051048 0.3810626537481947 0.7024031396811105
0.526714655303163 0.486380535708383 0.6042292198031454
0.6119134976180082 0.38559265954610356 0.6264786314482546
0.608532412560243 0.48473104350373347 0.7283579562073021
0.7140726414051048 0.3810626537481947 0.7024031396811105
0.726714655303163 0.486380535708383 0.6042292198031454
0.8119134976180082 0.38559265954610356 0.6264786314482546
0.808532412560243 0.48473104350373347 0.7283579562073021
0.9140726414051049 0.3810626537481947 0.7024031396811105
0.926714655303163 0.486380535708383 0.6042292198031454
0.01191349761800816 0.5855926595461035 0.6264786314482546
0.008532412560242954 0.6847310435037335 0.7283579562073021
0.11407264140510479 0.5810626537481947 0.7024031396811105
0.126714655303163 0.6863805357083831 0.6042292198031454
0.21191349761800815 0.5855926595461035 0.6264786314482546
0.208532412560243 0.6847310435037335 0.7283579562073021
0.31407264140510477 0.5810626537481947 0.7024031396811105
0.326714655303163 0.6863805357083831 0.6042292198031454
0.41191349761800816 0.5855926595461035 0.6264786314482546
0.408532412560243 0.6847310435037335 0.7283579562073021
0.5140726414051048 0.5810626537481947 0.7024031396811105
0.526714655303163 0.6863805357083831 0.6042292198031454
0.6119134976180082 0.5855926595461035 0.6264786314482546
0.608532412560243 0.6847310435037335 0.7283579562073021
0.7140726414051048 0.5810626537481947 0.7024031396811105
0.726714655303163 0.6863805357083831 0.6042292198031454
0.8119134976180082 0.5855926595461035 0.6264786314482546
0.808532412560243 0.6847310435037335 0.7283579562073021
0.9140726414051049 0.5810626537481947 0.7024031396811105
0.926714655303163 0.6863805357083831 0.6042292198031454
0.01191349761800816 0.7855926595461036 0.6264786314482546
0.008532412560242954 0.8847310435037334 0.7283579562073021
0.11407264140510479 0.7810626537481946 0.7024031396811105
0.126714655303163 0.886380535708383 0.6042292198031454
0.21191349761800815 0.7855926595461036 0.6264786314482546
0.208532412560243 0.8847310435037334 0.7283579562073021
0.31407264140510477 0.7810626537481946 0.7024031396811105
0.326714655303163 0.886380535708383 0.6042292198031454
0.41191349761800816 0.7855926595461036 0.6264786314482546
0.408532412560243 0.8847310435037334 0.7283579562073021
0.5140726414051048 0.7810626537481946 0.7024031396811105
0.526714655303163 0.886380535708383 0.6042292198031454
0.6119134976180082 0.7855926595461036 0.6264786314482546
0.608532412560243 0.8847310435037334 0.7283579562073021
0.7140726414051048 0.7810626537481946 0.7024031396811105
0.726714655303163 0.886380535708383 0.6042292198031454
0.8119134976180082 0.7855926595461036 0.6264786314482546
0.808532412560243 0.8847310435037334 0.7283579562073021
0.9140726414051049 0.7810626537481946 0.7024031396811105
0.926714655303163 0.886380535708383 0.6042292198031454
0.01191349761800816 -0.01440734045389646 0.8264786314482546
0.008532412560242954 0.0847310435037334 0.9283579562073021
0.11407264140510479 -0.018937346251805348 0.9024031396811104
0.126714655303163 0.08638053570838299 0.8042292198031454
0.21191349761800815 -0.01440734045389646 0.8264786314482546
0.208532412560243 0.0847310435037334 0.9283579562073021
0.31407264140510477 -0.018937346251805348 0.9024031396811104
0.326714655303163 0.08638053570838299 0.8042292198031454
0.41191349761800816 -0.01440734045389646 0.8264786314482546
0.408532412560243 0.0847310435037334 0.9283579562073021
0.5140726414051048 -0.018937346251805348 0.9024031396811104
0.526714655303163 0.08638053570838299 0.8042292198031454
0.6119134976180082 -0.01440734045389646 0.8264786314482546
0.608532412560243 0.0847310435037334 0.9283579562073021
0.7140726414051048 -0.018937346251805348 0.9024031396811104
0.726714655303163 0.08638053570838299 0.8042292198031454
0.8119134976180082 -0.01440734045389646 0.8264786314482546
0.808532412560243 0.0847310435037334 0.9283579562073021
0.9140726414051049 -0.018937346251805348 0.9024031396811104
0.926714655303163 0.08638053570838299 0.8042292198031454
0.01191349761800816 0.18559265954610354 0.8264786314482546
0.008532412560242954 0.2847310435037334 0.9283579562073021
0.11407264140510479 0.18106265374819466 0.9024031396811104
0.126714655303163 0.286380535708383 0.8042292198031454
0.21191349761800815 0.18559265954610354 0.8264786314482546
0.208532412560243 0.2847310435037334 0.9283579562073021
0.31407264140510477 0.18106265374819466 0.9024031396811104
0.326714655303163 0.286380535708383 0.8042292198031454
0.41191349761800816 0.18559265954610354 0.8264786314482546
0.408532412560243 0.2847310435037334 0.9283579562073021
0.5140726414051048 0.18106265374819466 0.9024031396811104
0.526714655303163 0.286380535708383 0.8042292198031454
0.6119134976180082 0.18559265954610354 0.8264786314482546
0.608532412560243 0.2847310435037334 0.9283579562073021
0.7140726414051048 0.18106265374819466 0.9024031396811104
0.726714655303163 0.286380535708383 0.8042292198031454
0.8119134976180082 0.18559265954610354 0.8264786314482546
0.808532412560243 0.2847310435037334 0.9283579562073021
0.9140726414051049 0.18106265374819466 0.9024031396811104
0.926714655303163 0.286380535708383 0.8042292198031454
0.01191349761800816 0.38559265954610356 0.8264786314482546
0.008532412560242954 0.48473104350373347 0.9283579562073021
0.11407264140510479 0.3810626537481947 0.9024031396811104
0.126714655303163 0.486380535708383 0.8042292198031454
0.21191349761800815 0.38559265954610356 0.8264786314482546
0.208532412560243 0.48473104350373347 0.9283579562073021
0.31407264140510477 0.3810626537481947 0.9024031396811104
0.326714655303163 0.486380535708383 0.8042292198031454
0.41191349761800816 0.38559265954610356 0.8264786314482546
0.408532412560243 0.48473104350373347 0.9283579562073021
0.5140726414051048 0.3810626537481947 0.9024031396811104
0.526714655303163 0.486380535708383 0.8042292198031454
0.6119134976180082 0.38559265954610356 0.8264786314482546
0.608532412560243 0.48473104350373347 0.9283579562073021
0.7140726414051048 0.3810626537481947 0.9024031396811104
0.726714655303163 0.486380535708383 0.8042292198031454
0.8119134976180082 0.38559265954610356 0.8264786314482546
0.808532412560243 0.48473104350373347 0.9283579562073021
0.9140726414051049 0.3810626537481947 0.9024031396811104
0.926714655303163 0.486380535708383 0.8042292198031454
0.01191349761800816 0.5855926595461035 0.8264786314482546
0.008532412560242954 0.6847310435037335 0.9283579562073021
0.11407264140510479 0.5810626537481947 0.9024031396811104
0.126714655303163 0.6863805357083831 0.8042292198031454
0.21191349761800815 0.5855926595461035 0.8264786314482546
0.208532412560243 0.6847310435037335 0.9283579562073021
0.31407264140510477 0.5810626537481947 0.9024031396811104
0.326714655303163 0.6863805357083831 0.8042292198031454
0.41191349761800816 0.5855926595461035 0.8264786314482546
0.408532412560243 0.6847310435037335 0.9283579562073021
0.5140726414051048 0.5810626537481947 0.9024031396811104
0.526714655303163 0.6863805357083831 0.8042292198031454
0.6119134976180082 0.5855926595461035 0.8264786314482546
0.608532412560243 0.6847310435037335 0.9283579562073021
0.7140726414051048 0.5810626537481947 0.9024031396811104
0.726714655303163 0.6863805357083831 0.8042292198031454
0.8119134976180082 0.5855926595461035 0.8264786314482546
0.808532412560243 0.6847310435037335 0.9283579562073021
0.9140726414051049 0.5810626537481947 0.9024031396811104
0.926714655303163 0.6863805357083831 0.8042292198031454
0.01191349761800816 0.7855926595461036 0.8264786314482546
0.008532412560242954 0.8847310435037334 0.9283579562073021
0.11407264140510479 0.7810626537481946 0.9024031396811104
0.126714655303163 0.886380535708383 0.8042292198031454
0.21191349761800815 0.7855926595461036 0.8264786314482546
0.208532412560243 0.8847310435037334 0.9283579562073021
0.31407264140510477 0.7810626537481946 0.9024031396811104
0.326714655303163 0.886380535708383 0.8042292198031454
0.41191349761800816 0.7855926595461036 0.8264786314482546
0.408532412560243 0.8847310435037334 0.9283579562073021
0.5140726414051048 0.7810626537481946 0.9024031396811104
0.526714655303163 0.886380535708383 0.8042292198031454
0.6119134976180082 0.7855926595461036 0.8264786314482546
0.608532412560243 0.8847310435037334 0.9283579562073021
0.7140726414051048 0.7810626537481946 0.9024031396811104
0.726714655303163 0.886380535708383 0.8042292198031454
0.8119134976180082 0.7855926595461036 0.8264786314482546
0.808532412560243 0.8847310435037334 0.9283579562073021
0.9140726414051049 0.7810626537481946 0.9024031396811104
0.926714655303163 0.886380535708383 0.8042292198031454
0.11781590965097276 -0.011127770222252023 0.024234641386094862
-0.016447228792710825 0.12103224620864146 -0.016076237566688793
-0.025475948972077306 0.0015968631835057137 0.12648369471872606
0.09349946928748565 0.10734114598539897 0.10559603285573749
0.3178159096509727 -0.011127770222252023 0.024234641386094862
0.1835527712072892 0.12103224620864146 -0.016076237566688793
0.1745240510279227 0.0015968631835057137 0.12648369471872606
0.29349946928748566 0.10734114598539897 0.10559603285573749
0.5178159096509728 -0.011127770222252023 0.024234641386094862
0.3835527712072892 0.12103224620864146 -0.016076237566688793
0.3745240510279227 0.0015968631835057137 0.12648369471872606
0.49349946928748567 0.10734114598539897 0.10559603285573749
0.7178159096509727 -0.011127770222252023 0.024234641386094862
0.5835527712072892 0.12103224620864146 -0.016076237566688793
0.5745240510279227 0.0015968631835057137 0.12648369471872606
0.6934994692874857 0.10734114598539897 0.10559603285573749
0.9178159096509728 -0.011127770222252023 0.024234641386094862
0.7835527712072893 0.12103224620864146 -0.016076237566688793
0.7745240510279228 0.0015968631835057137 0.12648369471872606
0.8934994692874856 0.10734114598539897 0.10559603285573749
0.11781590965097276 0.18887222977774798 0.024234641386094862
-0.016447228792710825 0.32103224620864146 -0.016076237566688793
-0.025475948972077306 0.20159686318350573 0.12648369471872606
0.09349946928748565 0.30734114598539897 0.10559603285573749
0.3178159096509727 0.18887222977774798 0.024234641386094862
0.1835527712072892 0.32103224620864146 -0.016076237566688793
0.1745240510279227 0.20159686318350573 0.12648369471872606
0.29349946928748566 0.30734114598539897 0.10559603285573749
0.5178159096509728 0.18887222977774798 0.024234641386094862
0.3835527712072892 0.32103224620864146 -0.016076237566688793
0.3745240510279227 0.20159686318350573 0.12648369471872606
0.49349946928748567 0.30734114598539897 0.10559603285573749
0.7178159096509727 0.18887222977774798 0.024234641386094862
0.5835527712072892 0.32103224620864146 -0.016076237566688793
0.5745240510279227 0.20159686318350573 0.12648369471872606
0.6934994692874857 0.30734114598539897 0.10559603285573749
0.9178159096509728 0.18887222977774798 0.024234641386094862
0.7835527712072893 0.32103224620864146 -0.016076237566688793
0.7745240510279228 0.20159686318350573 0.12648369471872606
0.8934994692874856 0.30734114598539897 0.10559603285573749
0.11781590965097276 0.388872229777748 0.024234641386094862
-0.016447228792710825 0.5210322462086415 -0.016076237566688793
-0.025475948972077306 0.40159686318350574 0.12648369471872606
0.09349946928748565 0.507341145985399 0.10559603285573749
0.3178159096509727 0.388872229777748 0.024234641386094862
0.1835527712072892 0.5210322462086415 -0.016076237566688793
0.1745240510279227 0.40159686318350574 0.12648369471872606
0.29349946928748566 0.507341145985399 0.10559603285573749
0.5178159096509728 0.388872229777748 0.024234641386094862
0.3835527712072892 0.5210322462086415 -0.016076237566688793
0.3745240510279227 0.40159686318350574 0.12648369471872606
0.49349946928748567 0.507341145985399 0.10559603285573749
0.7178159096509727 0.388872229777748 0.024234641386094862
0.5835527712072892 0.5210322462086415 -0.016076237566688793
0.5745240510279227 0.40159686318350574 0.12648369471872606
0.6934994692874857 0.507341145985399 0.10559603285573749
0.9178159096509728 0.388872229777748 0.024234641386094862
0.7835527712072893 0.5210322462086415 -0.016076237566688793
0.7745240510279228 0.40159686318350574 0.12648369471872606
0.8934994692874856 0.507341145985399 0.10559603285573749
0.11781590965097276 0.588872229777748 0.024234641386094862
-0.016447228792710825 0.7210322462086416 -0.016076237566688793
-0.025475948972077306 0.6015968631835058 0.12648369471872606
0.09349946928748565 0.707341145985399 0.10559603285573749
0.3178159096509727 0.588872229777748 0.024234641386094862
0.1835527712072892 0.7210322462086416 -0.016076237566688793
0.1745240510279227 0.6015968631835058 0.12648369471872606
0.29349946928748566 0.707341145985399 0.10559603285573749
0.5178159096509728 0.588872229777748 0.024234641386094862
0.3835527712072892 0.7210322462086416 -0.016076237566688793
0.3745240510279227 0.6015968631835058 0.12648369471872606
0.49349946928748567 0.707341145985399 0.10559603285573749
0.7178159096509727 0.588872229777748 0.024234641386094862
0.5835527712072892 0.7210322462086416 -0.016076237566688793
0.5745240510279227 0.6015968631835058 0.12648369471872606
0.6934994692874857 0.707341145985399 0.10559603285573749
0.9178159096509728 0.588872229777748 0.024234641386094862
0.7835527712072893 0.7210322462086416 -0.016076237566688793
0.7745240510279228 0.6015968631835058 0.12648369471872606
0.8934994692874856 0.707341145985399 0.10559603285573749
0.11781590965097276 0.788872229777748 0.024234641386094862
-0.016447228792710825 0.9210322462086415 -0.016076237566688793
-0.025475948972077306 0.8015968631835056 0.12648369471872606
0.09349946928748565 0.9073411459853991 0.10559603285573749
0.3178159096509727 0.788872229777748 0.024234641386094862
0.1835527712072892 0.9210322462086415 -0.016076237566688793
0.1745240510279227 0.8015968631835056 0.12648369471872606
0.29349946928748566 0.9073411459853991 0.10559603285573749
0.5178159096509728 0.788872229777748 0.024234641386094862
0.3835527712072892 0.9210322462086415 -0.016076237566688793
0.3745240510279227 0.8015968631835056 0.12648369471872606
0.49349946928748567 0.9073411459853991 0.10559603285573749
0.7178159096509727 0.788872229777748 0.024234641386094862
0.5835527712072892 0.9210322462086415 -0.016076237566688793
0.5745240510279227 0.8015968631835056 0.12648369471872606
0.6934994692874857 0.9073411459853991 0.10559603285573749
0.9178159096509728 0.788872229777748 0.024234641386094862
0.7835527712072893 0.9210322462086415 -0.016076237566688793
0.7745240510279228 0.8015968631835056 0.12648369471872606
0.8934994692874856 0.9073411459853991 0.10559603285573749
0.11781590965097276 -0.011127770222252023 0.22423464138609486
-0.016447228792710825 0.12103224620864146 0.1839237624333112
-0.025475948972077306 0.0015968631835057137 0.32648369471872607
0.09349946928748565 0.10734114598539897 0.3055960328557375
0.3178159096509727 -0.011127770222252023 0.22423464138609486
0.1835527712072892 0.12103224620864146 0.1839237624333112
0.1745240510279227 0.0015968631835057137 0.32648369471872607
0.29349946928748566 0.10734114598539897 0.3055960328557375
0.5178159096509728 -0.011127770222252023 0.22423464138609486
0.3835527712072892 0.12103224620864146 0.1839237624333112
0.3745240510279227 0.0015968631835057137 0.32648369471872607
0.49349946928748567 0.10734114598539897 0.3055960328557375
0.7178159096509727 -0.011127770222252023 0.22423464138609486
0.5835527712072892 0.12103224620864146 0.1839237624333112
0.5745240510279227 0.0015968631835057137 0.32648369471872607
0.6934994692874857 0.10734114598539897 0.3055960328557375
0.9178159096509728 -0.011127770222252023 0.22423464138609486
0.7835527712072893 0.12103224620864146 0.1839237624333112
0.7745240510279228 0.0015968631835057137 0.32648369471872607
0.8934994692874856 0.10734114598539897 0.3055960328557375
0.11781590965097276 0.18887222977774798 0.22423464138609486
-0.016447228792710825 0.32103224620864146 0.1839237624333112
-0.025475948972077306 0.20159686318350573 0.32648369471872607
0.09349946928748565 0.30734114598539897 0.3055960328557375
0.3178159096509727 0.18887222977774798 0.22423464138609486
0.1835527712072892 0.32103224620864146 0.1839237624333112
0.1745240510279227 0.20159686318350573 0.32648369471872607
0.29349946928748566 0.30734114598539897 0.3055960328557375
0.5178159096509728 0.18887222977774798 0.22423464138609486
0.3835527712072892 0.32103224620864146 0.1839237624333112
0.3745240510279227 0.20159686318350573 0.32648369471872607
0.49349946928748567 0.30734114598539897 0.3055960328557375
0.7178159096509727 0.18887222977774798 0.22423464138609486
0.5835527712072892 0.32103224620864146 0.1839237624333112
0.5745240510279227 0.20159686318350573 0.32648369471872607
0.6934994692874857 0.30734114598539897 0.3055960328557375
0.9178159096509728 0.18887222977774798 0.22423464138609486
0.7835527712072893 0.32103224620864146 0.1839237624333112
0.7745240510279228 0.20159686318350573 0.32648369471872607
0.8934994692874856 0.30734114598539897 0.3055960328557375
0.11781590965097276 0.388872229777748 0.22423464138609486
-0.016447228792710825 0.5210322462086415 0.1839237624333112
-0.025475948972077306 0.40159686318350574 0.32648369471872607
0.09349946928748565 0.507341145985399 0.3055960328557375
0.3178159096509727 0.388872229777748 0.22423464138609486
0.1835527712072892 0.5210322462086415 0.1839237624333112
0.1745240510279227 0.40159686318350574 0.32648369471872607
0.29349946928748566 0.507341145985399 0.3055960328557375
0.5178159096509728 0.388872229777748 0.22423464138609486
0.3835527712072892 0.5210322462086415 0.1839237624333112
0.3745240510279227 0.40159686318350574 0.32648369471872607
0.49349946928748567 0.507341145985399 0.3055960328557375
0.7178159096509727 0.388872229777748 0.22423464138609486
0.5835527712072892 0.5210322462086415 0.1839237624333112
0.5745240510279227 0.40159686318350574 0.32648369471872607
0.6934994692874857 0.507341145985399 0.3055960328557375
0.9178159096509728 0.388872229777748 0.22423464138609486
0.7835527712072893 0.5210322462086415 0.1839237624333112
0.7745240510279228 0.40159686318350574 0.32648369471872607
0.8934994692874856 0.507341145985399 0.3055960328557375
0.11781590965097276 0.588872229777748 0.22423464138609486
-0.016447228792710825 0.7210322462086416 0.1839237624333112
-0.025475948972077306 0.6015968631835058 0.32648369471872607
0.09349946928748565 0.707341145985399 0.3055960328557375
0.3178159096509727 0.588872229777748 0.22423464138609486
0.1835527712072892 0.7210322462086416 0.1839237624333112
0.1745240510279227 0.6015968631835058 0.32648369471872607
0.29349946928748566 0.707341145985399 0.3055960328557375
0.5178159096509728 0.588872229777748 0.22423464138609486
0.3835527712072892 0.7210322462086416 0.1839237624333112
0.3745240510279227 0.6015968631835058 0.32648369471872607
0.49349946928748567 0.707341145985399 0.3055960328557375
0.7178159096509727 0.588872229777748 0.22423464138609486
0.5835527712072892 0.7210322462086416 0.1839237624333112
0.5745240510279227 0.6015968631835058 0.32648369471872607
0.6934994692874857 0.707341145985399 0.3055960328557375
0.9178159096509728 0.588872229777748 0.22423464138609486
0.7835527712072893 0.7210322462086416 0.1839237624333112
0.7745240510279228 0.6015968631835058 0.32648369471872607
0.8934994692874856 0.707341145985399 0.3055960328557375
0.11781590965097276 0.788872229777748 0.22423464138609486
-0.016447228792710825 0.9210322462086415 0.1839237624333112
-0.025475948972077306 0.8015968631835056 0.32648369471872607
0.09349946928748565 0.9073411459853991 0.3055960328557375
0.3178159096509727 0.788872229777748 0.22423464138609486
0.1835527712072892 0.9210322462086415 0.1839237624333112
0.1745240510279227 0.8015968631835056 0.32648369471872607
0.29349946928748566 0.9073411459853991 0.3055960328557375
0.5178159096509728 0.788872229777748 0.22423464138609486
0.3835527712072892 0.9210322462086415 0.1839237624333112
0.3745240510279227 0.8015968631835056 0.32648369471872607
0.49349946928748567 0.9073411459853991 0.3055960328557375
0.7178159096509727 0.788872229777748 0.22423464138609486
0.5835527712072892 0.9210322462086415 0.1839237624333112
0.5745240510279227 0.8015968631835056 0.32648369471872607
0.6934994692874857 0.9073411459853991 0.3055960328557375
0.9178159096509728 0.788872229777748 0.22423464138609486
0.7835527712072893 0.9210322462086415 0.1839237624333112
0.7745240510279228 0.8015968631835056 0.32648369471872607
0.8934994692874856 0.9073411459853991 0.3055960328557375
0.11781590965097276 -0.011127770222252023 0.4242346413860949
-0.016447228792710825 0.12103224620864146 0.3839237624333112
-0.025475948972077306 0.0015968631835057137 0.5264836947187261
0.09349946928748565 0.10734114598539897 0.5055960328557375
0.3178159096509727 -0.011127770222252023 0.4242346413860949
0.1835527712072892 0.12103224620864146 0.3839237624333112
0.1745240510279227 0.0015968631835057137 0.5264836947187261
0.29349946928748566 0.10734114598539897 0.5055960328557375
0.5178159096509728 -0.011127770222252023 0.4242346413860949
0.3835527712072892 0.12103224620864146 0.3839237624333112
0.3745240510279227 0.0015968631835057137 0.5264836947187261
0.49349946928748567 0.10734114598539897 0.5055960328557375
0.7178159096509727 -0.011127770222252023 0.4242346413860949
0.5835527712072892 0.12103224620864146 0.3839237624333112
0.5745240510279227 0.0015968631835057137 0.5264836947187261
0.6934994692874857 0.10734114598539897 0.5055960328557375
0.9178159096509728 -0.011127770222252023 0.4242346413860949
0.7835527712072893 0.12103224620864146 0.3839237624333112
0.7745240510279228 0.0015968631835057137 0.5264836947187261
0.8934994692874856 0.10734114598539897 0.5055960328557375
0.11781590965097276 0.18887222977774798 0.4242346413860949
-0.016447228792710825 0.32103224620864146 0.3839237624333112
-0.025475948972077306 0.20159686318350573 0.5264836947187261
0.09349946928748565 0.30734114598539897 0.5055960328557375
0.3178159096509727 0.18887222977774798 0.4242346413860949
0.1835527712072892 0.32103224620864146 0.3839237624333112
0.1745240510279227 0.20159686318350573 0.5264836947187261
0.29349946928748566 0.30734114598539897 0.5055960328557375
0.5178159096509728 0.18887222977774798 0.4242346413860949
0.3835527712072892 0.32103224620864146 0.3839237624333112
0.3745240510279227 0.20159686318350573 0.5264836947187261
0.49349946928748567 0.30734114598539897 0.5055960328557375
0.7178159096509727 0.18887222977774798 0.4242346413860949
0.5835527712072892 0.32103224620864146 0.3839237624333112
0.5745240510279227 0.20159686318350573 0.5264836947187261
0.6934994692874857 0.30734114598539897 0.5055960328557375
0.9178159096509728 0.18887222977774798 0.4242346413860949
0.7835527712072893 0.32103224620864146 0.3839237624333112
0.7745240510279228 0.20159686318350573 0.5264836947187261
0.8934994692874856 0.30734114598539897 0.5055960328557375
0.11781590965097276 0.388872229777748 0.4242346413860949
-0.016447228792710825 0.5210322462086415 0.3839237624333112
-0.025475948972077306 0.40159686318350574 0.5264836947187261
0.09349946928748565 0.507341145985399 0.5055960328557375
0.3178159096509727 0.388872229777748 0.4242346413860949
0.1835527712072892 0.5210322462086415 0.3839237624333112
0.1745240510279227 0.40159686318350574 0.5264836947187261
0.29349946928748566 0.507341145985399 0.5055960328557375
0.5178159096509728 0.388872229777748 0.4242346413860949
0.3835527712072892 0.5210322462086415 0.3839237624333112
0.3745240510279227 0.40159686318350574 0.5264836947187261
0.49349946928748567 0.507341145985399 0.5055960328557375
0.7178159096509727 0.388872229777748 0.4242346413860949
0.5835527712072892 0.5210322462086415 0.3839237624333112
0.5745240510279227 0.40159686318350574 0.5264836947187261
0.6934994692874857 0.507341145985399 0.5055960328557375
0.9178159096509728 0.388872229777748 0.4242346413860949
0.7835527712072893 0.5210322462086415 0.3839237624333112
0.7745240510279228 0.40159686318350574 0.5264836947187261
0.8934994692874856 0.507341145985399 0.5055960328557375
0.11781590965097276 0.588872229777748 0.4242346413860949
-0.016447228792710825 0.7210322462086416 0.3839237624333112
-0.025475948972077306 0.6015968631835058 0.5264836947187261
0.09349946928748565 0.707341145985399 0.5055960328557375
0.3178159096509727 0.588872229777748 0.4242346413860949
0.1835527712072892 0.7210322462086416 0.3839237624333112
0.1745240510279227 0.6015968631835058 0.5264836947187261
0.29349946928748566 0.707341145985399 0.5055960328557375
0.5178159096509728 0.588872229777748 0.4242346413860949
0.3835527712072892 0.7210322462086416 0.3839237624333112
0.3745240510279227 0.6015968631835058 0.5264836947187261
0.49349946928748567 0.707341145985399 0.5055960328557375
0.7178159096509727 0.588872229777748 0.4242346413860949
0.5835527712072892 0.7210322462086416 0.3839237624333112
0.5745240510279227 0.6015968631835058 0.5264836947187261
0.6934994692874857 0.707341145985399 0.5055960328557375
0.9178159096509728 0.588872229777748 0.4242346413860949
0.7835527712072893 0.7210322462086416 0.3839237624333112
0.7745240510279228 0.6015968631835058 0.5264836947187261
0.8934994692874856 0.707341145985399 0.5055960328557375
0.11781590965097276 0.788872229777748 0.4242346413860949
-0.016447228792710825 0.9210322462086415 0.3839237624333112
-0.025475948972077306 0.8015968631835056 0.5264836947187261
0.09349946928748565 0.9073411459853991 0.5055960328557375
0.3178159096509727 0.788872229777748 0.4242346413860949
0.1835527712072892 0.9210322462086415 0.3839237624333112
0.1745240510279227 0.8015968631835056 0.5264836947187261
0.29349946928748566 0.9073411459853991 0.5055960328557375
0.5178159096509728 0.788872229777748 0.4242346413860949
0.3835527712072892 0.9210322462086415 0.3839237624333112
0.3745240510279227 0.8015968631835056 0.5264836947187261
0.49349946928748567 0.9073411459853991 0.5055960328557375
0.7178159096509727 0.788872229777748 0.4242346413860949
0.5835527712072892 0.9210322462086415 0.3839237624333112
0.5745240510279227 0.8015968631835056 0.5264836947187261
0.6934994692874857 0.9073411459853991 0.5055960328557375
0.9178159096509728 0.788872229777748 0.4242346413860949
0.7835527712072893 0.9210322462086415 0.3839237624333112
0.7745240510279228 0.8015968631835056 0.5264836947187261
0.8934994692874856 0.9073411459853991 0.5055960328557375
0.11781590965097276 -0.011127770222252023 0.6242346413860949
-0.016447228792710825 0.12103224620864146 0.5839237624333112
-0.025475948972077306 0.0015968631835057137 0.7264836947187261
0.09349946928748565 0.10734114598539897 0.7055960328557376
0.3178159096509727 -0.011127770222252023 0.6242346413860949
0.1835527712072892 0.12103224620864146 0.5839237624333112
0.1745240510279227 0.0015968631835057137 0.7264836947187261
0.29349946928748566 0.10734114598539897 0.7055960328557376
0.5178159096509728 -0.011127770222252023 0.6242346413860949
0.3835527712072892 0.12103224620864146 0.5839237624333112
0.3745240510279227 0.0015968631835057137 0.7264836947187261
0.49349946928748567 0.10734114598539897 0.7055960328557376
0.7178159096509727 -0.011127770222252023 0.6242346413860949
0.5835527712072892 0.12103224620864146 0.5839237624333112
0.5745240510279227 0.0015968631835057137 0.7264836947187261
0.6934994692874857 0.10734114598539897 0.7055960328557376
0.9178159096509728 -0.011127770222252023 0.6242346413860949
0.7835527712072893 0.12103224620864146 0.5839237624333112
0.7745240510279228 0.0015968631835057137 0.7264836947187261
0.8934994692874856 0.10734114598539897 0.7055960328557376
0.11781590965097276 0.18887222977774798 0.6242346413860949
-0.016447228792710825 0.32103224620864146 0.5839237624333112
-0.025475948972077306 0.20159686318350573 0.7264836947187261
0.09349946928748565 0.30734114598539897 0.7055960328557376
0.3178159096509727 0.18887222977774798 0.6242346413860949
0.1835527712072892 0.32103224620864146 0.5839237624333112
0.1745240510279227 0.20159686318350573 0.7264836947187261
0.29349946928748566 0.30734114598539897 0.7055960328557376
0.5178159096509728 0.18887222977774798 0.6242346413860949
0.3835527712072892 0.32103224620864146 0.5839237624333112
0.3745240510279227 0.20159686318350573 0.7264836947187261
0.49349946928748567 0.30734114598539897 0.7055960328557376
0.7178159096509727 0.18887222977774798 0.6242346413860949
0.5835527712072892 0.32103224620864146 0.5839237624333112
0.5745240510279227 0.20159686318350573 0.7264836947187261
0.6934994692874857 0.30734114598539897 0.7055960328557376
0.9178159096509728 0.18887222977774798 0.6242346413860949
0.7835527712072893 0.32103224620864146 0.5839237624333112
0.7745240510279228 0.20159686318350573 0.7264836947187261
0.8934994692874856 0.30734114598539897 0.7055960328557376
0.11781590965097276 0.388872229777748 0.6242346413860949
-0.016447228792710825 0.5210322462086415 0.5839237624333112
-0.025475948972077306 0.40159686318350574 0.7264836947187261
0.09349946928748565 0.507341145985399 0.7055960328557376
0.3178159096509727 0.388872229777748 0.6242346413860949
0.1835527712072892 0.5210322462086415 0.5839237624333112
0.1745240510279227 0.40159686318350574 0.7264836947187261
0.29349946928748566 0.507341145985399 0.7055960328557376
0.5178159096509728 0.388872229777748 0.6242346413860949
0.3835527712072892 0.5210322462086415 0.5839237624333112
0.3745240510279227 0.40159686318350574 0.7264836947187261
0.49349946928748567 0.507341145985399 0.7055960328557376
0.7178159096509727 0.388872229777748 0.6242346413860949
0.5835527712072892 0.5210322462086415 0.5839237624333112
0.5745240510279227 0.40159686318350574 0.7264836947187261
0.6934994692874857 0.507341145985399 0.7055960328557376
0.9178159096509728 0.388872229777748 0.6242346413860949
0.7835527712072893 0.5210322462086415 0.5839237624333112
0.7745240510279228 0.40159686318350574 0.7264836947187261
0.8934994692874856 0.507341145985399 0.7055960328557376
0.11781590965097276 0.588872229777748 0.6242346413860949
-0.016447228792710825 0.7210322462086416 0.5839237624333112
-0.025475948972077306 0.6015968631835058 0.7264836947187261
0.09349946928748565 0.707341145985399 0.7055960328557376
0.3178159096509727 0.588872229777748 0.6242346413860949
0.1835527712072892 0.7210322462086416 0.5839237624333112
0.1745240510279227 0.6015968631835058 0.7264836947187261
0.29349946928748566 0.707341145985399 0.7055960328557376
0.5178159096509728 0.588872229777748 0.6242346413860949
0.3835527712072892 0.7210322462086416 0.5839237624333112
0.3745240510279227 0.6015968631835058 0.7264836947187261
0.49349946928748567 0.707341145985399 0.7055960328557376
0.7178159096509727 0.588872229777748 0.6242346413860949
0.5835527712072892 0.7210322462086416 0.5839237624333112
0.5745240510279227 0.6015968631835058 0.7264836947187261
0.6934994692874857 0.707341145985399 0.7055960328557376
0.9178159096509728 0.588872229777748 0.6242346413860949
0.7835527712072893 0.7210322462086416 0.5839237624333112
0.7745240510279228 0.6015968631835058 0.7264836947187261
0.8934994692874856 0.707341145985399 0.7055960328557376
0.11781590965097276 0.788872229777748 0.6242346413860949
-0.016447228792710825 0.9210322462086415 0.5839237624333112
-0.025475948972077306 0.8015968631835056 0.7264836947187261
0.09349946928748565 0.9073411459853991 0.7055960328557376
0.3178159096509727 0.788872229777748 0.6242346413860949
0.1835527712072892 0.9210322462086415 0.5839237624333112
0.1745240510279227 0.8015968631835056 0.7264836947187261
0.29349946928748566 0.9073411459853991 0.7055960328557376
0.5178159096509728 0.788872229777748 0.6242346413860949
0.3835527712072892 0.9210322462086415 0.5839237624333112
0.3745240510279227 0.8015968631835056 0.7264836947187261
0.49349946928748567 0.9073411459853991 0.7055960328557376
0.7178159096509727 0.788872229777748 0.6242346413860949
0.5835527712072892 0.9210322462086415 0.5839237624333112
0.5745240510279227 0.8015968631835056 0.7264836947187261
0.6934994692874857 0.9073411459853991 0.7055960328557376
0.9178159096509728 0.788872229777748 0.6242346413860949
0.7835527712072893 0.9210322462086415 0.5839237624333112
0.7745240510279228 0.8015968631835056 0.7264836947187261
0.8934994692874856 0.9073411459853991 0.7055960328557376
0.11781590965097276 -0.011127770222252023 0.8242346413860949
-0.016447228792710825 0.12103224620864146 0.7839237624333113
-0.025475948972077306 0.0015968631835057137 0.9264836947187262
0.09349946928748565 0.10734114598539897 0.9055960328557376
0.3178159096509727 -0.011127770222252023 0.8242346413860949
0.1835527712072892 0.12103224620864146 0.7839237624333113
0.1745240510279227 0.0015968631835057137 0.9264836947187262
0.29349946928748566 0.10734114598539897 0.9055960328557376
0.5178159096509728 -0.011127770222252023 0.8242346413860949
0.3835527712072892 0.12103224620864146 0.7839237624333113
0.3745240510279227 0.0015968631835057137 0.9264836947187262
0.49349946928748567 0.10734114598539897 0.9055960328557376
0.7178159096509727 -0.011127770222252023 0.8242346413860949
0.5835527712072892 0.12103224620864146 0.7839237624333113
0.5745240510279227 0.0015968631835057137 0.9264836947187262
0.6934994692874857 0.10734114598539897 0.9055960328557376
0.9178159096509728 -0.011127770222252023 0.8242346413860949
0.7835527712072893 0.12103224620864146 0.7839237624333113
0.7745240510279228 0.0015968631835057137 0.9264836947187262
0.8934994692874856 0.10734114598539897 0.9055960328557376
0.11781590965097276 0.18887222977774798 0.8242346413860949
-0.016447228792710825 0.32103224620864146 0.7839237624333113
-0.025475948972077306 0.20159686318350573 0.9264836947187262
0.09349946928748565 0.30734114598539897 0.9055960328557376
0.3178159096509727 0.18887222977774798 0.8242346413860949
0.1835527712072892 0.32103224620864146 0.7839237624333113
0.1745240510279227 0.20159686318350573 0.9264836947187262
0.29349946928748566 0.30734114598539897 0.9055960328557376
0.5178159096509728 0.18887222977774798 0.8242346413860949
0.3835527712072892 0.32103224620864146 0.7839237624333113
0.3745240510279227 0.20159686318350573 0.9264836947187262
0.49349946928748567 0.30734114598539897 0.9055960328557376
0.7178159096509727 0.18887222977774798 0.8242346413860949
0.5835527712072892 0.32103224620864146 0.7839237624333113
0.5745240510279227 0.20159686318350573 0.9264836947187262
0.6934994692874857 0.30734114598539897 0.9055960328557376
0.9178159096509728 0.18887222977774798 0.8242346413860949
0.7835527712072893 0.32103224620864146 0.7839237624333113
0.7745240510279228 0.20159686318350573 0.9264836947187262
0.8934994692874856 0.30734114598539897 0.9055960328557376
0.11781590965097276 0.388872229777748 0.8242346413860949
-0.016447228792710825 0.5210322462086415 0.7839237624333113
-0.025475948972077306 0.40159686318350574 0.9264836947187262
0.09349946928748565 0.507341145985399 0.9055960328557376
0.3178159096509727 0.388872229777748 0.8242346413860949
0.1835527712072892 0.5210322462086415 0.7839237624333113
0.1745240510279227 0.40159686318350574 0.9264836947187262
0.29349946928748566 0.507341145985399 0.9055960328557376
0.5178159096509728 0.388872229777748 0.8242346413860949
0.3835527712072892 0.5210322462086415 0.7839237624333113
0.3745240510279227 0.40159686318350574 0.9264836947187262
0.49349946928748567 0.507341145985399 0.9055960328557376
0.7178159096509727 0.388872229777748 0.8242346413860949
0.5835527712072892 0.5210322462086415 0.7839237624333113
0.5745240510279227 0.40159686318350574 0.9264836947187262
0.6934994692874857 0.507341145985399 0.9055960328557376
0.9178159096509728 0.388872229777748 0.8242346413860949
0.7835527712072893 0.5210322462086415 0.7839237624333113
0.7745240510279228 0.40159686318350574 0.9264836947187262
0.8934994692874856 0.507341145985399 0.9055960328557376
0.11781590965097276 0.588872229777748 0.8242346413860949
-0.016447228792710825 0.7210322462086416 0.7839237624333113
-0.025475948972077306 0.6015968631835058 0.9264836947187262
0.09349946928748565 0.707341145985399 0.9055960328557376
0.3178159096509727 0.588872229777748 0.8242346413860949
0.1835527712072892 0.7210322462086416 0.7839237624333113
0.1745240510279227 0.6015968631835058 0.9264836947187262
0.29349946928748566 0.707341145985399 0.9055960328557376
0.5178159096509728 0.588872229777748 0.8242346413860949
0.3835527712072892 0.7210322462086416 0.7839237624333113
0.3745240510279227 0.6015968631835058 0.9264836947187262
0.49349946928748567 0.707341145985399 0.9055960328557376
0.7178159096509727 0.588872229777748 0.8242346413860949
0.5835527712072892 0.7210322462086416 0.7839237624333113
0.5745240510279227 0.6015968631835058 0.9264836947187262
0.6934994692874857 0.707341145985399 0.9055960328557376
0.9178159096509728 0.588872229777748 0.8242346413860949
0.7835527712072893 0.7210322462086416 0.7839237624333113
0.7745240510279228 0.6015968631835058 0.9264836947187262
0.8934994692874856 0.707341145985399 0.9055960328557376
0.11781590965097276 0.788872229777748 0.8242346413860949
-0.016447228792710825 0.9210322462086415 0.7839237624333113
-0.025475948972077306 0.8015968631835056 0.9264836947187262
0.09349946928748565 0.9073411459853991 0.9055960328557376
0.3178159096509727 0.788872229777748 0.8242346413860949
0.1835527712072892 0.9210322462086415 0.7839237624333113
0.1745240510279227 0.8015968631835056 0.9264836947187262
0.29349946928748566 0.9073411459853991 0.9055960328557376
0.5178159096509728 0.788872229777748 0.8242346413860949
0.3835527712072892 0.9210322462086415 0.7839237624333113
0.3745240510279227 0.8015968631835056 0.9264836947187262
0.49349946928748567 0.9073411459853991 0.9055960328557376
0.7178159096509727 0.788872229777748 0.8242346413860949
0.5835527712072892 0.9210322462086415 0.7839237624333113
0.5745240510279227 0.8015968631835056 0.9264836947187262
0.6934994692874857 0.9073411459853991 0.9055960328557376
0.9178159096509728 0.788872229777748 0.8242346413860949
0.7835527712072893 0.9210322462086415 0.7839237624333113
0.7745240510279228 0.8015968631835056 0.9264836947187262
0.8934994692874856 0.9073411459853991 0.9055960328557376
