FCC BaO
5.61604
3.0 0.0 0.0
0.0 3.0 0.0
0.0 0.0 3.0
Ba O 
108 108 
Direct
-0.19246389107372114 -0.021626811944730907 0.06809983541991038
0.048244483888032604 0.34694736597678055 0.2720611665528112
-0.034036149000607224 0.03116680293647277 0.3022970634546772
0.46204106451699156 0.36266682050673804 -0.10835300645539554
0.14086944225961218 -0.021626811944730907 0.06809983541991038
0.38157781722136597 0.34694736597678055 0.2720611665528112
0.2992971843327261 0.03116680293647277 0.3022970634546772
0.7953743978503249 0.36266682050673804 -0.10835300645539554
0.4742027755929455 -0.021626811944730907 0.06809983541991038
0.7149111505546992 0.34694736597678055 0.2720611665528112
0.6326305176660594 0.03116680293647277 0.3022970634546772
1.1287077311836582 0.36266682050673804 -0.10835300645539554
-0.19246389107372114 0.3117065213886024 0.06809983541991038
0.048244483888032604 0.6802806993101138 0.2720611665528112
-0.034036149000607224 0.36450013626980604 0.3022970634546772
0.46204106451699156 0.6960001538400713 -0.10835300645539554
0.14086944225961218 0.3117065213886024 0.06809983541991038
0.38157781722136597 0.6802806993101138 0.2720611665528112
0.2992971843327261 0.36450013626980604 0.3022970634546772
0.7953743978503249 0.6960001538400713 -0.10835300645539554
0.4742027755929455 0.3117065213886024 0.06809983541991038
0.7149111505546992 0.6802806993101138 0.2720611665528112
0.6326305176660594 0.36450013626980604 0.3022970634546772
1.1287077311836582 0.6960001538400713 -0.10835300645539554
-0.19246389107372114 0.6450398547219357 0.06809983541991038
0.048244483888032604 1.013614032643447 0.2720611665528112
-0.034036149000607224 0.6978334696031394 0.3022970634546772
0.46204106451699156 1.0293334871734046 -0.10835300645539554
0.14086944225961218 0.6450398547219357 0.06809983541991038
0.38157781722136597 1.013614032643447 0.2720611665528112
0.2992971843327261 0.6978334696031394 0.3022970634546772
0.7953743978503249 1.0293334871734046 -0.10835300645539554
0.4742027755929455 0.6450398547219357 0.06809983541991038
0.7149111505546992 1.013614032643447 0.2720611665528112
0.6326305176660594 0.6978334696031394 0.3022970634546772
1.1287077311836582 1.0293334871734046 -0.10835300645539554
-0.19246389107372114 -0.021626811944730907 0.40143316875324375
0.048244483888032604 0.34694736597678055 0.6053944998861445
-0.034036149000607224 0.03116680293647277 0.6356303967880106
0.46204106451699156 0.36266682050673804 0.2249803268779378
0.14086944225961218 -0.021626811944730907 0.40143316875324375
0.38157781722136597 0.34694736597678055 0.6053944998861445
0.2992971843327261 0.03116680293647277 0.6356303967880106
0.7953743978503249 0.36266682050673804 0.2249803268779378
0.4742027755929455 -0.021626811944730907 0.40143316875324375
0.7149111505546992 0.34694736597678055 0.6053944998861445
0.6326305176660594 0.03116680293647277 0.6356303967880106
1.1287077311836582 0.36266682050673804 0.2249803268779378
-0.19246389107372114 0.3117065213886024 0.40143316875324375
0.048244483888032604 0.6802806993101138 0.6053944998861445
-0.034036149000607224 0.36450013626980604 0.6356303967880106
0.46204106451699156 0.6960001538400713 0.2249803268779378
0.14086944225961218 0.3117065213886024 0.40143316875324375
0.38157781722136597 0.6802806993101138 0.6053944998861445
0.2992971843327261 0.36450013626980604 0.6356303967880106
0.7953743978503249 0.6960001538400713 0.2249803268779378
0.4742027755929455 0.3117065213886024 0.40143316875324375
0.7149111505546992 0.6802806993101138 0.6053944998861445
0.6326305176660594 0.36450013626980604 0.6356303967880106
1.1287077311836582 0.6960001538400713 0.2249803268779378
-0.19246389107372114 0.6450398547219357 0.40143316875324375
0.048244483888032604 1.013614032643447 0.6053944998861445
-0.034036149000607224 0.6978334696031394 0.6356303967880106
0.46204106451699156 1.0293334871734046 0.2249803268779378
0.14086944225961218 0.6450398547219357 0.40143316875324375
0.38157781722136597 1.013614032643447 0.6053944998861445
0.2992971843327261 0.6978334696031394 0.6356303967880106
0.7953743978503249 1.0293334871734046 0.2249803268779378
0.4742027755929455 0.6450398547219357 0.40143316875324375
0.7149111505546992 1.013614032643447 0.6053944998861445
0.6326305176660594 0.6978334696031394 0.6356303967880106
1.1287077311836582 1.0293334871734046 0.2249803268779378
-0.19246389107372114 -0.021626811944730907 0.734766502086577
0.048244483888032604 0.34694736597678055 0.9387278332194777
-0.034036149000607224 0.03116680293647277 0.968963730121344
0.46204106451699156 0.36266682050673804 0.558313660211271
0.14086944225961218 -0.021626811944730907 0.734766502086577
0.38157781722136597 0.34694736597678055 0.9387278332194777
0.2992971843327261 0.03116680293647277 0.968963730121344
0.7953743978503249 0.36266682050673804 0.558313660211271
0.4742027755929455 -0.021626811944730907 0.734766502086577
0.7149111505546992 0.34694736597678055 0.9387278332194777
0.6326305176660594 0.03116680293647277 0.968963730121344
1.1287077311836582 0.36266682050673804 0.558313660211271
-0.19246389107372114 0.3117065213886024 0.734766502086577
0.048244483888032604 0.6802806993101138 0.9387278332194777
-0.034036149000607224 0.36450013626980604 0.968963730121344
0.46204106451699156 0.6960001538400713 0.558313660211271
0.14086944225961218 0.3117065213886024 0.734766502086577
0.38157781722136597 0.6802806993101138 0.9387278332194777
0.2992971843327261 0.36450013626980604 0.968963730121344
0.7953743978503249 0.6960001538400713 0.558313660211271
0.4742027755929455 0.3117065213886024 0.734766502086577
0.7149111505546992 0.6802806993101138 0.9387278332194777
0.6326305176660594 0.36450013626980604 0.968963730121344
1.1287077311836582 0.6960001538400713 0.558313660211271
-0.19246389107372114 0.6450398547219357 0.734766502086577
0.048244483888032604 1.013614032643447 0.9387278332194777
-0.034036149000607224 0.6978334696031394 0.968963730121344
0.46204106451699156 1.0293334871734046 0.558313660211271
0.14086944225961218 0.6450398547219357 0.734766502086577
0.38157781722136597 1.013614032643447 0.9387278332194777
0.2992971843327261 0.6978334696031394 0.968963730121344
0.7953743978503249 1.0293334871734046 0.558313660211271
0.4742027755929455 0.6450398547219357 0.734766502086577
0.7149111505546992 1.013614032643447 0.9387278332194777
0.6326305176660594 0.6978334696031394 0.968963730121344
1.1287077311836582 1.0293334871734046 0.558313660211271
0.23142986800458132 0.07134412581532343 0.024261237140167417
0.0915294958781688 0.11309628309832999 -0.08492751816665879
-0.30672711395387176 0.06060145367958229 0.3373754528608011
0.18140382651585202 0.16044054445495304 -0.06665831674436778
0.5647632013379146 0.07134412581532343 0.024261237140167417
0.4248628292115021 0.11309628309832999 -0.08492751816665879
0.02660621937946154 0.06060145367958229 0.3373754528608011
0.5147371598491853 0.16044054445495304 -0.06665831674436778
0.898096534671248 0.07134412581532343 0.024261237140167417
0.7581961625448355 0.11309628309832999 -0.08492751816665879
0.3599395527127949 0.06060145367958229 0.3373754528608011
0.8480704931825187 0.16044054445495304 -0.06665831674436778
0.23142986800458132 0.4046774591486567 0.024261237140167417
0.0915294958781688 0.4464296164316633 -0.08492751816665879
-0.30672711395387176 0.3939347870129156 0.3373754528608011
0.18140382651585202 0.49377387778828635 -0.06665831674436778
0.5647632013379146 0.4046774591486567 0.024261237140167417
0.4248628292115021 0.4464296164316633 -0.08492751816665879
0.02660621937946154 0.3939347870129156 0.3373754528608011
0.5147371598491853 0.49377387778828635 -0.06665831674436778
0.898096534671248 0.4046774591486567 0.024261237140167417
0.7581961625448355 0.4464296164316633 -0.08492751816665879
0.3599395527127949 0.3939347870129156 0.3373754528608011
0.8480704931825187 0.49377387778828635 -0.06665831674436778
0.23142986800458132 0.7380107924819901 0.024261237140167417
0.0915294958781688 0.7797629497649967 -0.08492751816665879
-0.30672711395387176 0.727268120346249 0.3373754528608011
0.18140382651585202 0.8271072111216197 -0.06665831674436778
0.5647632013379146 0.7380107924819901 0.024261237140167417
0.4248628292115021 0.7797629497649967 -0.08492751816665879
0.02660621937946154 0.727268120346249 0.3373754528608011
0.5147371598491853 0.8271072111216197 -0.06665831674436778
0.898096534671248 0.7380107924819901 0.024261237140167417
0.7581961625448355 0.7797629497649967 -0.08492751816665879
0.3599395527127949 0.727268120346249 0.3373754528608011
0.8480704931825187 0.8271072111216197 -0.06665831674436778
0.23142986800458132 0.07134412581532343 0.35759457047350074
0.0915294958781688 0.11309628309832999 0.2484058151666745
-0.30672711395387176 0.06060145367958229 0.6707087861941343
0.18140382651585202 0.16044054445495304 0.26667501658896553
0.5647632013379146 0.07134412581532343 0.35759457047350074
0.4248628292115021 0.11309628309832999 0.2484058151666745
0.02660621937946154 0.06060145367958229 0.6707087861941343
0.5147371598491853 0.16044054445495304 0.26667501658896553
0.898096534671248 0.07134412581532343 0.35759457047350074
0.7581961625448355 0.11309628309832999 0.2484058151666745
0.3599395527127949 0.06060145367958229 0.6707087861941343
0.8480704931825187 0.16044054445495304 0.26667501658896553
0.23142986800458132 0.4046774591486567 0.35759457047350074
0.0915294958781688 0.4464296164316633 0.2484058151666745
-0.30672711395387176 0.3939347870129156 0.6707087861941343
0.18140382651585202 0.49377387778828635 0.26667501658896553
0.5647632013379146 0.4046774591486567 0.35759457047350074
0.4248628292115021 0.4464296164316633 0.2484058151666745
0.02660621937946154 0.3939347870129156 0.6707087861941343
0.5147371598491853 0.49377387778828635 0.26667501658896553
0.898096534671248 0.4046774591486567 0.35759457047350074
0.7581961625448355 0.4464296164316633 0.2484058151666745
0.3599395527127949 0.3939347870129156 0.6707087861941343
0.8480704931825187 0.49377387778828635 0.26667501658896553
0.23142986800458132 0.7380107924819901 0.35759457047350074
0.0915294958781688 0.7797629497649967 0.2484058151666745
-0.30672711395387176 0.727268120346249 0.6707087861941343
0.18140382651585202 0.8271072111216197 0.26667501658896553
0.5647632013379146 0.7380107924819901 0.35759457047350074
0.4248628292115021 0.7797629497649967 0.2484058151666745
0.02660621937946154 0.727268120346249 0.6707087861941343
0.5147371598491853 0.8271072111216197 0.26667501658896553
0.898096534671248 0.7380107924819901 0.35759457047350074
0.7581961625448355 0.7797629497649967 0.2484058151666745
0.3599395527127949 0.727268120346249 0.6707087861941343
0.8480704931825187 0.8271072111216197 0.26667501658896553
0.23142986800458132 0.07134412581532343 0.6909279038068341
0.0915294958781688 0.11309628309832999 0.5817391485000079
-0.30672711395387176 0.06060145367958229 1.0040421195274676
0.18140382651585202 0.16044054445495304 0.6000083499222988
0.5647632013379146 0.07134412581532343 0.6909279038068341
0.4248628292115021 0.11309628309832999 0.5817391485000079
0.02660621937946154 0.06060145367958229 1.0040421195274676
0.5147371598491853 0.16044054445495304 0.6000083499222988
0.898096534671248 0.07134412581532343 0.6909279038068341
0.7581961625448355 0.11309628309832999 0.5817391485000079
0.3599395527127949 0.06060145367958229 1.0040421195274676
0.8480704931825187 0.16044054445495304 0.6000083499222988
0.23142986800458132 0.4046774591486567 0.6909279038068341
0.0915294958781688 0.4464296164316633 0.5817391485000079
-0.30672711395387176 0.3939347870129156 1.0040421195274676
0.18140382651585202 0.49377387778828635 0.6000083499222988
0.5647632013379146 0.4046774591486567 0.6909279038068341
0.4248628292115021 0.4464296164316633 0.5817391485000079
0.02660621937946154 0.3939347870129156 1.0040421195274676
0.5147371598491853 0.49377387778828635 0.6000083499222988
0.898096534671248 0.4046774591486567 0.6909279038068341
0.7581961625448355 0.4464296164316633 0.5817391485000079
0.3599395527127949 0.3939347870129156 1.0040421195274676
0.8480704931825187 0.49377387778828635 0.6000083499222988
0.23142986800458132 0.7380107924819901 0.6909279038068341
0.0915294958781688 0.7797629497649967 0.5817391485000079
-0.30672711395387176 0.727268120346249 1.0040421195274676
0.18140382651585202 0.8271072111216197 0.6000083499222988
0.5647632013379146 0.7380107924819901 0.6909279038068341
0.4248628292115021 0.7797629497649967 0.5817391485000079
0.02660621937946154 0.727268120346249 1.0040421195274676
0.5147371598491853 0.8271072111216197 0.6000083499222988
0.898096534671248 0.7380107924819901 0.6909279038068341
0.7581961625448355 0.7797629497649967 0.5817391485000079
0.3599395527127949 0.727268120346249 1.0040421195274676
0.8480704931825187 0.8271072111216197 0.6000083499222988
