FCC BaO
5.61604
3.0 0.0 0.0
0.0 3.0 0.0
0.0 0.0 3.0
Ba O 
108 108 
Direct
0.13261516322496336 0.07741946351337797 0.12604240027715688
0.027920174261014237 -0.01881239553997075 -0.03910854941531733
0.1778474219878443 -0.07699477273806324 0.12275658774113485
0.09648999884942633 0.35257932644277123 -0.3204596694574777
0.46594849655829673 0.07741946351337797 0.12604240027715688
0.36125350759434754 -0.01881239553997075 -0.03910854941531733
0.5111807553211776 -0.07699477273806324 0.12275658774113485
0.42982333218275964 0.35257932644277123 -0.3204596694574777
0.79928182989163 0.07741946351337797 0.12604240027715688
0.694586840927681 -0.01881239553997075 -0.03910854941531733
0.8445140886545108 -0.07699477273806324 0.12275658774113485
0.763156665516093 0.35257932644277123 -0.3204596694574777
0.13261516322496336 0.4107527968467113 0.12604240027715688
0.027920174261014237 0.31452093779336254 -0.03910854941531733
0.1778474219878443 0.25633856059527005 0.12275658774113485
0.09648999884942633 0.6859126597761046 -0.3204596694574777
0.46594849655829673 0.4107527968467113 0.12604240027715688
0.36125350759434754 0.31452093779336254 -0.03910854941531733
0.5111807553211776 0.25633856059527005 0.12275658774113485
0.42982333218275964 0.6859126597761046 -0.3204596694574777
0.79928182989163 0.4107527968467113 0.12604240027715688
0.694586840927681 0.31452093779336254 -0.03910854941531733
0.8445140886545108 0.25633856059527005 0.12275658774113485
0.763156665516093 0.6859126597761046 -0.3204596694574777
0.13261516322496336 0.7440861301800445 0.12604240027715688
0.027920174261014237 0.6478542711266959 -0.03910854941531733
0.1778474219878443 0.5896718939286034 0.12275658774113485
0.09648999884942633 1.019245993109438 -0.3204596694574777
0.46594849655829673 0.7440861301800445 0.12604240027715688
0.36125350759434754 0.6478542711266959 -0.03910854941531733
0.5111807553211776 0.5896718939286034 0.12275658774113485
0.42982333218275964 1.019245993109438 -0.3204596694574777
0.79928182989163 0.7440861301800445 0.12604240027715688
0.694586840927681 0.6478542711266959 -0.03910854941531733
0.8445140886545108 0.5896718939286034 0.12275658774113485
0.763156665516093 1.019245993109438 -0.3204596694574777
0.13261516322496336 0.07741946351337797 0.4593757336104902
0.027920174261014237 -0.01881239553997075 0.294224783918016
0.1778474219878443 -0.07699477273806324 0.4560899210744682
0.09648999884942633 0.35257932644277123 0.01287366387585557
0.46594849655829673 0.07741946351337797 0.4593757336104902
0.36125350759434754 -0.01881239553997075 0.294224783918016
0.5111807553211776 -0.07699477273806324 0.4560899210744682
0.42982333218275964 0.35257932644277123 0.01287366387585557
0.79928182989163 0.07741946351337797 0.4593757336104902
0.694586840927681 -0.01881239553997075 0.294224783918016
0.8445140886545108 -0.07699477273806324 0.4560899210744682
0.763156665516093 0.35257932644277123 0.01287366387585557
0.13261516322496336 0.4107527968467113 0.4593757336104902
0.027920174261014237 0.31452093779336254 0.294224783918016
0.1778474219878443 0.25633856059527005 0.4560899210744682
0.09648999884942633 0.6859126597761046 0.01287366387585557
0.46594849655829673 0.4107527968467113 0.4593757336104902
0.36125350759434754 0.31452093779336254 0.294224783918016
0.5111807553211776 0.25633856059527005 0.4560899210744682
0.42982333218275964 0.6859126597761046 0.01287366387585557
0.79928182989163 0.4107527968467113 0.4593757336104902
0.694586840927681 0.31452093779336254 0.294224783918016
0.8445140886545108 0.25633856059527005 0.4560899210744682
0.763156665516093 0.6859126597761046 0.01287366387585557
0.13261516322496336 0.7440861301800445 0.4593757336104902
0.027920174261014237 0.6478542711266959 0.294224783918016
0.1778474219878443 0.5896718939286034 0.4560899210744682
0.09648999884942633 1.019245993109438 0.01287366387585557
0.46594849655829673 0.7440861301800445 0.4593757336104902
0.36125350759434754 0.6478542711266959 0.294224783918016
0.5111807553211776 0.5896718939286034 0.4560899210744682
0.42982333218275964 1.019245993109438 0.01287366387585557
0.79928182989163 0.7440861301800445 0.4593757336104902
0.694586840927681 0.6478542711266959 0.294224783918016
0.8445140886545108 0.5896718939286034 0.4560899210744682
0.763156665516093 1.019245993109438 0.01287366387585557
0.13261516322496336 0.07741946351337797 0.7927090669438235
0.027920174261014237 -0.01881239553997075 0.6275581172513494
0.1778474219878443 -0.07699477273806324 0.7894232544078015
0.09648999884942633 0.35257932644277123 0.34620699720918885
0.46594849655829673 0.07741946351337797 0.7927090669438235
0.36125350759434754 -0.01881239553997075 0.6275581172513494
0.5111807553211776 -0.07699477273806324 0.7894232544078015
0.42982333218275964 0.35257932644277123 0.34620699720918885
0.79928182989163 0.07741946351337797 0.7927090669438235
0.694586840927681 -0.01881239553997075 0.6275581172513494
0.8445140886545108 -0.07699477273806324 0.7894232544078015
0.763156665516093 0.35257932644277123 0.34620699720918885
0.13261516322496336 0.4107527968467113 0.7927090669438235
0.027920174261014237 0.31452093779336254 0.6275581172513494
0.1778474219878443 0.25633856059527005 0.7894232544078015
0.09648999884942633 0.6859126597761046 0.34620699720918885
0.46594849655829673 0.4107527968467113 0.7927090669438235
0.36125350759434754 0.31452093779336254 0.6275581172513494
0.5111807553211776 0.25633856059527005 0.7894232544078015
0.42982333218275964 0.6859126597761046 0.34620699720918885
0.79928182989163 0.4107527968467113 0.7927090669438235
0.694586840927681 0.31452093779336254 0.6275581172513494
0.8445140886545108 0.25633856059527005 0.7894232544078015
0.763156665516093 0.6859126597761046 0.34620699720918885
0.13261516322496336 0.7440861301800445 0.7927090669438235
0.027920174261014237 0.6478542711266959 0.6275581172513494
0.1778474219878443 0.5896718939286034 0.7894232544078015
0.09648999884942633 1.019245993109438 0.34620699720918885
0.46594849655829673 0.7440861301800445 0.7927090669438235
0.36125350759434754 0.6478542711266959 0.6275581172513494
0.5111807553211776 0.5896718939286034 0.7894232544078015
0.42982333218275964 1.019245993109438 0.34620699720918885
0.79928182989163 0.7440861301800445 0.7927090669438235
0.694586840927681 0.6478542711266959 0.6275581172513494
0.8445140886545108 0.5896718939286034 0.7894232544078015
0.763156665516093 1.019245993109438 0.34620699720918885
0.19762029352475985 -0.17644052753885547 0.19355830237076438
0.01158606536120792 0.18498333783599108 0.14119950348255753
0.012354421125367988 -0.27981323229265836 0.38101479003437977
0.009940513584408867 0.23517000741431074 0.366762977578151
0.5309536268580932 -0.17644052753885547 0.19355830237076438
0.34491939869454125 0.18498333783599108 0.14119950348255753
0.34568775445870126 -0.27981323229265836 0.38101479003437977
0.34327384691774215 0.23517000741431074 0.366762977578151
0.8642869601914265 -0.17644052753885547 0.19355830237076438
0.6782527320278745 0.18498333783599108 0.14119950348255753
0.6790210877920346 -0.27981323229265836 0.38101479003437977
0.6766071802510756 0.23517000741431074 0.366762977578151
0.19762029352475985 0.15689280579447784 0.19355830237076438
0.01158606536120792 0.5183166711693243 0.14119950348255753
0.012354421125367988 0.05352010104067495 0.38101479003437977
0.009940513584408867 0.5685033407476441 0.366762977578151
0.5309536268580932 0.15689280579447784 0.19355830237076438
0.34491939869454125 0.5183166711693243 0.14119950348255753
0.34568775445870126 0.05352010104067495 0.38101479003437977
0.34327384691774215 0.5685033407476441 0.366762977578151
0.8642869601914265 0.15689280579447784 0.19355830237076438
0.6782527320278745 0.5183166711693243 0.14119950348255753
0.6790210877920346 0.05352010104067495 0.38101479003437977
0.6766071802510756 0.5685033407476441 0.366762977578151
0.19762029352475985 0.49022613912781116 0.19355830237076438
0.01158606536120792 0.8516500045026577 0.14119950348255753
0.012354421125367988 0.38685343437400826 0.38101479003437977
0.009940513584408867 0.9018366740809773 0.366762977578151
0.5309536268580932 0.49022613912781116 0.19355830237076438
0.34491939869454125 0.8516500045026577 0.14119950348255753
0.34568775445870126 0.38685343437400826 0.38101479003437977
0.34327384691774215 0.9018366740809773 0.366762977578151
0.8642869601914265 0.49022613912781116 0.19355830237076438
0.6782527320278745 0.8516500045026577 0.14119950348255753
0.6790210877920346 0.38685343437400826 0.38101479003437977
0.6766071802510756 0.9018366740809773 0.366762977578151
0.19762029352475985 -0.17644052753885547 0.5268916357040977
0.01158606536120792 0.18498333783599108 0.47453283681589087
0.012354421125367988 -0.27981323229265836 0.7143481233677131
0.009940513584408867 0.23517000741431074 0.7000963109114844
0.5309536268580932 -0.17644052753885547 0.5268916357040977
0.34491939869454125 0.18498333783599108 0.47453283681589087
0.34568775445870126 -0.27981323229265836 0.7143481233677131
0.34327384691774215 0.23517000741431074 0.7000963109114844
0.8642869601914265 -0.17644052753885547 0.5268916357040977
0.6782527320278745 0.18498333783599108 0.47453283681589087
0.6790210877920346 -0.27981323229265836 0.7143481233677131
0.6766071802510756 0.23517000741431074 0.7000963109114844
0.19762029352475985 0.15689280579447784 0.5268916357040977
0.01158606536120792 0.5183166711693243 0.47453283681589087
0.012354421125367988 0.05352010104067495 0.7143481233677131
0.009940513584408867 0.5685033407476441 0.7000963109114844
0.5309536268580932 0.15689280579447784 0.5268916357040977
0.34491939869454125 0.5183166711693243 0.47453283681589087
0.34568775445870126 0.05352010104067495 0.7143481233677131
0.34327384691774215 0.5685033407476441 0.7000963109114844
0.8642869601914265 0.15689280579447784 0.5268916357040977
0.6782527320278745 0.5183166711693243 0.47453283681589087
0.6790210877920346 0.05352010104067495 0.7143481233677131
0.6766071802510756 0.5685033407476441 0.7000963109114844
0.19762029352475985 0.49022613912781116 0.5268916357040977
0.01158606536120792 0.8516500045026577 0.47453283681589087
0.012354421125367988 0.38685343437400826 0.7143481233677131
0.009940513584408867 0.9018366740809773 0.7000963109114844
0.5309536268580932 0.49022613912781116 0.5268916357040977
0.34491939869454125 0.8516500045026577 0.47453283681589087
0.34568775445870126 0.38685343437400826 0.7143481233677131
0.34327384691774215 0.9018366740809773 0.7000963109114844
0.8642869601914265 0.49022613912781116 0.5268916357040977
0.6782527320278745 0.8516500045026577 0.47453283681589087
0.6790210877920346 0.38685343437400826 0.7143481233677131
0.6766071802510756 0.9018366740809773 0.7000963109114844
0.19762029352475985 -0.17644052753885547 0.860224969037431
0.01158606536120792 0.18498333783599108 0.8078661701492242
0.012354421125367988 -0.27981323229265836 1.0476814567010464
0.009940513584408867 0.23517000741431074 1.0334296442448176
0.5309536268580932 -0.17644052753885547 0.860224969037431
0.34491939869454125 0.18498333783599108 0.8078661701492242
0.34568775445870126 -0.27981323229265836 1.0476814567010464
0.34327384691774215 0.23517000741431074 1.0334296442448176
0.8642869601914265 -0.17644052753885547 0.860224969037431
0.6782527320278745 0.18498333783599108 0.8078661701492242
0.6790210877920346 -0.27981323229265836 1.0476814567010464
0.6766071802510756 0.23517000741431074 1.0334296442448176
0.19762029352475985 0.15689280579447784 0.860224969037431
0.01158606536120792 0.5183166711693243 0.8078661701492242
0.012354421125367988 0.05352010104067495 1.0476814567010464
0.009940513584408867 0.5685033407476441 1.0334296442448176
0.5309536268580932 0.15689280579447784 0.860224969037431
0.34491939869454125 0.5183166711693243 0.8078661701492242
0.34568775445870126 0.05352010104067495 1.0476814567010464
0.34327384691774215 0.5685033407476441 1.0334296442448176
0.8642869601914265 0.15689280579447784 0.860224969037431
0.6782527320278745 0.5183166711693243 0.8078661701492242
0.6790210877920346 0.05352010104067495 1.0476814567010464
0.6766071802510756 0.5685033407476441 1.0334296442448176
0.19762029352475985 0.49022613912781116 0.860224969037431
0.01158606536120792 0.8516500045026577 0.8078661701492242
0.012354421125367988 0.38685343437400826 1.0476814567010464
0.009940513584408867 0.9018366740809773 1.0334296442448176
0.5309536268580932 0.49022613912781116 0.860224969037431
0.34491939869454125 0.8516500045026577 0.8078661701492242
0.34568775445870126 0.38685343437400826 1.0476814567010464
0.34327384691774215 0.9018366740809773 1.0334296442448176
0.8642869601914265 0.49022613912781116 0.860224969037431
0.6782527320278745 0.8516500045026577 0.8078661701492242
0.6790210877920346 0.38685343437400826 1.0476814567010464
0.6766071802510756 0.9018366740809773 1.0334296442448176
