FCC BaO
5.61604
3.0 0.0 0.0
0.0 3.0 0.0
0.0 0.0 3.0
Ba O 
108 108 
Direct
0.2411520598562123 -0.11747669730884236 0.38995676477631624
-0.4913061555577967 -1.1632632519165798 -0.6186003847590167
1.0511444079885166 -0.5020167875230849 0.40351950750946514
-0.08165779756310684 0.2829421724019202 -0.8988389021692442
0.5744853931895456 -0.11747669730884236 0.38995676477631624
-0.1579728222244634 -1.1632632519165798 -0.6186003847590167
1.3844777413218499 -0.5020167875230849 0.40351950750946514
0.2516755357702265 0.2829421724019202 -0.8988389021692442
0.907818726522879 -0.11747669730884236 0.38995676477631624
0.1753605111088699 -1.1632632519165798 -0.6186003847590167
1.7178110746551831 -0.5020167875230849 0.40351950750946514
0.5850088691035598 0.2829421724019202 -0.8988389021692442
0.2411520598562123 0.21585663602449096 0.38995676477631624
-0.4913061555577967 -0.8299299185832465 -0.6186003847590167
1.0511444079885166 -0.16868345418975156 0.40351950750946514
-0.08165779756310684 0.6162755057352536 -0.8988389021692442
0.5744853931895456 0.21585663602449096 0.38995676477631624
-0.1579728222244634 -0.8299299185832465 -0.6186003847590167
1.3844777413218499 -0.16868345418975156 0.40351950750946514
0.2516755357702265 0.6162755057352536 -0.8988389021692442
0.907818726522879 0.21585663602449096 0.38995676477631624
0.1753605111088699 -0.8299299185832465 -0.6186003847590167
1.7178110746551831 -0.16868345418975156 0.40351950750946514
0.5850088691035598 0.6162755057352536 -0.8988389021692442
0.2411520598562123 0.5491899693578243 0.38995676477631624
-0.4913061555577967 -0.49659658524991324 -0.6186003847590167
1.0511444079885166 0.16464987914358176 0.40351950750946514
-0.08165779756310684 0.9496088390685868 -0.8988389021692442
0.5744853931895456 0.5491899693578243 0.38995676477631624
-0.1579728222244634 -0.49659658524991324 -0.6186003847590167
1.3844777413218499 0.16464987914358176 0.40351950750946514
0.2516755357702265 0.9496088390685868 -0.8988389021692442
0.907818726522879 0.5491899693578243 0.38995676477631624
0.1753605111088699 -0.49659658524991324 -0.6186003847590167
1.7178110746551831 0.16464987914358176 0.40351950750946514
0.5850088691035598 0.9496088390685868 -0.8988389021692442
0.2411520598562123 -0.11747669730884236 0.7232900981096495
-0.4913061555577967 -1.1632632519165798 -0.2852670514256834
1.0511444079885166 -0.5020167875230849 0.7368528408427985
-0.08165779756310684 0.2829421724019202 -0.5655055688359109
0.5744853931895456 -0.11747669730884236 0.7232900981096495
-0.1579728222244634 -1.1632632519165798 -0.2852670514256834
1.3844777413218499 -0.5020167875230849 0.7368528408427985
0.2516755357702265 0.2829421724019202 -0.5655055688359109
0.907818726522879 -0.11747669730884236 0.7232900981096495
0.1753605111088699 -1.1632632519165798 -0.2852670514256834
1.7178110746551831 -0.5020167875230849 0.7368528408427985
0.5850088691035598 0.2829421724019202 -0.5655055688359109
0.2411520598562123 0.21585663602449096 0.7232900981096495
-0.4913061555577967 -0.8299299185832465 -0.2852670514256834
1.0511444079885166 -0.16868345418975156 0.7368528408427985
-0.08165779756310684 0.6162755057352536 -0.5655055688359109
0.5744853931895456 0.21585663602449096 0.7232900981096495
-0.1579728222244634 -0.8299299185832465 -0.2852670514256834
1.3844777413218499 -0.16868345418975156 0.7368528408427985
0.2516755357702265 0.6162755057352536 -0.5655055688359109
0.907818726522879 0.21585663602449096 0.7232900981096495
0.1753605111088699 -0.8299299185832465 -0.2852670514256834
1.7178110746551831 -0.16868345418975156 0.7368528408427985
0.5850088691035598 0.6162755057352536 -0.5655055688359109
0.2411520598562123 0.5491899693578243 0.7232900981096495
-0.4913061555577967 -0.49659658524991324 -0.2852670514256834
1.0511444079885166 0.16464987914358176 0.7368528408427985
-0.08165779756310684 0.9496088390685868 -0.5655055688359109
0.5744853931895456 0.5491899693578243 0.7232900981096495
-0.1579728222244634 -0.49659658524991324 -0.2852670514256834
1.3844777413218499 0.16464987914358176 0.7368528408427985
0.2516755357702265 0.9496088390685868 -0.5655055688359109
0.907818726522879 0.5491899693578243 0.7232900981096495
0.1753605111088699 -0.49659658524991324 -0.2852670514256834
1.7178110746551831 0.16464987914358176 0.7368528408427985
0.5850088691035598 0.9496088390685868 -0.5655055688359109
0.2411520598562123 -0.11747669730884236 1.0566234314429828
-0.4913061555577967 -1.1632632519165798 0.0480662819076499
1.0511444079885166 -0.5020167875230849 1.0701861741761318
-0.08165779756310684 0.2829421724019202 -0.23217223550257754
0.5744853931895456 -0.11747669730884236 1.0566234314429828
-0.1579728222244634 -1.1632632519165798 0.0480662819076499
1.3844777413218499 -0.5020167875230849 1.0701861741761318
0.2516755357702265 0.2829421724019202 -0.23217223550257754
0.907818726522879 -0.11747669730884236 1.0566234314429828
0.1753605111088699 -1.1632632519165798 0.0480662819076499
1.7178110746551831 -0.5020167875230849 1.0701861741761318
0.5850088691035598 0.2829421724019202 -0.23217223550257754
0.2411520598562123 0.21585663602449096 1.0566234314429828
-0.4913061555577967 -0.8299299185832465 0.0480662819076499
1.0511444079885166 -0.16868345418975156 1.0701861741761318
-0.08165779756310684 0.6162755057352536 -0.23217223550257754
0.5744853931895456 0.21585663602449096 1.0566234314429828
-0.1579728222244634 -0.8299299185832465 0.0480662819076499
1.3844777413218499 -0.16868345418975156 1.0701861741761318
0.2516755357702265 0.6162755057352536 -0.23217223550257754
0.907818726522879 0.21585663602449096 1.0566234314429828
0.1753605111088699 -0.8299299185832465 0.0480662819076499
1.7178110746551831 -0.16868345418975156 1.0701861741761318
0.5850088691035598 0.6162755057352536 -0.23217223550257754
0.2411520598562123 0.5491899693578243 1.0566234314429828
-0.4913061555577967 -0.49659658524991324 0.0480662819076499
1.0511444079885166 0.16464987914358176 1.0701861741761318
-0.08165779756310684 0.9496088390685868 -0.23217223550257754
0.5744853931895456 0.5491899693578243 1.0566234314429828
-0.1579728222244634 -0.49659658524991324 0.0480662819076499
1.3844777413218499 0.16464987914358176 1.0701861741761318
0.2516755357702265 0.9496088390685868 -0.23217223550257754
0.907818726522879 0.5491899693578243 1.0566234314429828
0.1753605111088699 -0.49659658524991324 0.0480662819076499
1.7178110746551831 0.16464987914358176 1.0701861741761318
0.5850088691035598 0.9496088390685868 -0.23217223550257754
-0.40657346610696493 -0.8590867833092124 0.07627889571467907
-0.4634647914966996 -0.6198957596748804 -0.146848236470785
0.7399459798670309 -0.3212980433062588 -0.40769580995127314
0.4454502859696583 0.5492054502053084 0.5082361058340704
-0.07324013277363162 -0.8590867833092124 0.07627889571467907
-0.13013145816336627 -0.6198957596748804 -0.146848236470785
1.0732793132003642 -0.3212980433062588 -0.40769580995127314
0.7787836193029916 0.5492054502053084 0.5082361058340704
0.2600932005597017 -0.8590867833092124 0.07627889571467907
0.20320187516996704 -0.6198957596748804 -0.146848236470785
1.4066126465336977 -0.3212980433062588 -0.40769580995127314
1.1121169526363248 0.5492054502053084 0.5082361058340704
-0.40657346610696493 -0.5257534499758791 0.07627889571467907
-0.4634647914966996 -0.28656242634154705 -0.146848236470785
0.7399459798670309 0.012035290027074558 -0.40769580995127314
0.4454502859696583 0.8825387835386418 0.5082361058340704
-0.07324013277363162 -0.5257534499758791 0.07627889571467907
-0.13013145816336627 -0.28656242634154705 -0.146848236470785
1.0732793132003642 0.012035290027074558 -0.40769580995127314
0.7787836193029916 0.8825387835386418 0.5082361058340704
0.2600932005597017 -0.5257534499758791 0.07627889571467907
0.20320187516996704 -0.28656242634154705 -0.146848236470785
1.4066126465336977 0.012035290027074558 -0.40769580995127314
1.1121169526363248 0.8825387835386418 0.5082361058340704
-0.40657346610696493 -0.1924201166425458 0.07627889571467907
-0.4634647914966996 0.046770906991786244 -0.146848236470785
0.7399459798670309 0.34536862336040786 -0.40769580995127314
0.4454502859696583 1.215872116871975 0.5082361058340704
-0.07324013277363162 -0.1924201166425458 0.07627889571467907
-0.13013145816336627 0.046770906991786244 -0.146848236470785
1.0732793132003642 0.34536862336040786 -0.40769580995127314
0.7787836193029916 1.215872116871975 0.5082361058340704
0.2600932005597017 -0.1924201166425458 0.07627889571467907
0.20320187516996704 0.046770906991786244 -0.146848236470785
1.4066126465336977 0.34536862336040786 -0.40769580995127314
1.1121169526363248 1.215872116871975 0.5082361058340704
-0.40657346610696493 -0.8590867833092124 0.4096122290480124
-0.4634647914966996 -0.6198957596748804 0.18648509686254836
0.7399459798670309 -0.3212980433062588 -0.07436247661793982
0.4454502859696583 0.5492054502053084 0.8415694391674038
-0.07324013277363162 -0.8590867833092124 0.4096122290480124
-0.13013145816336627 -0.6198957596748804 0.18648509686254836
1.0732793132003642 -0.3212980433062588 -0.07436247661793982
0.7787836193029916 0.5492054502053084 0.8415694391674038
0.2600932005597017 -0.8590867833092124 0.4096122290480124
0.20320187516996704 -0.6198957596748804 0.18648509686254836
1.4066126465336977 -0.3212980433062588 -0.07436247661793982
1.1121169526363248 0.5492054502053084 0.8415694391674038
-0.40657346610696493 -0.5257534499758791 0.4096122290480124
-0.4634647914966996 -0.28656242634154705 0.18648509686254836
0.7399459798670309 0.012035290027074558 -0.07436247661793982
0.4454502859696583 0.8825387835386418 0.8415694391674038
-0.07324013277363162 -0.5257534499758791 0.4096122290480124
-0.13013145816336627 -0.28656242634154705 0.18648509686254836
1.0732793132003642 0.012035290027074558 -0.07436247661793982
0.7787836193029916 0.8825387835386418 0.8415694391674038
0.2600932005597017 -0.5257534499758791 0.4096122290480124
0.20320187516996704 -0.28656242634154705 0.18648509686254836
1.4066126465336977 0.012035290027074558 -0.07436247661793982
1.1121169526363248 0.8825387835386418 0.8415694391674038
-0.40657346610696493 -0.1924201166425458 0.4096122290480124
-0.4634647914966996 0.046770906991786244 0.18648509686254836
0.7399459798670309 0.34536862336040786 -0.07436247661793982
0.4454502859696583 1.215872116871975 0.8415694391674038
-0.07324013277363162 -0.1924201166425458 0.4096122290480124
-0.13013145816336627 0.046770906991786244 0.18648509686254836
1.0732793132003642 0.34536862336040786 -0.07436247661793982
0.7787836193029916 1.215872116871975 0.8415694391674038
0.2600932005597017 -0.1924201166425458 0.4096122290480124
0.20320187516996704 0.046770906991786244 0.18648509686254836
1.4066126465336977 0.34536862336040786 -0.07436247661793982
1.1121169526363248 1.215872116871975 0.8415694391674038
-0.40657346610696493 -0.8590867833092124 0.7429455623813457
-0.4634647914966996 -0.6198957596748804 0.5198184301958817
0.7399459798670309 -0.3212980433062588 0.2589708567153935
0.4454502859696583 0.5492054502053084 1.174902772500737
-0.07324013277363162 -0.8590867833092124 0.7429455623813457
-0.13013145816336627 -0.6198957596748804 0.5198184301958817
1.0732793132003642 -0.3212980433062588 0.2589708567153935
0.7787836193029916 0.5492054502053084 1.174902772500737
0.2600932005597017 -0.8590867833092124 0.7429455623813457
0.20320187516996704 -0.6198957596748804 0.5198184301958817
1.4066126465336977 -0.3212980433062588 0.2589708567153935
1.1121169526363248 0.5492054502053084 1.174902772500737
-0.40657346610696493 -0.5257534499758791 0.7429455623813457
-0.4634647914966996 -0.28656242634154705 0.5198184301958817
0.7399459798670309 0.012035290027074558 0.2589708567153935
0.4454502859696583 0.8825387835386418 1.174902772500737
-0.07324013277363162 -0.5257534499758791 0.7429455623813457
-0.13013145816336627 -0.28656242634154705 0.5198184301958817
1.0732793132003642 0.012035290027074558 0.2589708567153935
0.7787836193029916 0.8825387835386418 1.174902772500737
0.2600932005597017 -0.5257534499758791 0.7429455623813457
0.20320187516996704 -0.28656242634154705 0.5198184301958817
1.4066126465336977 0.012035290027074558 0.2589708567153935
1.1121169526363248 0.8825387835386418 1.174902772500737
-0.40657346610696493 -0.1924201166425458 0.7429455623813457
-0.4634647914966996 0.046770906991786244 0.5198184301958817
0.7399459798670309 0.34536862336040786 0.2589708567153935
0.4454502859696583 1.215872116871975 1.174902772500737
-0.07324013277363162 -0.1924201166425458 0.7429455623813457
-0.13013145816336627 0.046770906991786244 0.5198184301958817
1.0732793132003642 0.34536862336040786 0.2589708567153935
0.7787836193029916 1.215872116871975 1.174902772500737
0.2600932005597017 -0.1924201166425458 0.7429455623813457
0.20320187516996704 0.046770906991786244 0.5198184301958817
1.4066126465336977 0.34536862336040786 0.2589708567153935
1.1121169526363248 1.215872116871975 1.174902772500737
