FCC BaO
3.971
5.0 0.0 0.0
0.0 5.0 0.0
0.0 0.0 5.0
Ba O 
500 500 
Direct
0.021532976807270343 -0.0018643666258190816 -0.006025251202390768
0.003601120191296785 0.07520121439858694 0.12379720561395298
0.0782896368922655 -0.0005519882490045724 0.08148362686948961
0.11183784073048647 0.07114519741179472 -0.02080598876734918
0.22153297680727035 -0.0018643666258190816 -0.006025251202390768
0.2036011201912968 0.07520121439858694 0.12379720561395298
0.27828963689226555 -0.0005519882490045724 0.08148362686948961
0.3118378407304865 0.07114519741179472 -0.02080598876734918
0.4215329768072704 -0.0018643666258190816 -0.006025251202390768
0.4036011201912968 0.07520121439858694 0.12379720561395298
0.47828963689226556 -0.0005519882490045724 0.08148362686948961
0.5118378407304864 0.07114519741179472 -0.02080598876734918
0.6215329768072704 -0.0018643666258190816 -0.006025251202390768
0.6036011201912967 0.07520121439858694 0.12379720561395298
0.6782896368922655 -0.0005519882490045724 0.08148362686948961
0.7118378407304865 0.07114519741179472 -0.02080598876734918
0.8215329768072703 -0.0018643666258190816 -0.006025251202390768
0.8036011201912969 0.07520121439858694 0.12379720561395298
0.8782896368922656 -0.0005519882490045724 0.08148362686948961
0.9118378407304866 0.07114519741179472 -0.02080598876734918
0.021532976807270343 0.19813563337418094 -0.006025251202390768
0.003601120191296785 0.2752012143985869 0.12379720561395298
0.0782896368922655 0.19944801175099544 0.08148362686948961
0.11183784073048647 0.2711451974117947 -0.02080598876734918
0.22153297680727035 0.19813563337418094 -0.006025251202390768
0.2036011201912968 0.2752012143985869 0.12379720561395298
0.27828963689226555 0.19944801175099544 0.08148362686948961
0.3118378407304865 0.2711451974117947 -0.02080598876734918
0.4215329768072704 0.19813563337418094 -0.006025251202390768
0.4036011201912968 0.2752012143985869 0.12379720561395298
0.47828963689226556 0.19944801175099544 0.08148362686948961
0.5118378407304864 0.2711451974117947 -0.02080598876734918
0.6215329768072704 0.19813563337418094 -0.006025251202390768
0.6036011201912967 0.2752012143985869 0.12379720561395298
0.6782896368922655 0.19944801175099544 0.08148362686948961
0.7118378407304865 0.2711451974117947 -0.02080598876734918
0.8215329768072703 0.19813563337418094 -0.006025251202390768
0.8036011201912969 0.2752012143985869 0.12379720561395298
0.8782896368922656 0.19944801175099544 0.08148362686948961
0.9118378407304866 0.2711451974117947 -0.02080598876734918
0.021532976807270343 0.39813563337418095 -0.006025251202390768
0.003601120191296785 0.4752012143985869 0.12379720561395298
0.0782896368922655 0.3994480117509955 0.08148362686948961
0.11183784073048647 0.4711451974117948 -0.02080598876734918
0.22153297680727035 0.39813563337418095 -0.006025251202390768
0.2036011201912968 0.4752012143985869 0.12379720561395298
0.27828963689226555 0.3994480117509955 0.08148362686948961
0.3118378407304865 0.4711451974117948 -0.02080598876734918
0.4215329768072704 0.39813563337418095 -0.006025251202390768
0.4036011201912968 0.4752012143985869 0.12379720561395298
0.47828963689226556 0.3994480117509955 0.08148362686948961
0.5118378407304864 0.4711451974117948 -0.02080598876734918
0.6215329768072704 0.39813563337418095 -0.006025251202390768
0.6036011201912967 0.4752012143985869 0.12379720561395298
0.6782896368922655 0.3994480117509955 0.08148362686948961
0.7118378407304865 0.4711451974117948 -0.02080598876734918
0.8215329768072703 0.39813563337418095 -0.006025251202390768
0.8036011201912969 0.4752012143985869 0.12379720561395298
0.8782896368922656 0.3994480117509955 0.08148362686948961
0.9118378407304866 0.4711451974117948 -0.02080598876734918
0.021532976807270343 0.598135633374181 -0.006025251202390768
0.003601120191296785 0.6752012143985869 0.12379720561395298
0.0782896368922655 0.5994480117509954 0.08148362686948961
0.11183784073048647 0.6711451974117948 -0.02080598876734918
0.22153297680727035 0.598135633374181 -0.006025251202390768
0.2036011201912968 0.6752012143985869 0.12379720561395298
0.27828963689226555 0.5994480117509954 0.08148362686948961
0.3118378407304865 0.6711451974117948 -0.02080598876734918
0.4215329768072704 0.598135633374181 -0.006025251202390768
0.4036011201912968 0.6752012143985869 0.12379720561395298
0.47828963689226556 0.5994480117509954 0.08148362686948961
0.5118378407304864 0.6711451974117948 -0.02080598876734918
0.6215329768072704 0.598135633374181 -0.006025251202390768
0.6036011201912967 0.6752012143985869 0.12379720561395298
0.6782896368922655 0.5994480117509954 0.08148362686948961
0.7118378407304865 0.6711451974117948 -0.02080598876734918
0.8215329768072703 0.598135633374181 -0.006025251202390768
0.8036011201912969 0.6752012143985869 0.12379720561395298
0.8782896368922656 0.5994480117509954 0.08148362686948961
0.9118378407304866 0.6711451974117948 -0.02080598876734918
0.021532976807270343 0.7981356333741809 -0.006025251202390768
0.003601120191296785 0.875201214398587 0.12379720561395298
0.0782896368922655 0.7994480117509954 0.08148362686948961
0.11183784073048647 0.8711451974117947 -0.02080598876734918
0.22153297680727035 0.7981356333741809 -0.006025251202390768
0.2036011201912968 0.875201214398587 0.12379720561395298
0.27828963689226555 0.7994480117509954 0.08148362686948961
0.3118378407304865 0.8711451974117947 -0.02080598876734918
0.4215329768072704 0.7981356333741809 -0.006025251202390768
0.4036011201912968 0.875201214398587 0.12379720561395298
0.47828963689226556 0.7994480117509954 0.08148362686948961
0.5118378407304864 0.8711451974117947 -0.02080598876734918
0.6215329768072704 0.7981356333741809 -0.006025251202390768
0.6036011201912967 0.875201214398587 0.12379720561395298
0.6782896368922655 0.7994480117509954 0.08148362686948961
0.7118378407304865 0.8711451974117947 -0.02080598876734918
0.8215329768072703 0.7981356333741809 -0.006025251202390768
0.8036011201912969 0.875201214398587 0.12379720561395298
0.8782896368922656 0.7994480117509954 0.08148362686948961
0.9118378407304866 0.8711451974117947 -0.02080598876734918
0.021532976807270343 -0.0018643666258190816 0.19397474879760923
0.003601120191296785 0.07520121439858694 0.323797205613953
0.0782896368922655 -0.0005519882490045724 0.28148362686948963
0.11183784073048647 0.07114519741179472 0.17919401123265083
0.22153297680727035 -0.0018643666258190816 0.19397474879760923
0.2036011201912968 0.07520121439858694 0.323797205613953
0.27828963689226555 -0.0005519882490045724 0.28148362686948963
0.3118378407304865 0.07114519741179472 0.17919401123265083
0.4215329768072704 -0.0018643666258190816 0.19397474879760923
0.4036011201912968 0.07520121439858694 0.323797205613953
0.47828963689226556 -0.0005519882490045724 0.28148362686948963
0.5118378407304864 0.07114519741179472 0.17919401123265083
0.6215329768072704 -0.0018643666258190816 0.19397474879760923
0.6036011201912967 0.07520121439858694 0.323797205613953
0.6782896368922655 -0.0005519882490045724 0.28148362686948963
0.7118378407304865 0.07114519741179472 0.17919401123265083
0.8215329768072703 -0.0018643666258190816 0.19397474879760923
0.8036011201912969 0.07520121439858694 0.323797205613953
0.8782896368922656 -0.0005519882490045724 0.28148362686948963
0.9118378407304866 0.07114519741179472 0.17919401123265083
0.021532976807270343 0.19813563337418094 0.19397474879760923
0.003601120191296785 0.2752012143985869 0.323797205613953
0.0782896368922655 0.19944801175099544 0.28148362686948963
0.11183784073048647 0.2711451974117947 0.17919401123265083
0.22153297680727035 0.19813563337418094 0.19397474879760923
0.2036011201912968 0.2752012143985869 0.323797205613953
0.27828963689226555 0.19944801175099544 0.28148362686948963
0.3118378407304865 0.2711451974117947 0.17919401123265083
0.4215329768072704 0.19813563337418094 0.19397474879760923
0.4036011201912968 0.2752012143985869 0.323797205613953
0.47828963689226556 0.19944801175099544 0.28148362686948963
0.5118378407304864 0.2711451974117947 0.17919401123265083
0.6215329768072704 0.19813563337418094 0.19397474879760923
0.6036011201912967 0.2752012143985869 0.323797205613953
0.6782896368922655 0.19944801175099544 0.28148362686948963
0.7118378407304865 0.2711451974117947 0.17919401123265083
0.8215329768072703 0.19813563337418094 0.19397474879760923
0.8036011201912969 0.2752012143985869 0.323797205613953
0.8782896368922656 0.19944801175099544 0.28148362686948963
0.9118378407304866 0.2711451974117947 0.17919401123265083
0.021532976807270343 0.39813563337418095 0.19397474879760923
0.003601120191296785 0.4752012143985869 0.323797205613953
0.0782896368922655 0.3994480117509955 0.28148362686948963
0.11183784073048647 0.4711451974117948 0.17919401123265083
0.22153297680727035 0.39813563337418095 0.19397474879760923
0.2036011201912968 0.4752012143985869 0.323797205613953
0.27828963689226555 0.3994480117509955 0.28148362686948963
0.3118378407304865 0.4711451974117948 0.17919401123265083
0.4215329768072704 0.39813563337418095 0.19397474879760923
0.4036011201912968 0.4752012143985869 0.323797205613953
0.47828963689226556 0.3994480117509955 0.28148362686948963
0.5118378407304864 0.4711451974117948 0.17919401123265083
0.6215329768072704 0.39813563337418095 0.19397474879760923
0.6036011201912967 0.4752012143985869 0.323797205613953
0.6782896368922655 0.3994480117509955 0.28148362686948963
0.7118378407304865 0.4711451974117948 0.17919401123265083
0.8215329768072703 0.39813563337418095 0.19397474879760923
0.8036011201912969 0.4752012143985869 0.323797205613953
0.8782896368922656 0.3994480117509955 0.28148362686948963
0.9118378407304866 0.4711451974117948 0.17919401123265083
0.021532976807270343 0.598135633374181 0.19397474879760923
0.003601120191296785 0.6752012143985869 0.323797205613953
0.0782896368922655 0.5994480117509954 0.28148362686948963
0.11183784073048647 0.6711451974117948 0.17919401123265083
0.22153297680727035 0.598135633374181 0.19397474879760923
0.2036011201912968 0.6752012143985869 0.323797205613953
0.27828963689226555 0.5994480117509954 0.28148362686948963
0.3118378407304865 0.6711451974117948 0.17919401123265083
0.4215329768072704 0.598135633374181 0.19397474879760923
0.4036011201912968 0.6752012143985869 0.323797205613953
0.47828963689226556 0.5994480117509954 0.28148362686948963
0.5118378407304864 0.6711451974117948 0.17919401123265083
0.6215329768072704 0.598135633374181 0.19397474879760923
0.6036011201912967 0.6752012143985869 0.323797205613953
0.6782896368922655 0.5994480117509954 0.28148362686948963
0.7118378407304865 0.6711451974117948 0.17919401123265083
0.8215329768072703 0.598135633374181 0.19397474879760923
0.8036011201912969 0.6752012143985869 0.323797205613953
0.8782896368922656 0.5994480117509954 0.28148362686948963
0.9118378407304866 0.6711451974117948 0.17919401123265083
0.021532976807270343 0.7981356333741809 0.19397474879760923
0.003601120191296785 0.875201214398587 0.323797205613953
0.0782896368922655 0.7994480117509954 0.28148362686948963
0.11183784073048647 0.8711451974117947 0.17919401123265083
0.22153297680727035 0.7981356333741809 0.19397474879760923
0.2036011201912968 0.875201214398587 0.323797205613953
0.27828963689226555 0.7994480117509954 0.28148362686948963
0.3118378407304865 0.8711451974117947 0.17919401123265083
0.4215329768072704 0.7981356333741809 0.19397474879760923
0.4036011201912968 0.875201214398587 0.323797205613953
0.47828963689226556 0.7994480117509954 0.28148362686948963
0.5118378407304864 0.8711451974117947 0.17919401123265083
0.6215329768072704 0.7981356333741809 0.19397474879760923
0.6036011201912967 0.875201214398587 0.323797205613953
0.6782896368922655 0.7994480117509954 0.28148362686948963
0.7118378407304865 0.8711451974117947 0.17919401123265083
0.8215329768072703 0.7981356333741809 0.19397474879760923
0.8036011201912969 0.875201214398587 0.323797205613953
0.8782896368922656 0.7994480117509954 0.28148362686948963
0.9118378407304866 0.8711451974117947 0.17919401123265083
0.021532976807270343 -0.0018643666258190816 0.3939747487976093
0.003601120191296785 0.07520121439858694 0.5237972056139529
0.0782896368922655 -0.0005519882490045724 0.48148362686948964
0.11183784073048647 0.07114519741179472 0.37919401123265084
0.22153297680727035 -0.0018643666258190816 0.3939747487976093
0.2036011201912968 0.07520121439858694 0.5237972056139529
0.27828963689226555 -0.0005519882490045724 0.48148362686948964
0.3118378407304865 0.07114519741179472 0.37919401123265084
0.4215329768072704 -0.0018643666258190816 0.3939747487976093
0.4036011201912968 0.07520121439858694 0.5237972056139529
0.47828963689226556 -0.0005519882490045724 0.48148362686948964
0.5118378407304864 0.07114519741179472 0.37919401123265084
0.6215329768072704 -0.0018643666258190816 0.3939747487976093
0.6036011201912967 0.07520121439858694 0.5237972056139529
0.6782896368922655 -0.0005519882490045724 0.48148362686948964
0.7118378407304865 0.07114519741179472 0.37919401123265084
0.8215329768072703 -0.0018643666258190816 0.3939747487976093
0.8036011201912969 0.07520121439858694 0.5237972056139529
0.8782896368922656 -0.0005519882490045724 0.48148362686948964
0.9118378407304866 0.07114519741179472 0.37919401123265084
0.021532976807270343 0.19813563337418094 0.3939747487976093
0.003601120191296785 0.2752012143985869 0.5237972056139529
0.0782896368922655 0.19944801175099544 0.48148362686948964
0.11183784073048647 0.2711451974117947 0.37919401123265084
0.22153297680727035 0.19813563337418094 0.3939747487976093
0.2036011201912968 0.2752012143985869 0.5237972056139529
0.27828963689226555 0.19944801175099544 0.48148362686948964
0.3118378407304865 0.2711451974117947 0.37919401123265084
0.4215329768072704 0.19813563337418094 0.3939747487976093
0.4036011201912968 0.2752012143985869 0.5237972056139529
0.47828963689226556 0.19944801175099544 0.48148362686948964
0.5118378407304864 0.2711451974117947 0.37919401123265084
0.6215329768072704 0.19813563337418094 0.3939747487976093
0.6036011201912967 0.2752012143985869 0.5237972056139529
0.6782896368922655 0.19944801175099544 0.48148362686948964
0.7118378407304865 0.2711451974117947 0.37919401123265084
0.8215329768072703 0.19813563337418094 0.3939747487976093
0.8036011201912969 0.2752012143985869 0.5237972056139529
0.8782896368922656 0.19944801175099544 0.48148362686948964
0.9118378407304866 0.2711451974117947 0.37919401123265084
0.021532976807270343 0.39813563337418095 0.3939747487976093
0.003601120191296785 0.4752012143985869 0.5237972056139529
0.0782896368922655 0.3994480117509955 0.48148362686948964
0.11183784073048647 0.4711451974117948 0.37919401123265084
0.22153297680727035 0.39813563337418095 0.3939747487976093
0.2036011201912968 0.4752012143985869 0.5237972056139529
0.27828963689226555 0.3994480117509955 0.48148362686948964
0.3118378407304865 0.4711451974117948 0.37919401123265084
0.4215329768072704 0.39813563337418095 0.3939747487976093
0.4036011201912968 0.4752012143985869 0.5237972056139529
0.47828963689226556 0.3994480117509955 0.48148362686948964
0.5118378407304864 0.4711451974117948 0.37919401123265084
0.6215329768072704 0.39813563337418095 0.3939747487976093
0.6036011201912967 0.4752012143985869 0.5237972056139529
0.6782896368922655 0.3994480117509955 0.48148362686948964
0.7118378407304865 0.4711451974117948 0.37919401123265084
0.8215329768072703 0.39813563337418095 0.3939747487976093
0.8036011201912969 0.4752012143985869 0.5237972056139529
0.8782896368922656 0.3994480117509955 0.48148362686948964
0.9118378407304866 0.4711451974117948 0.37919401123265084
0.021532976807270343 0.598135633374181 0.3939747487976093
0.003601120191296785 0.6752012143985869 0.5237972056139529
0.0782896368922655 0.5994480117509954 0.48148362686948964
0.11183784073048647 0.6711451974117948 0.37919401123265084
0.22153297680727035 0.598135633374181 0.3939747487976093
0.2036011201912968 0.6752012143985869 0.5237972056139529
0.27828963689226555 0.5994480117509954 0.48148362686948964
0.3118378407304865 0.6711451974117948 0.37919401123265084
0.4215329768072704 0.598135633374181 0.3939747487976093
0.4036011201912968 0.6752012143985869 0.5237972056139529
0.47828963689226556 0.5994480117509954 0.48148362686948964
0.5118378407304864 0.6711451974117948 0.37919401123265084
0.6215329768072704 0.598135633374181 0.3939747487976093
0.6036011201912967 0.6752012143985869 0.5237972056139529
0.6782896368922655 0.5994480117509954 0.48148362686948964
0.7118378407304865 0.6711451974117948 0.37919401123265084
0.8215329768072703 0.598135633374181 0.3939747487976093
0.8036011201912969 0.6752012143985869 0.5237972056139529
0.8782896368922656 0.5994480117509954 0.48148362686948964
0.9118378407304866 0.6711451974117948 0.37919401123265084
0.021532976807270343 0.7981356333741809 0.3939747487976093
0.003601120191296785 0.875201214398587 0.5237972056139529
0.0782896368922655 0.7994480117509954 0.48148362686948964
0.11183784073048647 0.8711451974117947 0.37919401123265084
0.22153297680727035 0.7981356333741809 0.3939747487976093
0.2036011201912968 0.875201214398587 0.5237972056139529
0.27828963689226555 0.7994480117509954 0.48148362686948964
0.3118378407304865 0.8711451974117947 0.37919401123265084
0.4215329768072704 0.7981356333741809 0.3939747487976093
0.4036011201912968 0.875201214398587 0.5237972056139529
0.47828963689226556 0.7994480117509954 0.48148362686948964
0.5118378407304864 0.8711451974117947 0.37919401123265084
0.6215329768072704 0.7981356333741809 0.3939747487976093
0.6036011201912967 0.875201214398587 0.5237972056139529
0.6782896368922655 0.7994480117509954 0.48148362686948964
0.7118378407304865 0.8711451974117947 0.37919401123265084
0.8215329768072703 0.7981356333741809 0.3939747487976093
0.8036011201912969 0.875201214398587 0.5237972056139529
0.8782896368922656 0.7994480117509954 0.48148362686948964
0.9118378407304866 0.8711451974117947 0.37919401123265084
0.021532976807270343 -0.0018643666258190816 0.5939747487976093
0.003601120191296785 0.07520121439858694 0.723797205613953
0.0782896368922655 -0.0005519882490045724 0.6814836268694897
0.11183784073048647 0.07114519741179472 0.5791940112326509
0.22153297680727035 -0.0018643666258190816 0.5939747487976093
0.2036011201912968 0.07520121439858694 0.723797205613953
0.27828963689226555 -0.0005519882490045724 0.6814836268694897
0.3118378407304865 0.07114519741179472 0.5791940112326509
0.4215329768072704 -0.0018643666258190816 0.5939747487976093
0.4036011201912968 0.07520121439858694 0.723797205613953
0.47828963689226556 -0.0005519882490045724 0.6814836268694897
0.5118378407304864 0.07114519741179472 0.5791940112326509
0.6215329768072704 -0.0018643666258190816 0.5939747487976093
0.6036011201912967 0.07520121439858694 0.723797205613953
0.6782896368922655 -0.0005519882490045724 0.6814836268694897
0.7118378407304865 0.07114519741179472 0.5791940112326509
0.8215329768072703 -0.0018643666258190816 0.5939747487976093
0.8036011201912969 0.07520121439858694 0.723797205613953
0.8782896368922656 -0.0005519882490045724 0.6814836268694897
0.9118378407304866 0.07114519741179472 0.5791940112326509
0.021532976807270343 0.19813563337418094 0.5939747487976093
0.003601120191296785 0.2752012143985869 0.723797205613953
0.0782896368922655 0.19944801175099544 0.6814836268694897
0.11183784073048647 0.2711451974117947 0.5791940112326509
0.22153297680727035 0.19813563337418094 0.5939747487976093
0.2036011201912968 0.2752012143985869 0.723797205613953
0.27828963689226555 0.19944801175099544 0.6814836268694897
0.3118378407304865 0.2711451974117947 0.5791940112326509
0.4215329768072704 0.19813563337418094 0.5939747487976093
0.4036011201912968 0.2752012143985869 0.723797205613953
0.47828963689226556 0.19944801175099544 0.6814836268694897
0.5118378407304864 0.2711451974117947 0.5791940112326509
0.6215329768072704 0.19813563337418094 0.5939747487976093
0.6036011201912967 0.2752012143985869 0.723797205613953
0.6782896368922655 0.19944801175099544 0.6814836268694897
0.7118378407304865 0.2711451974117947 0.5791940112326509
0.8215329768072703 0.19813563337418094 0.5939747487976093
0.8036011201912969 0.2752012143985869 0.723797205613953
0.8782896368922656 0.19944801175099544 0.6814836268694897
0.9118378407304866 0.2711451974117947 0.5791940112326509
0.021532976807270343 0.39813563337418095 0.5939747487976093
0.003601120191296785 0.4752012143985869 0.723797205613953
0.0782896368922655 0.3994480117509955 0.6814836268694897
0.11183784073048647 0.4711451974117948 0.5791940112326509
0.22153297680727035 0.39813563337418095 0.5939747487976093
0.2036011201912968 0.4752012143985869 0.723797205613953
0.27828963689226555 0.3994480117509955 0.6814836268694897
0.3118378407304865 0.4711451974117948 0.5791940112326509
0.4215329768072704 0.39813563337418095 0.5939747487976093
0.4036011201912968 0.4752012143985869 0.723797205613953
0.47828963689226556 0.3994480117509955 0.6814836268694897
0.5118378407304864 0.4711451974117948 0.5791940112326509
0.6215329768072704 0.39813563337418095 0.5939747487976093
0.6036011201912967 0.4752012143985869 0.723797205613953
0.6782896368922655 0.3994480117509955 0.6814836268694897
0.7118378407304865 0.4711451974117948 0.5791940112326509
0.8215329768072703 0.39813563337418095 0.5939747487976093
0.8036011201912969 0.4752012143985869 0.723797205613953
0.8782896368922656 0.3994480117509955 0.6814836268694897
0.9118378407304866 0.4711451974117948 0.5791940112326509
0.021532976807270343 0.598135633374181 0.5939747487976093
0.003601120191296785 0.6752012143985869 0.723797205613953
0.0782896368922655 0.5994480117509954 0.6814836268694897
0.11183784073048647 0.6711451974117948 0.5791940112326509
0.22153297680727035 0.598135633374181 0.5939747487976093
0.2036011201912968 0.6752012143985869 0.723797205613953
0.27828963689226555 0.5994480117509954 0.6814836268694897
0.3118378407304865 0.6711451974117948 0.5791940112326509
0.4215329768072704 0.598135633374181 0.5939747487976093
0.4036011201912968 0.6752012143985869 0.723797205613953
0.47828963689226556 0.5994480117509954 0.6814836268694897
0.5118378407304864 0.6711451974117948 0.5791940112326509
0.6215329768072704 0.598135633374181 0.5939747487976093
0.6036011201912967 0.6752012143985869 0.723797205613953
0.6782896368922655 0.5994480117509954 0.6814836268694897
0.7118378407304865 0.6711451974117948 0.5791940112326509
0.8215329768072703 0.598135633374181 0.5939747487976093
0.8036011201912969 0.6752012143985869 0.723797205613953
0.8782896368922656 0.5994480117509954 0.6814836268694897
0.9118378407304866 0.6711451974117948 0.5791940112326509
0.021532976807270343 0.7981356333741809 0.5939747487976093
0.003601120191296785 0.875201214398587 0.723797205613953
0.0782896368922655 0.7994480117509954 0.6814836268694897
0.11183784073048647 0.8711451974117947 0.5791940112326509
0.22153297680727035 0.7981356333741809 0.5939747487976093
0.2036011201912968 0.875201214398587 0.723797205613953
0.27828963689226555 0.7994480117509954 0.6814836268694897
0.3118378407304865 0.8711451974117947 0.5791940112326509
0.4215329768072704 0.7981356333741809 0.5939747487976093
0.4036011201912968 0.875201214398587 0.723797205613953
0.47828963689226556 0.7994480117509954 0.6814836268694897
0.5118378407304864 0.8711451974117947 0.5791940112326509
0.6215329768072704 0.7981356333741809 0.5939747487976093
0.6036011201912967 0.875201214398587 0.723797205613953
0.6782896368922655 0.7994480117509954 0.6814836268694897
0.7118378407304865 0.8711451974117947 0.5791940112326509
0.8215329768072703 0.7981356333741809 0.5939747487976093
0.8036011201912969 0.875201214398587 0.723797205613953
0.8782896368922656 0.7994480117509954 0.6814836268694897
0.9118378407304866 0.8711451974117947 0.5791940112326509
0.021532976807270343 -0.0018643666258190816 0.7939747487976092
0.003601120191296785 0.07520121439858694 0.923797205613953
0.0782896368922655 -0.0005519882490045724 0.8814836268694896
0.11183784073048647 0.07114519741179472 0.7791940112326509
0.22153297680727035 -0.0018643666258190816 0.7939747487976092
0.2036011201912968 0.07520121439858694 0.923797205613953
0.27828963689226555 -0.0005519882490045724 0.8814836268694896
0.3118378407304865 0.07114519741179472 0.7791940112326509
0.4215329768072704 -0.0018643666258190816 0.7939747487976092
0.4036011201912968 0.07520121439858694 0.923797205613953
0.47828963689226556 -0.0005519882490045724 0.8814836268694896
0.5118378407304864 0.07114519741179472 0.7791940112326509
0.6215329768072704 -0.0018643666258190816 0.7939747487976092
0.6036011201912967 0.07520121439858694 0.923797205613953
0.6782896368922655 -0.0005519882490045724 0.8814836268694896
0.7118378407304865 0.07114519741179472 0.7791940112326509
0.8215329768072703 -0.0018643666258190816 0.7939747487976092
0.8036011201912969 0.07520121439858694 0.923797205613953
0.8782896368922656 -0.0005519882490045724 0.8814836268694896
0.9118378407304866 0.07114519741179472 0.7791940112326509
0.021532976807270343 0.19813563337418094 0.7939747487976092
0.003601120191296785 0.2752012143985869 0.923797205613953
0.0782896368922655 0.19944801175099544 0.8814836268694896
0.11183784073048647 0.2711451974117947 0.7791940112326509
0.22153297680727035 0.19813563337418094 0.7939747487976092
0.2036011201912968 0.2752012143985869 0.923797205613953
0.27828963689226555 0.19944801175099544 0.8814836268694896
0.3118378407304865 0.2711451974117947 0.7791940112326509
0.4215329768072704 0.19813563337418094 0.7939747487976092
0.4036011201912968 0.2752012143985869 0.923797205613953
0.47828963689226556 0.19944801175099544 0.8814836268694896
0.5118378407304864 0.2711451974117947 0.7791940112326509
0.6215329768072704 0.19813563337418094 0.7939747487976092
0.6036011201912967 0.2752012143985869 0.923797205613953
0.6782896368922655 0.19944801175099544 0.8814836268694896
0.7118378407304865 0.2711451974117947 0.7791940112326509
0.8215329768072703 0.19813563337418094 0.7939747487976092
0.8036011201912969 0.2752012143985869 0.923797205613953
0.8782896368922656 0.19944801175099544 0.8814836268694896
0.9118378407304866 0.2711451974117947 0.7791940112326509
0.021532976807270343 0.39813563337418095 0.7939747487976092
0.003601120191296785 0.4752012143985869 0.923797205613953
0.0782896368922655 0.3994480117509955 0.8814836268694896
0.11183784073048647 0.4711451974117948 0.7791940112326509
0.22153297680727035 0.39813563337418095 0.7939747487976092
0.2036011201912968 0.4752012143985869 0.923797205613953
0.27828963689226555 0.3994480117509955 0.8814836268694896
0.3118378407304865 0.4711451974117948 0.7791940112326509
0.4215329768072704 0.39813563337418095 0.7939747487976092
0.4036011201912968 0.4752012143985869 0.923797205613953
0.47828963689226556 0.3994480117509955 0.8814836268694896
0.5118378407304864 0.4711451974117948 0.7791940112326509
0.6215329768072704 0.39813563337418095 0.7939747487976092
0.6036011201912967 0.4752012143985869 0.923797205613953
0.6782896368922655 0.3994480117509955 0.8814836268694896
0.7118378407304865 0.4711451974117948 0.7791940112326509
0.8215329768072703 0.39813563337418095 0.7939747487976092
0.8036011201912969 0.4752012143985869 0.923797205613953
0.8782896368922656 0.3994480117509955 0.8814836268694896
0.9118378407304866 0.4711451974117948 0.7791940112326509
0.021532976807270343 0.598135633374181 0.7939747487976092
0.003601120191296785 0.6752012143985869 0.923797205613953
0.0782896368922655 0.5994480117509954 0.8814836268694896
0.11183784073048647 0.6711451974117948 0.7791940112326509
0.22153297680727035 0.598135633374181 0.7939747487976092
0.2036011201912968 0.6752012143985869 0.923797205613953
0.27828963689226555 0.5994480117509954 0.8814836268694896
0.3118378407304865 0.6711451974117948 0.7791940112326509
0.4215329768072704 0.598135633374181 0.7939747487976092
0.4036011201912968 0.6752012143985869 0.923797205613953
0.47828963689226556 0.5994480117509954 0.8814836268694896
0.5118378407304864 0.6711451974117948 0.7791940112326509
0.6215329768072704 0.598135633374181 0.7939747487976092
0.6036011201912967 0.6752012143985869 0.923797205613953
0.6782896368922655 0.5994480117509954 0.8814836268694896
0.7118378407304865 0.6711451974117948 0.7791940112326509
0.8215329768072703 0.598135633374181 0.7939747487976092
0.8036011201912969 0.6752012143985869 0.923797205613953
0.8782896368922656 0.5994480117509954 0.8814836268694896
0.9118378407304866 0.6711451974117948 0.7791940112326509
0.021532976807270343 0.7981356333741809 0.7939747487976092
0.003601120191296785 0.875201214398587 0.923797205613953
0.0782896368922655 0.7994480117509954 0.8814836268694896
0.11183784073048647 0.8711451974117947 0.7791940112326509
0.22153297680727035 0.7981356333741809 0.7939747487976092
0.2036011201912968 0.875201214398587 0.923797205613953
0.27828963689226555 0.7994480117509954 0.8814836268694896
0.3118378407304865 0.8711451974117947 0.7791940112326509
0.4215329768072704 0.7981356333741809 0.7939747487976092
0.4036011201912968 0.875201214398587 0.923797205613953
0.47828963689226556 0.7994480117509954 0.8814836268694896
0.5118378407304864 0.8711451974117947 0.7791940112326509
0.6215329768072704 0.7981356333741809 0.7939747487976092
0.6036011201912967 0.875201214398587 0.923797205613953
0.6782896368922655 0.7994480117509954 0.8814836268694896
0.7118378407304865 0.8711451974117947 0.7791940112326509
0.8215329768072703 0.7981356333741809 0.7939747487976092
0.8036011201912969 0.875201214398587 0.923797205613953
0.8782896368922656 0.7994480117509954 0.8814836268694896
0.9118378407304866 0.8711451974117947 0.7791940112326509
0.08374456911975502 -0.007263400933381724 -0.014538345920626736
0.012559119310910166 0.07943348161034872 -0.0054670081332730365
0.01847866327123161 -0.015141943174301474 0.1053834044109175
0.07672252712195123 0.09983210210199583 0.125982977942648
0.28374456911975504 -0.007263400933381724 -0.014538345920626736
0.21255911931091018 0.07943348161034872 -0.0054670081332730365
0.21847866327123164 -0.015141943174301474 0.1053834044109175
0.2767225271219513 0.09983210210199583 0.125982977942648
0.483744569119755 -0.007263400933381724 -0.014538345920626736
0.4125591193109102 0.07943348161034872 -0.0054670081332730365
0.4184786632712316 -0.015141943174301474 0.1053834044109175
0.4767225271219513 0.09983210210199583 0.125982977942648
0.683744569119755 -0.007263400933381724 -0.014538345920626736
0.6125591193109102 0.07943348161034872 -0.0054670081332730365
0.6184786632712317 -0.015141943174301474 0.1053834044109175
0.6767225271219512 0.09983210210199583 0.125982977942648
0.883744569119755 -0.007263400933381724 -0.014538345920626736
0.8125591193109103 0.07943348161034872 -0.0054670081332730365
0.8184786632712315 -0.015141943174301474 0.1053834044109175
0.8767225271219513 0.09983210210199583 0.125982977942648
0.08374456911975502 0.1927365990666183 -0.014538345920626736
0.012559119310910166 0.2794334816103487 -0.0054670081332730365
0.01847866327123161 0.18485805682569856 0.1053834044109175
0.07672252712195123 0.2998321021019958 0.125982977942648
0.28374456911975504 0.1927365990666183 -0.014538345920626736
0.21255911931091018 0.2794334816103487 -0.0054670081332730365
0.21847866327123164 0.18485805682569856 0.1053834044109175
0.2767225271219513 0.2998321021019958 0.125982977942648
0.483744569119755 0.1927365990666183 -0.014538345920626736
0.4125591193109102 0.2794334816103487 -0.0054670081332730365
0.4184786632712316 0.18485805682569856 0.1053834044109175
0.4767225271219513 0.2998321021019958 0.125982977942648
0.683744569119755 0.1927365990666183 -0.014538345920626736
0.6125591193109102 0.2794334816103487 -0.0054670081332730365
0.6184786632712317 0.18485805682569856 0.1053834044109175
0.6767225271219512 0.2998321021019958 0.125982977942648
0.883744569119755 0.1927365990666183 -0.014538345920626736
0.8125591193109103 0.2794334816103487 -0.0054670081332730365
0.8184786632712315 0.18485805682569856 0.1053834044109175
0.8767225271219513 0.2998321021019958 0.125982977942648
0.08374456911975502 0.3927365990666183 -0.014538345920626736
0.012559119310910166 0.4794334816103487 -0.0054670081332730365
0.01847866327123161 0.3848580568256985 0.1053834044109175
0.07672252712195123 0.4998321021019958 0.125982977942648
0.28374456911975504 0.3927365990666183 -0.014538345920626736
0.21255911931091018 0.4794334816103487 -0.0054670081332730365
0.21847866327123164 0.3848580568256985 0.1053834044109175
0.2767225271219513 0.4998321021019958 0.125982977942648
0.483744569119755 0.3927365990666183 -0.014538345920626736
0.4125591193109102 0.4794334816103487 -0.0054670081332730365
0.4184786632712316 0.3848580568256985 0.1053834044109175
0.4767225271219513 0.4998321021019958 0.125982977942648
0.683744569119755 0.3927365990666183 -0.014538345920626736
0.6125591193109102 0.4794334816103487 -0.0054670081332730365
0.6184786632712317 0.3848580568256985 0.1053834044109175
0.6767225271219512 0.4998321021019958 0.125982977942648
0.883744569119755 0.3927365990666183 -0.014538345920626736
0.8125591193109103 0.4794334816103487 -0.0054670081332730365
0.8184786632712315 0.3848580568256985 0.1053834044109175
0.8767225271219513 0.4998321021019958 0.125982977942648
0.08374456911975502 0.5927365990666184 -0.014538345920626736
0.012559119310910166 0.6794334816103488 -0.0054670081332730365
0.01847866327123161 0.5848580568256986 0.1053834044109175
0.07672252712195123 0.6998321021019959 0.125982977942648
0.28374456911975504 0.5927365990666184 -0.014538345920626736
0.21255911931091018 0.6794334816103488 -0.0054670081332730365
0.21847866327123164 0.5848580568256986 0.1053834044109175
0.2767225271219513 0.6998321021019959 0.125982977942648
0.483744569119755 0.5927365990666184 -0.014538345920626736
0.4125591193109102 0.6794334816103488 -0.0054670081332730365
0.4184786632712316 0.5848580568256986 0.1053834044109175
0.4767225271219513 0.6998321021019959 0.125982977942648
0.683744569119755 0.5927365990666184 -0.014538345920626736
0.6125591193109102 0.6794334816103488 -0.0054670081332730365
0.6184786632712317 0.5848580568256986 0.1053834044109175
0.6767225271219512 0.6998321021019959 0.125982977942648
0.883744569119755 0.5927365990666184 -0.014538345920626736
0.8125591193109103 0.6794334816103488 -0.0054670081332730365
0.8184786632712315 0.5848580568256986 0.1053834044109175
0.8767225271219513 0.6998321021019959 0.125982977942648
0.08374456911975502 0.7927365990666183 -0.014538345920626736
0.012559119310910166 0.8794334816103486 -0.0054670081332730365
0.01847866327123161 0.7848580568256986 0.1053834044109175
0.07672252712195123 0.8998321021019958 0.125982977942648
0.28374456911975504 0.7927365990666183 -0.014538345920626736
0.21255911931091018 0.8794334816103486 -0.0054670081332730365
0.21847866327123164 0.7848580568256986 0.1053834044109175
0.2767225271219513 0.8998321021019958 0.125982977942648
0.483744569119755 0.7927365990666183 -0.014538345920626736
0.4125591193109102 0.8794334816103486 -0.0054670081332730365
0.4184786632712316 0.7848580568256986 0.1053834044109175
0.4767225271219513 0.8998321021019958 0.125982977942648
0.683744569119755 0.7927365990666183 -0.014538345920626736
0.6125591193109102 0.8794334816103486 -0.0054670081332730365
0.6184786632712317 0.7848580568256986 0.1053834044109175
0.6767225271219512 0.8998321021019958 0.125982977942648
0.883744569119755 0.7927365990666183 -0.014538345920626736
0.8125591193109103 0.8794334816103486 -0.0054670081332730365
0.8184786632712315 0.7848580568256986 0.1053834044109175
0.8767225271219513 0.8998321021019958 0.125982977942648
0.08374456911975502 -0.007263400933381724 0.1854616540793733
0.012559119310910166 0.07943348161034872 0.19453299186672698
0.01847866327123161 -0.015141943174301474 0.30538340441091755
0.07672252712195123 0.09983210210199583 0.325982977942648
0.28374456911975504 -0.007263400933381724 0.1854616540793733
0.21255911931091018 0.07943348161034872 0.19453299186672698
0.21847866327123164 -0.015141943174301474 0.30538340441091755
0.2767225271219513 0.09983210210199583 0.325982977942648
0.483744569119755 -0.007263400933381724 0.1854616540793733
0.4125591193109102 0.07943348161034872 0.19453299186672698
0.4184786632712316 -0.015141943174301474 0.30538340441091755
0.4767225271219513 0.09983210210199583 0.325982977942648
0.683744569119755 -0.007263400933381724 0.1854616540793733
0.6125591193109102 0.07943348161034872 0.19453299186672698
0.6184786632712317 -0.015141943174301474 0.30538340441091755
0.6767225271219512 0.09983210210199583 0.325982977942648
0.883744569119755 -0.007263400933381724 0.1854616540793733
0.8125591193109103 0.07943348161034872 0.19453299186672698
0.8184786632712315 -0.015141943174301474 0.30538340441091755
0.8767225271219513 0.09983210210199583 0.325982977942648
0.08374456911975502 0.1927365990666183 0.1854616540793733
0.012559119310910166 0.2794334816103487 0.19453299186672698
0.01847866327123161 0.18485805682569856 0.30538340441091755
0.07672252712195123 0.2998321021019958 0.325982977942648
0.28374456911975504 0.1927365990666183 0.1854616540793733
0.21255911931091018 0.2794334816103487 0.19453299186672698
0.21847866327123164 0.18485805682569856 0.30538340441091755
0.2767225271219513 0.2998321021019958 0.325982977942648
0.483744569119755 0.1927365990666183 0.1854616540793733
0.4125591193109102 0.2794334816103487 0.19453299186672698
0.4184786632712316 0.18485805682569856 0.30538340441091755
0.4767225271219513 0.2998321021019958 0.325982977942648
0.683744569119755 0.1927365990666183 0.1854616540793733
0.6125591193109102 0.2794334816103487 0.19453299186672698
0.6184786632712317 0.18485805682569856 0.30538340441091755
0.6767225271219512 0.2998321021019958 0.325982977942648
0.883744569119755 0.1927365990666183 0.1854616540793733
0.8125591193109103 0.2794334816103487 0.19453299186672698
0.8184786632712315 0.18485805682569856 0.30538340441091755
0.8767225271219513 0.2998321021019958 0.325982977942648
0.08374456911975502 0.3927365990666183 0.1854616540793733
0.012559119310910166 0.4794334816103487 0.19453299186672698
0.01847866327123161 0.3848580568256985 0.30538340441091755
0.07672252712195123 0.4998321021019958 0.325982977942648
0.28374456911975504 0.3927365990666183 0.1854616540793733
0.21255911931091018 0.4794334816103487 0.19453299186672698
0.21847866327123164 0.3848580568256985 0.30538340441091755
0.2767225271219513 0.4998321021019958 0.325982977942648
0.483744569119755 0.3927365990666183 0.1854616540793733
0.4125591193109102 0.4794334816103487 0.19453299186672698
0.4184786632712316 0.3848580568256985 0.30538340441091755
0.4767225271219513 0.4998321021019958 0.325982977942648
0.683744569119755 0.3927365990666183 0.1854616540793733
0.6125591193109102 0.4794334816103487 0.19453299186672698
0.6184786632712317 0.3848580568256985 0.30538340441091755
0.6767225271219512 0.4998321021019958 0.325982977942648
0.883744569119755 0.3927365990666183 0.1854616540793733
0.8125591193109103 0.4794334816103487 0.19453299186672698
0.8184786632712315 0.3848580568256985 0.30538340441091755
0.8767225271219513 0.4998321021019958 0.325982977942648
0.08374456911975502 0.5927365990666184 0.1854616540793733
0.012559119310910166 0.6794334816103488 0.19453299186672698
0.01847866327123161 0.5848580568256986 0.30538340441091755
0.07672252712195123 0.6998321021019959 0.325982977942648
0.28374456911975504 0.5927365990666184 0.1854616540793733
0.21255911931091018 0.6794334816103488 0.19453299186672698
0.21847866327123164 0.5848580568256986 0.30538340441091755
0.2767225271219513 0.6998321021019959 0.325982977942648
0.483744569119755 0.5927365990666184 0.1854616540793733
0.4125591193109102 0.6794334816103488 0.19453299186672698
0.4184786632712316 0.5848580568256986 0.30538340441091755
0.4767225271219513 0.6998321021019959 0.325982977942648
0.683744569119755 0.5927365990666184 0.1854616540793733
0.6125591193109102 0.6794334816103488 0.19453299186672698
0.6184786632712317 0.5848580568256986 0.30538340441091755
0.6767225271219512 0.6998321021019959 0.325982977942648
0.883744569119755 0.5927365990666184 0.1854616540793733
0.8125591193109103 0.6794334816103488 0.19453299186672698
0.8184786632712315 0.5848580568256986 0.30538340441091755
0.8767225271219513 0.6998321021019959 0.325982977942648
0.08374456911975502 0.7927365990666183 0.1854616540793733
0.012559119310910166 0.8794334816103486 0.19453299186672698
0.01847866327123161 0.7848580568256986 0.30538340441091755
0.07672252712195123 0.8998321021019958 0.325982977942648
0.28374456911975504 0.7927365990666183 0.1854616540793733
0.21255911931091018 0.8794334816103486 0.19453299186672698
0.21847866327123164 0.7848580568256986 0.30538340441091755
0.2767225271219513 0.8998321021019958 0.325982977942648
0.483744569119755 0.7927365990666183 0.1854616540793733
0.4125591193109102 0.8794334816103486 0.19453299186672698
0.4184786632712316 0.7848580568256986 0.30538340441091755
0.4767225271219513 0.8998321021019958 0.325982977942648
0.683744569119755 0.7927365990666183 0.1854616540793733
0.6125591193109102 0.8794334816103486 0.19453299186672698
0.6184786632712317 0.7848580568256986 0.30538340441091755
0.6767225271219512 0.8998321021019958 0.325982977942648
0.883744569119755 0.7927365990666183 0.1854616540793733
0.8125591193109103 0.8794334816103486 0.19453299186672698
0.8184786632712315 0.7848580568256986 0.30538340441091755
0.8767225271219513 0.8998321021019958 0.325982977942648
0.08374456911975502 -0.007263400933381724 0.3854616540793733
0.012559119310910166 0.07943348161034872 0.39453299186672697
0.01847866327123161 -0.015141943174301474 0.5053834044109176
0.07672252712195123 0.09983210210199583 0.525982977942648
0.28374456911975504 -0.007263400933381724 0.3854616540793733
0.21255911931091018 0.07943348161034872 0.39453299186672697
0.21847866327123164 -0.015141943174301474 0.5053834044109176
0.2767225271219513 0.09983210210199583 0.525982977942648
0.483744569119755 -0.007263400933381724 0.3854616540793733
0.4125591193109102 0.07943348161034872 0.39453299186672697
0.4184786632712316 -0.015141943174301474 0.5053834044109176
0.4767225271219513 0.09983210210199583 0.525982977942648
0.683744569119755 -0.007263400933381724 0.3854616540793733
0.6125591193109102 0.07943348161034872 0.39453299186672697
0.6184786632712317 -0.015141943174301474 0.5053834044109176
0.6767225271219512 0.09983210210199583 0.525982977942648
0.883744569119755 -0.007263400933381724 0.3854616540793733
0.8125591193109103 0.07943348161034872 0.39453299186672697
0.8184786632712315 -0.015141943174301474 0.5053834044109176
0.8767225271219513 0.09983210210199583 0.525982977942648
0.08374456911975502 0.1927365990666183 0.3854616540793733
0.012559119310910166 0.2794334816103487 0.39453299186672697
0.01847866327123161 0.18485805682569856 0.5053834044109176
0.07672252712195123 0.2998321021019958 0.525982977942648
0.28374456911975504 0.1927365990666183 0.3854616540793733
0.21255911931091018 0.2794334816103487 0.39453299186672697
0.21847866327123164 0.18485805682569856 0.5053834044109176
0.2767225271219513 0.2998321021019958 0.525982977942648
0.483744569119755 0.1927365990666183 0.3854616540793733
0.4125591193109102 0.2794334816103487 0.39453299186672697
0.4184786632712316 0.18485805682569856 0.5053834044109176
0.4767225271219513 0.2998321021019958 0.525982977942648
0.683744569119755 0.1927365990666183 0.3854616540793733
0.6125591193109102 0.2794334816103487 0.39453299186672697
0.6184786632712317 0.18485805682569856 0.5053834044109176
0.6767225271219512 0.2998321021019958 0.525982977942648
0.883744569119755 0.1927365990666183 0.3854616540793733
0.8125591193109103 0.2794334816103487 0.39453299186672697
0.8184786632712315 0.18485805682569856 0.5053834044109176
0.8767225271219513 0.2998321021019958 0.525982977942648
0.08374456911975502 0.3927365990666183 0.3854616540793733
0.012559119310910166 0.4794334816103487 0.39453299186672697
0.01847866327123161 0.3848580568256985 0.5053834044109176
0.07672252712195123 0.4998321021019958 0.525982977942648
0.28374456911975504 0.3927365990666183 0.3854616540793733
0.21255911931091018 0.4794334816103487 0.39453299186672697
0.21847866327123164 0.3848580568256985 0.5053834044109176
0.2767225271219513 0.4998321021019958 0.525982977942648
0.483744569119755 0.3927365990666183 0.3854616540793733
0.4125591193109102 0.4794334816103487 0.39453299186672697
0.4184786632712316 0.3848580568256985 0.5053834044109176
0.4767225271219513 0.4998321021019958 0.525982977942648
0.683744569119755 0.3927365990666183 0.3854616540793733
0.6125591193109102 0.4794334816103487 0.39453299186672697
0.6184786632712317 0.3848580568256985 0.5053834044109176
0.6767225271219512 0.4998321021019958 0.525982977942648
0.883744569119755 0.3927365990666183 0.3854616540793733
0.8125591193109103 0.4794334816103487 0.39453299186672697
0.8184786632712315 0.3848580568256985 0.5053834044109176
0.8767225271219513 0.4998321021019958 0.525982977942648
0.08374456911975502 0.5927365990666184 0.3854616540793733
0.012559119310910166 0.6794334816103488 0.39453299186672697
0.01847866327123161 0.5848580568256986 0.5053834044109176
0.07672252712195123 0.6998321021019959 0.525982977942648
0.28374456911975504 0.5927365990666184 0.3854616540793733
0.21255911931091018 0.6794334816103488 0.39453299186672697
0.21847866327123164 0.5848580568256986 0.5053834044109176
0.2767225271219513 0.6998321021019959 0.525982977942648
0.483744569119755 0.5927365990666184 0.3854616540793733
0.4125591193109102 0.6794334816103488 0.39453299186672697
0.4184786632712316 0.5848580568256986 0.5053834044109176
0.4767225271219513 0.6998321021019959 0.525982977942648
0.683744569119755 0.5927365990666184 0.3854616540793733
0.6125591193109102 0.6794334816103488 0.39453299186672697
0.6184786632712317 0.5848580568256986 0.5053834044109176
0.6767225271219512 0.6998321021019959 0.525982977942648
0.883744569119755 0.5927365990666184 0.3854616540793733
0.8125591193109103 0.6794334816103488 0.39453299186672697
0.8184786632712315 0.5848580568256986 0.5053834044109176
0.8767225271219513 0.6998321021019959 0.525982977942648
0.08374456911975502 0.7927365990666183 0.3854616540793733
0.012559119310910166 0.8794334816103486 0.39453299186672697
0.01847866327123161 0.7848580568256986 0.5053834044109176
0.07672252712195123 0.8998321021019958 0.525982977942648
0.28374456911975504 0.7927365990666183 0.3854616540793733
0.21255911931091018 0.8794334816103486 0.39453299186672697
0.21847866327123164 0.7848580568256986 0.5053834044109176
0.2767225271219513 0.8998321021019958 0.525982977942648
0.483744569119755 0.7927365990666183 0.3854616540793733
0.4125591193109102 0.8794334816103486 0.39453299186672697
0.4184786632712316 0.7848580568256986 0.5053834044109176
0.4767225271219513 0.8998321021019958 0.525982977942648
0.683744569119755 0.7927365990666183 0.3854616540793733
0.6125591193109102 0.8794334816103486 0.39453299186672697
0.6184786632712317 0.7848580568256986 0.5053834044109176
0.6767225271219512 0.8998321021019958 0.525982977942648
0.883744569119755 0.7927365990666183 0.3854616540793733
0.8125591193109103 0.8794334816103486 0.39453299186672697
0.8184786632712315 0.7848580568256986 0.5053834044109176
0.8767225271219513 0.8998321021019958 0.525982977942648
0.08374456911975502 -0.007263400933381724 0.5854616540793732
0.012559119310910166 0.07943348161034872 0.5945329918667269
0.01847866327123161 -0.015141943174301474 0.7053834044109175
0.07672252712195123 0.09983210210199583 0.7259829779426481
0.28374456911975504 -0.007263400933381724 0.5854616540793732
0.21255911931091018 0.07943348161034872 0.5945329918667269
0.21847866327123164 -0.015141943174301474 0.7053834044109175
0.2767225271219513 0.09983210210199583 0.7259829779426481
0.483744569119755 -0.007263400933381724 0.5854616540793732
0.4125591193109102 0.07943348161034872 0.5945329918667269
0.4184786632712316 -0.015141943174301474 0.7053834044109175
0.4767225271219513 0.09983210210199583 0.7259829779426481
0.683744569119755 -0.007263400933381724 0.5854616540793732
0.6125591193109102 0.07943348161034872 0.5945329918667269
0.6184786632712317 -0.015141943174301474 0.7053834044109175
0.6767225271219512 0.09983210210199583 0.7259829779426481
0.883744569119755 -0.007263400933381724 0.5854616540793732
0.8125591193109103 0.07943348161034872 0.5945329918667269
0.8184786632712315 -0.015141943174301474 0.7053834044109175
0.8767225271219513 0.09983210210199583 0.7259829779426481
0.08374456911975502 0.1927365990666183 0.5854616540793732
0.012559119310910166 0.2794334816103487 0.5945329918667269
0.01847866327123161 0.18485805682569856 0.7053834044109175
0.07672252712195123 0.2998321021019958 0.7259829779426481
0.28374456911975504 0.1927365990666183 0.5854616540793732
0.21255911931091018 0.2794334816103487 0.5945329918667269
0.21847866327123164 0.18485805682569856 0.7053834044109175
0.2767225271219513 0.2998321021019958 0.7259829779426481
0.483744569119755 0.1927365990666183 0.5854616540793732
0.4125591193109102 0.2794334816103487 0.5945329918667269
0.4184786632712316 0.18485805682569856 0.7053834044109175
0.4767225271219513 0.2998321021019958 0.7259829779426481
0.683744569119755 0.1927365990666183 0.5854616540793732
0.6125591193109102 0.2794334816103487 0.5945329918667269
0.6184786632712317 0.18485805682569856 0.7053834044109175
0.6767225271219512 0.2998321021019958 0.7259829779426481
0.883744569119755 0.1927365990666183 0.5854616540793732
0.8125591193109103 0.2794334816103487 0.5945329918667269
0.8184786632712315 0.18485805682569856 0.7053834044109175
0.8767225271219513 0.2998321021019958 0.7259829779426481
0.08374456911975502 0.3927365990666183 0.5854616540793732
0.012559119310910166 0.4794334816103487 0.5945329918667269
0.01847866327123161 0.3848580568256985 0.7053834044109175
0.07672252712195123 0.4998321021019958 0.7259829779426481
0.28374456911975504 0.3927365990666183 0.5854616540793732
0.21255911931091018 0.4794334816103487 0.5945329918667269
0.21847866327123164 0.3848580568256985 0.7053834044109175
0.2767225271219513 0.4998321021019958 0.7259829779426481
0.483744569119755 0.3927365990666183 0.5854616540793732
0.4125591193109102 0.4794334816103487 0.5945329918667269
0.4184786632712316 0.3848580568256985 0.7053834044109175
0.4767225271219513 0.4998321021019958 0.7259829779426481
0.683744569119755 0.3927365990666183 0.5854616540793732
0.6125591193109102 0.4794334816103487 0.5945329918667269
0.6184786632712317 0.3848580568256985 0.7053834044109175
0.6767225271219512 0.4998321021019958 0.7259829779426481
0.883744569119755 0.3927365990666183 0.5854616540793732
0.8125591193109103 0.4794334816103487 0.5945329918667269
0.8184786632712315 0.3848580568256985 0.7053834044109175
0.8767225271219513 0.4998321021019958 0.7259829779426481
0.08374456911975502 0.5927365990666184 0.5854616540793732
0.012559119310910166 0.6794334816103488 0.5945329918667269
0.01847866327123161 0.5848580568256986 0.7053834044109175
0.07672252712195123 0.6998321021019959 0.7259829779426481
0.28374456911975504 0.5927365990666184 0.5854616540793732
0.21255911931091018 0.6794334816103488 0.5945329918667269
0.21847866327123164 0.5848580568256986 0.7053834044109175
0.2767225271219513 0.6998321021019959 0.7259829779426481
0.483744569119755 0.5927365990666184 0.5854616540793732
0.4125591193109102 0.6794334816103488 0.5945329918667269
0.4184786632712316 0.5848580568256986 0.7053834044109175
0.4767225271219513 0.6998321021019959 0.7259829779426481
0.683744569119755 0.5927365990666184 0.5854616540793732
0.6125591193109102 0.6794334816103488 0.5945329918667269
0.6184786632712317 0.5848580568256986 0.7053834044109175
0.6767225271219512 0.6998321021019959 0.7259829779426481
0.883744569119755 0.5927365990666184 0.5854616540793732
0.8125591193109103 0.6794334816103488 0.5945329918667269
0.8184786632712315 0.5848580568256986 0.7053834044109175
0.8767225271219513 0.6998321021019959 0.7259829779426481
0.08374456911975502 0.7927365990666183 0.5854616540793732
0.012559119310910166 0.8794334816103486 0.5945329918667269
0.01847866327123161 0.7848580568256986 0.7053834044109175
0.07672252712195123 0.8998321021019958 0.7259829779426481
0.28374456911975504 0.7927365990666183 0.5854616540793732
0.21255911931091018 0.8794334816103486 0.5945329918667269
0.21847866327123164 0.7848580568256986 0.7053834044109175
0.2767225271219513 0.8998321021019958 0.7259829779426481
0.483744569119755 0.7927365990666183 0.5854616540793732
0.4125591193109102 0.8794334816103486 0.5945329918667269
0.4184786632712316 0.7848580568256986 0.7053834044109175
0.4767225271219513 0.8998321021019958 0.7259829779426481
0.683744569119755 0.7927365990666183 0.5854616540793732
0.6125591193109102 0.8794334816103486 0.5945329918667269
0.6184786632712317 0.7848580568256986 0.7053834044109175
0.6767225271219512 0.8998321021019958 0.7259829779426481
0.883744569119755 0.7927365990666183 0.5854616540793732
0.8125591193109103 0.8794334816103486 0.5945329918667269
0.8184786632712315 0.7848580568256986 0.7053834044109175
0.8767225271219513 0.8998321021019958 0.7259829779426481
0.08374456911975502 -0.007263400933381724 0.7854616540793733
0.012559119310910166 0.07943348161034872 0.794532991866727
0.01847866327123161 -0.015141943174301474 0.9053834044109176
0.07672252712195123 0.09983210210199583 0.9259829779426481
0.28374456911975504 -0.007263400933381724 0.7854616540793733
0.21255911931091018 0.07943348161034872 0.794532991866727
0.21847866327123164 -0.015141943174301474 0.9053834044109176
0.2767225271219513 0.09983210210199583 0.9259829779426481
0.483744569119755 -0.007263400933381724 0.7854616540793733
0.4125591193109102 0.07943348161034872 0.794532991866727
0.4184786632712316 -0.015141943174301474 0.9053834044109176
0.4767225271219513 0.09983210210199583 0.9259829779426481
0.683744569119755 -0.007263400933381724 0.7854616540793733
0.6125591193109102 0.07943348161034872 0.794532991866727
0.6184786632712317 -0.015141943174301474 0.9053834044109176
0.6767225271219512 0.09983210210199583 0.9259829779426481
0.883744569119755 -0.007263400933381724 0.7854616540793733
0.8125591193109103 0.07943348161034872 0.794532991866727
0.8184786632712315 -0.015141943174301474 0.9053834044109176
0.8767225271219513 0.09983210210199583 0.9259829779426481
0.08374456911975502 0.1927365990666183 0.7854616540793733
0.012559119310910166 0.2794334816103487 0.794532991866727
0.01847866327123161 0.18485805682569856 0.9053834044109176
0.07672252712195123 0.2998321021019958 0.9259829779426481
0.28374456911975504 0.1927365990666183 0.7854616540793733
0.21255911931091018 0.2794334816103487 0.794532991866727
0.21847866327123164 0.18485805682569856 0.9053834044109176
0.2767225271219513 0.2998321021019958 0.9259829779426481
0.483744569119755 0.1927365990666183 0.7854616540793733
0.4125591193109102 0.2794334816103487 0.794532991866727
0.4184786632712316 0.18485805682569856 0.9053834044109176
0.4767225271219513 0.2998321021019958 0.9259829779426481
0.683744569119755 0.1927365990666183 0.7854616540793733
0.6125591193109102 0.2794334816103487 0.794532991866727
0.6184786632712317 0.18485805682569856 0.9053834044109176
0.6767225271219512 0.2998321021019958 0.9259829779426481
0.883744569119755 0.1927365990666183 0.7854616540793733
0.8125591193109103 0.2794334816103487 0.794532991866727
0.8184786632712315 0.18485805682569856 0.9053834044109176
0.8767225271219513 0.2998321021019958 0.9259829779426481
0.08374456911975502 0.3927365990666183 0.7854616540793733
0.012559119310910166 0.4794334816103487 0.794532991866727
0.01847866327123161 0.3848580568256985 0.9053834044109176
0.07672252712195123 0.4998321021019958 0.9259829779426481
0.28374456911975504 0.3927365990666183 0.7854616540793733
0.21255911931091018 0.4794334816103487 0.794532991866727
0.21847866327123164 0.3848580568256985 0.9053834044109176
0.2767225271219513 0.4998321021019958 0.9259829779426481
0.483744569119755 0.3927365990666183 0.7854616540793733
0.4125591193109102 0.4794334816103487 0.794532991866727
0.4184786632712316 0.3848580568256985 0.9053834044109176
0.4767225271219513 0.4998321021019958 0.9259829779426481
0.683744569119755 0.3927365990666183 0.7854616540793733
0.6125591193109102 0.4794334816103487 0.794532991866727
0.6184786632712317 0.3848580568256985 0.9053834044109176
0.6767225271219512 0.4998321021019958 0.9259829779426481
0.883744569119755 0.3927365990666183 0.7854616540793733
0.8125591193109103 0.4794334816103487 0.794532991866727
0.8184786632712315 0.3848580568256985 0.9053834044109176
0.8767225271219513 0.4998321021019958 0.9259829779426481
0.08374456911975502 0.5927365990666184 0.7854616540793733
0.012559119310910166 0.6794334816103488 0.794532991866727
0.01847866327123161 0.5848580568256986 0.9053834044109176
0.07672252712195123 0.6998321021019959 0.9259829779426481
0.28374456911975504 0.5927365990666184 0.7854616540793733
0.21255911931091018 0.6794334816103488 0.794532991866727
0.21847866327123164 0.5848580568256986 0.9053834044109176
0.2767225271219513 0.6998321021019959 0.9259829779426481
0.483744569119755 0.5927365990666184 0.7854616540793733
0.4125591193109102 0.6794334816103488 0.794532991866727
0.4184786632712316 0.5848580568256986 0.9053834044109176
0.4767225271219513 0.6998321021019959 0.9259829779426481
0.683744569119755 0.5927365990666184 0.7854616540793733
0.6125591193109102 0.6794334816103488 0.794532991866727
0.6184786632712317 0.5848580568256986 0.9053834044109176
0.6767225271219512 0.6998321021019959 0.9259829779426481
0.883744569119755 0.5927365990666184 0.7854616540793733
0.8125591193109103 0.6794334816103488 0.794532991866727
0.8184786632712315 0.5848580568256986 0.9053834044109176
0.8767225271219513 0.6998321021019959 0.9259829779426481
0.08374456911975502 0.7927365990666183 0.7854616540793733
0.012559119310910166 0.8794334816103486 0.794532991866727
0.01847866327123161 0.7848580568256986 0.9053834044109176
0.07672252712195123 0.8998321021019958 0.9259829779426481
0.28374456911975504 0.7927365990666183 0.7854616540793733
0.21255911931091018 0.8794334816103486 0.794532991866727
0.21847866327123164 0.7848580568256986 0.9053834044109176
0.2767225271219513 0.8998321021019958 0.9259829779426481
0.483744569119755 0.7927365990666183 0.7854616540793733
0.4125591193109102 0.8794334816103486 0.794532991866727
0.4184786632712316 0.7848580568256986 0.9053834044109176
0.4767225271219513 0.8998321021019958 0.9259829779426481
0.683744569119755 0.7927365990666183 0.7854616540793733
0.6125591193109102 0.8794334816103486 0.794532991866727
0.6184786632712317 0.7848580568256986 0.9053834044109176
0.6767225271219512 0.8998321021019958 0.9259829779426481
0.883744569119755 0.7927365990666183 0.7854616540793733
0.8125591193109103 0.8794334816103486 0.794532991866727
0.8184786632712315 0.7848580568256986 0.9053834044109176
0.8767225271219513 0.8998321021019958 0.9259829779426481
