FCC BaO
5.61604
3.0 0.0 0.0
0.0 3.0 0.0
0.0 0.0 3.0
Ba O 
108 108 
Direct
0.1495698508149394 -0.6452820653469722 -0.07954293601792835
0.04653505497429605 -0.1657161497611168 0.09852963981868403
0.4124411136402944 -0.8204109981592911 0.5834997243559471
-0.29593952445681826 0.3301644738556916 -0.0764038759197436
0.48290318414827277 -0.6452820653469722 -0.07954293601792835
0.37986838830762937 -0.1657161497611168 0.09852963981868403
0.7457744469736278 -0.8204109981592911 0.5834997243559471
0.037393808876515035 0.3301644738556916 -0.0764038759197436
0.8162365174816061 -0.6452820653469722 -0.07954293601792835
0.7132017216409627 -0.1657161497611168 0.09852963981868403
1.079107780306961 -0.8204109981592911 0.5834997243559471
0.37072714220984837 0.3301644738556916 -0.0764038759197436
0.1495698508149394 -0.3119487320136388 -0.07954293601792835
0.04653505497429605 0.1676171835722165 0.09852963981868403
0.4124411136402944 -0.4870776648259577 0.5834997243559471
-0.29593952445681826 0.663497807189025 -0.0764038759197436
0.48290318414827277 -0.3119487320136388 -0.07954293601792835
0.37986838830762937 0.1676171835722165 0.09852963981868403
0.7457744469736278 -0.4870776648259577 0.5834997243559471
0.037393808876515035 0.663497807189025 -0.0764038759197436
0.8162365174816061 -0.3119487320136388 -0.07954293601792835
0.7132017216409627 0.1676171835722165 0.09852963981868403
1.079107780306961 -0.4870776648259577 0.5834997243559471
0.37072714220984837 0.663497807189025 -0.0764038759197436
0.1495698508149394 0.021384601319694475 -0.07954293601792835
0.04653505497429605 0.5009505169055498 0.09852963981868403
0.4124411136402944 -0.1537443314926244 0.5834997243559471
-0.29593952445681826 0.9968311405223582 -0.0764038759197436
0.48290318414827277 0.021384601319694475 -0.07954293601792835
0.37986838830762937 0.5009505169055498 0.09852963981868403
0.7457744469736278 -0.1537443314926244 0.5834997243559471
0.037393808876515035 0.9968311405223582 -0.0764038759197436
0.8162365174816061 0.021384601319694475 -0.07954293601792835
0.7132017216409627 0.5009505169055498 0.09852963981868403
1.079107780306961 -0.1537443314926244 0.5834997243559471
0.37072714220984837 0.9968311405223582 -0.0764038759197436
0.1495698508149394 -0.6452820653469722 0.253790397315405
0.04653505497429605 -0.1657161497611168 0.4318629731520174
0.4124411136402944 -0.8204109981592911 0.9168330576892805
-0.29593952445681826 0.3301644738556916 0.2569294574135897
0.48290318414827277 -0.6452820653469722 0.253790397315405
0.37986838830762937 -0.1657161497611168 0.4318629731520174
0.7457744469736278 -0.8204109981592911 0.9168330576892805
0.037393808876515035 0.3301644738556916 0.2569294574135897
0.8162365174816061 -0.6452820653469722 0.253790397315405
0.7132017216409627 -0.1657161497611168 0.4318629731520174
1.079107780306961 -0.8204109981592911 0.9168330576892805
0.37072714220984837 0.3301644738556916 0.2569294574135897
0.1495698508149394 -0.3119487320136388 0.253790397315405
0.04653505497429605 0.1676171835722165 0.4318629731520174
0.4124411136402944 -0.4870776648259577 0.9168330576892805
-0.29593952445681826 0.663497807189025 0.2569294574135897
0.48290318414827277 -0.3119487320136388 0.253790397315405
0.37986838830762937 0.1676171835722165 0.4318629731520174
0.7457744469736278 -0.4870776648259577 0.9168330576892805
0.037393808876515035 0.663497807189025 0.2569294574135897
0.8162365174816061 -0.3119487320136388 0.253790397315405
0.7132017216409627 0.1676171835722165 0.4318629731520174
1.079107780306961 -0.4870776648259577 0.9168330576892805
0.37072714220984837 0.663497807189025 0.2569294574135897
0.1495698508149394 0.021384601319694475 0.253790397315405
0.04653505497429605 0.5009505169055498 0.4318629731520174
0.4124411136402944 -0.1537443314926244 0.9168330576892805
-0.29593952445681826 0.9968311405223582 0.2569294574135897
0.48290318414827277 0.021384601319694475 0.253790397315405
0.37986838830762937 0.5009505169055498 0.4318629731520174
0.7457744469736278 -0.1537443314926244 0.9168330576892805
0.037393808876515035 0.9968311405223582 0.2569294574135897
0.8162365174816061 0.021384601319694475 0.253790397315405
0.7132017216409627 0.5009505169055498 0.4318629731520174
1.079107780306961 -0.1537443314926244 0.9168330576892805
0.37072714220984837 0.9968311405223582 0.2569294574135897
0.1495698508149394 -0.6452820653469722 0.5871237306487382
0.04653505497429605 -0.1657161497611168 0.7651963064853506
0.4124411136402944 -0.8204109981592911 1.2501663910226137
-0.29593952445681826 0.3301644738556916 0.590262790746923
0.48290318414827277 -0.6452820653469722 0.5871237306487382
0.37986838830762937 -0.1657161497611168 0.7651963064853506
0.7457744469736278 -0.8204109981592911 1.2501663910226137
0.037393808876515035 0.3301644738556916 0.590262790746923
0.8162365174816061 -0.6452820653469722 0.5871237306487382
0.7132017216409627 -0.1657161497611168 0.7651963064853506
1.079107780306961 -0.8204109981592911 1.2501663910226137
0.37072714220984837 0.3301644738556916 0.590262790746923
0.1495698508149394 -0.3119487320136388 0.5871237306487382
0.04653505497429605 0.1676171835722165 0.7651963064853506
0.4124411136402944 -0.4870776648259577 1.2501663910226137
-0.29593952445681826 0.663497807189025 0.590262790746923
0.48290318414827277 -0.3119487320136388 0.5871237306487382
0.37986838830762937 0.1676171835722165 0.7651963064853506
0.7457744469736278 -0.4870776648259577 1.2501663910226137
0.037393808876515035 0.663497807189025 0.590262790746923
0.8162365174816061 -0.3119487320136388 0.5871237306487382
0.7132017216409627 0.1676171835722165 0.7651963064853506
1.079107780306961 -0.4870776648259577 1.2501663910226137
0.37072714220984837 0.663497807189025 0.590262790746923
0.1495698508149394 0.021384601319694475 0.5871237306487382
0.04653505497429605 0.5009505169055498 0.7651963064853506
0.4124411136402944 -0.1537443314926244 1.2501663910226137
-0.29593952445681826 0.9968311405223582 0.590262790746923
0.48290318414827277 0.021384601319694475 0.5871237306487382
0.37986838830762937 0.5009505169055498 0.7651963064853506
0.7457744469736278 -0.1537443314926244 1.2501663910226137
0.037393808876515035 0.9968311405223582 0.590262790746923
0.8162365174816061 0.021384601319694475 0.5871237306487382
0.7132017216409627 0.5009505169055498 0.7651963064853506
1.079107780306961 -0.1537443314926244 1.2501663910226137
0.37072714220984837 0.9968311405223582 0.590262790746923
0.9194866501385303 -0.11814136309645924 -0.4228282144414171
-0.012879802904491588 0.5242295906325334 -0.4302553076572094
0.5259613782273325 0.3468416233713819 0.41670992783407956
0.0019755456920368787 0.24345931064181375 -0.33340718885516873
1.2528199834718636 -0.11814136309645924 -0.4228282144414171
0.3204535304288417 0.5242295906325334 -0.4302553076572094
0.8592947115606658 0.3468416233713819 0.41670992783407956
0.3353088790253702 0.24345931064181375 -0.33340718885516873
1.5861533168051969 -0.11814136309645924 -0.4228282144414171
0.6537868637621751 0.5242295906325334 -0.4302553076572094
1.1926280448939992 0.3468416233713819 0.41670992783407956
0.6686422123587035 0.24345931064181375 -0.33340718885516873
0.9194866501385303 0.21519197023687409 -0.4228282144414171
-0.012879802904491588 0.8575629239658668 -0.4302553076572094
0.5259613782273325 0.6801749567047152 0.41670992783407956
0.0019755456920368787 0.5767926439751471 -0.33340718885516873
1.2528199834718636 0.21519197023687409 -0.4228282144414171
0.3204535304288417 0.8575629239658668 -0.4302553076572094
0.8592947115606658 0.6801749567047152 0.41670992783407956
0.3353088790253702 0.5767926439751471 -0.33340718885516873
1.5861533168051969 0.21519197023687409 -0.4228282144414171
0.6537868637621751 0.8575629239658668 -0.4302553076572094
1.1926280448939992 0.6801749567047152 0.41670992783407956
0.6686422123587035 0.5767926439751471 -0.33340718885516873
0.9194866501385303 0.5485253035702073 -0.4228282144414171
-0.012879802904491588 1.1908962572992001 -0.4302553076572094
0.5259613782273325 1.0135082900380485 0.41670992783407956
0.0019755456920368787 0.9101259773084804 -0.33340718885516873
1.2528199834718636 0.5485253035702073 -0.4228282144414171
0.3204535304288417 1.1908962572992001 -0.4302553076572094
0.8592947115606658 1.0135082900380485 0.41670992783407956
0.3353088790253702 0.9101259773084804 -0.33340718885516873
1.5861533168051969 0.5485253035702073 -0.4228282144414171
0.6537868637621751 1.1908962572992001 -0.4302553076572094
1.1926280448939992 1.0135082900380485 0.41670992783407956
0.6686422123587035 0.9101259773084804 -0.33340718885516873
0.9194866501385303 -0.11814136309645924 -0.08949488110808379
-0.012879802904491588 0.5242295906325334 -0.09692197432387606
0.5259613782273325 0.3468416233713819 0.7500432611674128
0.0019755456920368787 0.24345931064181375 -7.385552183543827e-05
1.2528199834718636 -0.11814136309645924 -0.08949488110808379
0.3204535304288417 0.5242295906325334 -0.09692197432387606
0.8592947115606658 0.3468416233713819 0.7500432611674128
0.3353088790253702 0.24345931064181375 -7.385552183543827e-05
1.5861533168051969 -0.11814136309645924 -0.08949488110808379
0.6537868637621751 0.5242295906325334 -0.09692197432387606
1.1926280448939992 0.3468416233713819 0.7500432611674128
0.6686422123587035 0.24345931064181375 -7.385552183543827e-05
0.9194866501385303 0.21519197023687409 -0.08949488110808379
-0.012879802904491588 0.8575629239658668 -0.09692197432387606
0.5259613782273325 0.6801749567047152 0.7500432611674128
0.0019755456920368787 0.5767926439751471 -7.385552183543827e-05
1.2528199834718636 0.21519197023687409 -0.08949488110808379
0.3204535304288417 0.8575629239658668 -0.09692197432387606
0.8592947115606658 0.6801749567047152 0.7500432611674128
0.3353088790253702 0.5767926439751471 -7.385552183543827e-05
1.5861533168051969 0.21519197023687409 -0.08949488110808379
0.6537868637621751 0.8575629239658668 -0.09692197432387606
1.1926280448939992 0.6801749567047152 0.7500432611674128
0.6686422123587035 0.5767926439751471 -7.385552183543827e-05
0.9194866501385303 0.5485253035702073 -0.08949488110808379
-0.012879802904491588 1.1908962572992001 -0.09692197432387606
0.5259613782273325 1.0135082900380485 0.7500432611674128
0.0019755456920368787 0.9101259773084804 -7.385552183543827e-05
1.2528199834718636 0.5485253035702073 -0.08949488110808379
0.3204535304288417 1.1908962572992001 -0.09692197432387606
0.8592947115606658 1.0135082900380485 0.7500432611674128
0.3353088790253702 0.9101259773084804 -7.385552183543827e-05
1.5861533168051969 0.5485253035702073 -0.08949488110808379
0.6537868637621751 1.1908962572992001 -0.09692197432387606
1.1926280448939992 1.0135082900380485 0.7500432611674128
0.6686422123587035 0.9101259773084804 -7.385552183543827e-05
0.9194866501385303 -0.11814136309645924 0.24383845222524952
-0.012879802904491588 0.5242295906325334 0.23641135900945726
0.5259613782273325 0.3468416233713819 1.083376594500746
0.0019755456920368787 0.24345931064181375 0.3332594778114979
1.2528199834718636 -0.11814136309645924 0.24383845222524952
0.3204535304288417 0.5242295906325334 0.23641135900945726
0.8592947115606658 0.3468416233713819 1.083376594500746
0.3353088790253702 0.24345931064181375 0.3332594778114979
1.5861533168051969 -0.11814136309645924 0.24383845222524952
0.6537868637621751 0.5242295906325334 0.23641135900945726
1.1926280448939992 0.3468416233713819 1.083376594500746
0.6686422123587035 0.24345931064181375 0.3332594778114979
0.9194866501385303 0.21519197023687409 0.24383845222524952
-0.012879802904491588 0.8575629239658668 0.23641135900945726
0.5259613782273325 0.6801749567047152 1.083376594500746
0.0019755456920368787 0.5767926439751471 0.3332594778114979
1.2528199834718636 0.21519197023687409 0.24383845222524952
0.3204535304288417 0.8575629239658668 0.23641135900945726
0.8592947115606658 0.6801749567047152 1.083376594500746
0.3353088790253702 0.5767926439751471 0.3332594778114979
1.5861533168051969 0.21519197023687409 0.24383845222524952
0.6537868637621751 0.8575629239658668 0.23641135900945726
1.1926280448939992 0.6801749567047152 1.083376594500746
0.6686422123587035 0.5767926439751471 0.3332594778114979
0.9194866501385303 0.5485253035702073 0.24383845222524952
-0.012879802904491588 1.1908962572992001 0.23641135900945726
0.5259613782273325 1.0135082900380485 1.083376594500746
0.0019755456920368787 0.9101259773084804 0.3332594778114979
1.2528199834718636 0.5485253035702073 0.24383845222524952
0.3204535304288417 1.1908962572992001 0.23641135900945726
0.8592947115606658 1.0135082900380485 1.083376594500746
0.3353088790253702 0.9101259773084804 0.3332594778114979
1.5861533168051969 0.5485253035702073 0.24383845222524952
0.6537868637621751 1.1908962572992001 0.23641135900945726
1.1926280448939992 1.0135082900380485 1.083376594500746
0.6686422123587035 0.9101259773084804 0.3332594778114979
