FCC BaO
5.61604
3.0 0.0 0.0
0.0 3.0 0.0
0.0 0.0 3.0
Ba O 
108 108 
Direct
-0.14761597123314457 -0.009959377536482041 0.3718912633156952
-0.006989486954794848 0.07048235228732797 -0.15339496994235247
0.4044496329683321 0.2667222006506611 0.32119324846611214
0.19994023344257467 0.25140731934141125 0.0016492161897492333
0.18571736210018877 -0.009959377536482041 0.3718912633156952
0.32634384637853847 0.07048235228732797 -0.15339496994235247
0.7377829663016655 0.2667222006506611 0.32119324846611214
0.533273566775908 0.25140731934141125 0.0016492161897492333
0.5190506954335221 -0.009959377536482041 0.3718912633156952
0.6596771797118718 0.07048235228732797 -0.15339496994235247
1.0711162996349988 0.2667222006506611 0.32119324846611214
0.8666069001092414 0.25140731934141125 0.0016492161897492333
-0.14761597123314457 0.32337395579685124 0.3718912633156952
-0.006989486954794848 0.4038156856206613 -0.15339496994235247
0.4044496329683321 0.6000555339839944 0.32119324846611214
0.19994023344257467 0.5847406526747446 0.0016492161897492333
0.18571736210018877 0.32337395579685124 0.3718912633156952
0.32634384637853847 0.4038156856206613 -0.15339496994235247
0.7377829663016655 0.6000555339839944 0.32119324846611214
0.533273566775908 0.5847406526747446 0.0016492161897492333
0.5190506954335221 0.32337395579685124 0.3718912633156952
0.6596771797118718 0.4038156856206613 -0.15339496994235247
1.0711162996349988 0.6000555339839944 0.32119324846611214
0.8666069001092414 0.5847406526747446 0.0016492161897492333
-0.14761597123314457 0.6567072891301846 0.3718912633156952
-0.006989486954794848 0.7371490189539945 -0.15339496994235247
0.4044496329683321 0.9333888673173277 0.32119324846611214
0.19994023344257467 0.918073986008078 0.0016492161897492333
0.18571736210018877 0.6567072891301846 0.3718912633156952
0.32634384637853847 0.7371490189539945 -0.15339496994235247
0.7377829663016655 0.9333888673173277 0.32119324846611214
0.533273566775908 0.918073986008078 0.0016492161897492333
0.5190506954335221 0.6567072891301846 0.3718912633156952
0.6596771797118718 0.7371490189539945 -0.15339496994235247
1.0711162996349988 0.9333888673173277 0.32119324846611214
0.8666069001092414 0.918073986008078 0.0016492161897492333
-0.14761597123314457 -0.009959377536482041 0.7052245966490285
-0.006989486954794848 0.07048235228732797 0.17993836339098085
0.4044496329683321 0.2667222006506611 0.6545265817994455
0.19994023344257467 0.25140731934141125 0.33498254952308254
0.18571736210018877 -0.009959377536482041 0.7052245966490285
0.32634384637853847 0.07048235228732797 0.17993836339098085
0.7377829663016655 0.2667222006506611 0.6545265817994455
0.533273566775908 0.25140731934141125 0.33498254952308254
0.5190506954335221 -0.009959377536482041 0.7052245966490285
0.6596771797118718 0.07048235228732797 0.17993836339098085
1.0711162996349988 0.2667222006506611 0.6545265817994455
0.8666069001092414 0.25140731934141125 0.33498254952308254
-0.14761597123314457 0.32337395579685124 0.7052245966490285
-0.006989486954794848 0.4038156856206613 0.17993836339098085
0.4044496329683321 0.6000555339839944 0.6545265817994455
0.19994023344257467 0.5847406526747446 0.33498254952308254
0.18571736210018877 0.32337395579685124 0.7052245966490285
0.32634384637853847 0.4038156856206613 0.17993836339098085
0.7377829663016655 0.6000555339839944 0.6545265817994455
0.533273566775908 0.5847406526747446 0.33498254952308254
0.5190506954335221 0.32337395579685124 0.7052245966490285
0.6596771797118718 0.4038156856206613 0.17993836339098085
1.0711162996349988 0.6000555339839944 0.6545265817994455
0.8666069001092414 0.5847406526747446 0.33498254952308254
-0.14761597123314457 0.6567072891301846 0.7052245966490285
-0.006989486954794848 0.7371490189539945 0.17993836339098085
0.4044496329683321 0.9333888673173277 0.6545265817994455
0.19994023344257467 0.918073986008078 0.33498254952308254
0.18571736210018877 0.6567072891301846 0.7052245966490285
0.32634384637853847 0.7371490189539945 0.17993836339098085
0.7377829663016655 0.9333888673173277 0.6545265817994455
0.533273566775908 0.918073986008078 0.33498254952308254
0.5190506954335221 0.6567072891301846 0.7052245966490285
0.6596771797118718 0.7371490189539945 0.17993836339098085
1.0711162996349988 0.9333888673173277 0.6545265817994455
0.8666069001092414 0.918073986008078 0.33498254952308254
-0.14761597123314457 -0.009959377536482041 1.0385579299823617
-0.006989486954794848 0.07048235228732797 0.5132716967243142
0.4044496329683321 0.2667222006506611 0.9878599151327788
0.19994023344257467 0.25140731934141125 0.6683158828564159
0.18571736210018877 -0.009959377536482041 1.0385579299823617
0.32634384637853847 0.07048235228732797 0.5132716967243142
0.7377829663016655 0.2667222006506611 0.9878599151327788
0.533273566775908 0.25140731934141125 0.6683158828564159
0.5190506954335221 -0.009959377536482041 1.0385579299823617
0.6596771797118718 0.07048235228732797 0.5132716967243142
1.0711162996349988 0.2667222006506611 0.9878599151327788
0.8666069001092414 0.25140731934141125 0.6683158828564159
-0.14761597123314457 0.32337395579685124 1.0385579299823617
-0.006989486954794848 0.4038156856206613 0.5132716967243142
0.4044496329683321 0.6000555339839944 0.9878599151327788
0.19994023344257467 0.5847406526747446 0.6683158828564159
0.18571736210018877 0.32337395579685124 1.0385579299823617
0.32634384637853847 0.4038156856206613 0.5132716967243142
0.7377829663016655 0.6000555339839944 0.9878599151327788
0.533273566775908 0.5847406526747446 0.6683158828564159
0.5190506954335221 0.32337395579685124 1.0385579299823617
0.6596771797118718 0.4038156856206613 0.5132716967243142
1.0711162996349988 0.6000555339839944 0.9878599151327788
0.8666069001092414 0.5847406526747446 0.6683158828564159
-0.14761597123314457 0.6567072891301846 1.0385579299823617
-0.006989486954794848 0.7371490189539945 0.5132716967243142
0.4044496329683321 0.9333888673173277 0.9878599151327788
0.19994023344257467 0.918073986008078 0.6683158828564159
0.18571736210018877 0.6567072891301846 1.0385579299823617
0.32634384637853847 0.7371490189539945 0.5132716967243142
0.7377829663016655 0.9333888673173277 0.9878599151327788
0.533273566775908 0.918073986008078 0.6683158828564159
0.5190506954335221 0.6567072891301846 1.0385579299823617
0.6596771797118718 0.7371490189539945 0.5132716967243142
1.0711162996349988 0.9333888673173277 0.9878599151327788
0.8666069001092414 0.918073986008078 0.6683158828564159
0.526144286025347 0.6548013759374708 -0.09462297662895648
-0.30106821067437084 -0.053324290830687245 0.7173908411113894
0.01747695102298088 -0.3939183542538938 0.2664036625391266
0.11959939386312604 0.20495731470459816 0.1145576620558287
0.8594776193586804 0.6548013759374708 -0.09462297662895648
0.032265122658962454 -0.053324290830687245 0.7173908411113894
0.3508102843563142 -0.3939183542538938 0.2664036625391266
0.4529327271964594 0.20495731470459816 0.1145576620558287
1.1928109526920136 0.6548013759374708 -0.09462297662895648
0.3655984559922958 -0.053324290830687245 0.7173908411113894
0.6841436176896476 -0.3939183542538938 0.2664036625391266
0.7862660605297928 0.20495731470459816 0.1145576620558287
0.526144286025347 0.988134709270804 -0.09462297662895648
-0.30106821067437084 0.2800090425026461 0.7173908411113894
0.01747695102298088 -0.060585020920560506 0.2664036625391266
0.11959939386312604 0.5382906480379315 0.1145576620558287
0.8594776193586804 0.988134709270804 -0.09462297662895648
0.032265122658962454 0.2800090425026461 0.7173908411113894
0.3508102843563142 -0.060585020920560506 0.2664036625391266
0.4529327271964594 0.5382906480379315 0.1145576620558287
1.1928109526920136 0.988134709270804 -0.09462297662895648
0.3655984559922958 0.2800090425026461 0.7173908411113894
0.6841436176896476 -0.060585020920560506 0.2664036625391266
0.7862660605297928 0.5382906480379315 0.1145576620558287
0.526144286025347 1.3214680426041374 -0.09462297662895648
-0.30106821067437084 0.6133423758359794 0.7173908411113894
0.01747695102298088 0.2727483124127728 0.2664036625391266
0.11959939386312604 0.8716239813712648 0.1145576620558287
0.8594776193586804 1.3214680426041374 -0.09462297662895648
0.032265122658962454 0.6133423758359794 0.7173908411113894
0.3508102843563142 0.2727483124127728 0.2664036625391266
0.4529327271964594 0.8716239813712648 0.1145576620558287
1.1928109526920136 1.3214680426041374 -0.09462297662895648
0.3655984559922958 0.6133423758359794 0.7173908411113894
0.6841436176896476 0.2727483124127728 0.2664036625391266
0.7862660605297928 0.8716239813712648 0.1145576620558287
0.526144286025347 0.6548013759374708 0.23871035670437682
-0.30106821067437084 -0.053324290830687245 1.0507241744447227
0.01747695102298088 -0.3939183542538938 0.5997369958724599
0.11959939386312604 0.20495731470459816 0.447890995389162
0.8594776193586804 0.6548013759374708 0.23871035670437682
0.032265122658962454 -0.053324290830687245 1.0507241744447227
0.3508102843563142 -0.3939183542538938 0.5997369958724599
0.4529327271964594 0.20495731470459816 0.447890995389162
1.1928109526920136 0.6548013759374708 0.23871035670437682
0.3655984559922958 -0.053324290830687245 1.0507241744447227
0.6841436176896476 -0.3939183542538938 0.5997369958724599
0.7862660605297928 0.20495731470459816 0.447890995389162
0.526144286025347 0.988134709270804 0.23871035670437682
-0.30106821067437084 0.2800090425026461 1.0507241744447227
0.01747695102298088 -0.060585020920560506 0.5997369958724599
0.11959939386312604 0.5382906480379315 0.447890995389162
0.8594776193586804 0.988134709270804 0.23871035670437682
0.032265122658962454 0.2800090425026461 1.0507241744447227
0.3508102843563142 -0.060585020920560506 0.5997369958724599
0.4529327271964594 0.5382906480379315 0.447890995389162
1.1928109526920136 0.988134709270804 0.23871035670437682
0.3655984559922958 0.2800090425026461 1.0507241744447227
0.6841436176896476 -0.060585020920560506 0.5997369958724599
0.7862660605297928 0.5382906480379315 0.447890995389162
0.526144286025347 1.3214680426041374 0.23871035670437682
-0.30106821067437084 0.6133423758359794 1.0507241744447227
0.01747695102298088 0.2727483124127728 0.5997369958724599
0.11959939386312604 0.8716239813712648 0.447890995389162
0.8594776193586804 1.3214680426041374 0.23871035670437682
0.032265122658962454 0.6133423758359794 1.0507241744447227
0.3508102843563142 0.2727483124127728 0.5997369958724599
0.4529327271964594 0.8716239813712648 0.447890995389162
1.1928109526920136 1.3214680426041374 0.23871035670437682
0.3655984559922958 0.6133423758359794 1.0507241744447227
0.6841436176896476 0.2727483124127728 0.5997369958724599
0.7862660605297928 0.8716239813712648 0.447890995389162
0.526144286025347 0.6548013759374708 0.5720436900377102
-0.30106821067437084 -0.053324290830687245 1.384057507778056
0.01747695102298088 -0.3939183542538938 0.9330703292057932
0.11959939386312604 0.20495731470459816 0.7812243287224954
0.8594776193586804 0.6548013759374708 0.5720436900377102
0.032265122658962454 -0.053324290830687245 1.384057507778056
0.3508102843563142 -0.3939183542538938 0.9330703292057932
0.4529327271964594 0.20495731470459816 0.7812243287224954
1.1928109526920136 0.6548013759374708 0.5720436900377102
0.3655984559922958 -0.053324290830687245 1.384057507778056
0.6841436176896476 -0.3939183542538938 0.9330703292057932
0.7862660605297928 0.20495731470459816 0.7812243287224954
0.526144286025347 0.988134709270804 0.5720436900377102
-0.30106821067437084 0.2800090425026461 1.384057507778056
0.01747695102298088 -0.060585020920560506 0.9330703292057932
0.11959939386312604 0.5382906480379315 0.7812243287224954
0.8594776193586804 0.988134709270804 0.5720436900377102
0.032265122658962454 0.2800090425026461 1.384057507778056
0.3508102843563142 -0.060585020920560506 0.9330703292057932
0.4529327271964594 0.5382906480379315 0.7812243287224954
1.1928109526920136 0.988134709270804 0.5720436900377102
0.3655984559922958 0.2800090425026461 1.384057507778056
0.6841436176896476 -0.060585020920560506 0.9330703292057932
0.7862660605297928 0.5382906480379315 0.7812243287224954
0.526144286025347 1.3214680426041374 0.5720436900377102
-0.30106821067437084 0.6133423758359794 1.384057507778056
0.01747695102298088 0.2727483124127728 0.9330703292057932
0.11959939386312604 0.8716239813712648 0.7812243287224954
0.8594776193586804 1.3214680426041374 0.5720436900377102
0.032265122658962454 0.6133423758359794 1.384057507778056
0.3508102843563142 0.2727483124127728 0.9330703292057932
0.4529327271964594 0.8716239813712648 0.7812243287224954
1.1928109526920136 1.3214680426041374 0.5720436900377102
0.3655984559922958 0.6133423758359794 1.384057507778056
0.6841436176896476 0.2727483124127728 0.9330703292057932
0.7862660605297928 0.8716239813712648 0.7812243287224954
