FCC BaO
3.971
5.0 0.0 0.0
0.0 5.0 0.0
0.0 0.0 5.0
Ba O 
500 500 
Direct
0.0062777701925868365 -0.014306184420195048 0.007482739924326361
-0.023130153372956833 0.11702229997168659 0.08687811768301106
0.08766775483425554 -0.003980387234075387 0.09337324069772542
0.09199514855968088 0.10351929506353251 -0.009391849913179897
0.20627777019258683 -0.014306184420195048 0.007482739924326361
0.1768698466270432 0.11702229997168659 0.08687811768301106
0.28766775483425555 -0.003980387234075387 0.09337324069772542
0.2919951485596809 0.10351929506353251 -0.009391849913179897
0.4062777701925868 -0.014306184420195048 0.007482739924326361
0.3768698466270432 0.11702229997168659 0.08687811768301106
0.48766775483425556 -0.003980387234075387 0.09337324069772542
0.49199514855968085 0.10351929506353251 -0.009391849913179897
0.6062777701925869 -0.014306184420195048 0.007482739924326361
0.5768698466270432 0.11702229997168659 0.08687811768301106
0.6876677548342556 -0.003980387234075387 0.09337324069772542
0.6919951485596809 0.10351929506353251 -0.009391849913179897
0.806277770192587 -0.014306184420195048 0.007482739924326361
0.7768698466270432 0.11702229997168659 0.08687811768301106
0.8876677548342556 -0.003980387234075387 0.09337324069772542
0.8919951485596809 0.10351929506353251 -0.009391849913179897
0.0062777701925868365 0.18569381557980497 0.007482739924326361
-0.023130153372956833 0.31702229997168657 0.08687811768301106
0.08766775483425554 0.1960196127659246 0.09337324069772542
0.09199514855968088 0.30351929506353253 -0.009391849913179897
0.20627777019258683 0.18569381557980497 0.007482739924326361
0.1768698466270432 0.31702229997168657 0.08687811768301106
0.28766775483425555 0.1960196127659246 0.09337324069772542
0.2919951485596809 0.30351929506353253 -0.009391849913179897
0.4062777701925868 0.18569381557980497 0.007482739924326361
0.3768698466270432 0.31702229997168657 0.08687811768301106
0.48766775483425556 0.1960196127659246 0.09337324069772542
0.49199514855968085 0.30351929506353253 -0.009391849913179897
0.6062777701925869 0.18569381557980497 0.007482739924326361
0.5768698466270432 0.31702229997168657 0.08687811768301106
0.6876677548342556 0.1960196127659246 0.09337324069772542
0.6919951485596809 0.30351929506353253 -0.009391849913179897
0.806277770192587 0.18569381557980497 0.007482739924326361
0.7768698466270432 0.31702229997168657 0.08687811768301106
0.8876677548342556 0.1960196127659246 0.09337324069772542
0.8919951485596809 0.30351929506353253 -0.009391849913179897
0.0062777701925868365 0.385693815579805 0.007482739924326361
-0.023130153372956833 0.5170222999716866 0.08687811768301106
0.08766775483425554 0.3960196127659246 0.09337324069772542
0.09199514855968088 0.5035192950635325 -0.009391849913179897
0.20627777019258683 0.385693815579805 0.007482739924326361
0.1768698466270432 0.5170222999716866 0.08687811768301106
0.28766775483425555 0.3960196127659246 0.09337324069772542
0.2919951485596809 0.5035192950635325 -0.009391849913179897
0.4062777701925868 0.385693815579805 0.007482739924326361
0.3768698466270432 0.5170222999716866 0.08687811768301106
0.48766775483425556 0.3960196127659246 0.09337324069772542
0.49199514855968085 0.5035192950635325 -0.009391849913179897
0.6062777701925869 0.385693815579805 0.007482739924326361
0.5768698466270432 0.5170222999716866 0.08687811768301106
0.6876677548342556 0.3960196127659246 0.09337324069772542
0.6919951485596809 0.5035192950635325 -0.009391849913179897
0.806277770192587 0.385693815579805 0.007482739924326361
0.7768698466270432 0.5170222999716866 0.08687811768301106
0.8876677548342556 0.3960196127659246 0.09337324069772542
0.8919951485596809 0.5035192950635325 -0.009391849913179897
0.0062777701925868365 0.5856938155798049 0.007482739924326361
-0.023130153372956833 0.7170222999716866 0.08687811768301106
0.08766775483425554 0.5960196127659246 0.09337324069772542
0.09199514855968088 0.7035192950635326 -0.009391849913179897
0.20627777019258683 0.5856938155798049 0.007482739924326361
0.1768698466270432 0.7170222999716866 0.08687811768301106
0.28766775483425555 0.5960196127659246 0.09337324069772542
0.2919951485596809 0.7035192950635326 -0.009391849913179897
0.4062777701925868 0.5856938155798049 0.007482739924326361
0.3768698466270432 0.7170222999716866 0.08687811768301106
0.48766775483425556 0.5960196127659246 0.09337324069772542
0.49199514855968085 0.7035192950635326 -0.009391849913179897
0.6062777701925869 0.5856938155798049 0.007482739924326361
0.5768698466270432 0.7170222999716866 0.08687811768301106
0.6876677548342556 0.5960196127659246 0.09337324069772542
0.6919951485596809 0.7035192950635326 -0.009391849913179897
0.806277770192587 0.5856938155798049 0.007482739924326361
0.7768698466270432 0.7170222999716866 0.08687811768301106
0.8876677548342556 0.5960196127659246 0.09337324069772542
0.8919951485596809 0.7035192950635326 -0.009391849913179897
0.0062777701925868365 0.785693815579805 0.007482739924326361
-0.023130153372956833 0.9170222999716867 0.08687811768301106
0.08766775483425554 0.7960196127659247 0.09337324069772542
0.09199514855968088 0.9035192950635326 -0.009391849913179897
0.20627777019258683 0.785693815579805 0.007482739924326361
0.1768698466270432 0.9170222999716867 0.08687811768301106
0.28766775483425555 0.7960196127659247 0.09337324069772542
0.2919951485596809 0.9035192950635326 -0.009391849913179897
0.4062777701925868 0.785693815579805 0.007482739924326361
0.3768698466270432 0.9170222999716867 0.08687811768301106
0.48766775483425556 0.7960196127659247 0.09337324069772542
0.49199514855968085 0.9035192950635326 -0.009391849913179897
0.6062777701925869 0.785693815579805 0.007482739924326361
0.5768698466270432 0.9170222999716867 0.08687811768301106
0.6876677548342556 0.7960196127659247 0.09337324069772542
0.6919951485596809 0.9035192950635326 -0.009391849913179897
0.806277770192587 0.785693815579805 0.007482739924326361
0.7768698466270432 0.9170222999716867 0.08687811768301106
0.8876677548342556 0.7960196127659247 0.09337324069772542
0.8919951485596809 0.9035192950635326 -0.009391849913179897
0.0062777701925868365 -0.014306184420195048 0.2074827399243264
-0.023130153372956833 0.11702229997168659 0.286878117683011
0.08766775483425554 -0.003980387234075387 0.2933732406977254
0.09199514855968088 0.10351929506353251 0.1906081500868201
0.20627777019258683 -0.014306184420195048 0.2074827399243264
0.1768698466270432 0.11702229997168659 0.286878117683011
0.28766775483425555 -0.003980387234075387 0.2933732406977254
0.2919951485596809 0.10351929506353251 0.1906081500868201
0.4062777701925868 -0.014306184420195048 0.2074827399243264
0.3768698466270432 0.11702229997168659 0.286878117683011
0.48766775483425556 -0.003980387234075387 0.2933732406977254
0.49199514855968085 0.10351929506353251 0.1906081500868201
0.6062777701925869 -0.014306184420195048 0.2074827399243264
0.5768698466270432 0.11702229997168659 0.286878117683011
0.6876677548342556 -0.003980387234075387 0.2933732406977254
0.6919951485596809 0.10351929506353251 0.1906081500868201
0.806277770192587 -0.014306184420195048 0.2074827399243264
0.7768698466270432 0.11702229997168659 0.286878117683011
0.8876677548342556 -0.003980387234075387 0.2933732406977254
0.8919951485596809 0.10351929506353251 0.1906081500868201
0.0062777701925868365 0.18569381557980497 0.2074827399243264
-0.023130153372956833 0.31702229997168657 0.286878117683011
0.08766775483425554 0.1960196127659246 0.2933732406977254
0.09199514855968088 0.30351929506353253 0.1906081500868201
0.20627777019258683 0.18569381557980497 0.2074827399243264
0.1768698466270432 0.31702229997168657 0.286878117683011
0.28766775483425555 0.1960196127659246 0.2933732406977254
0.2919951485596809 0.30351929506353253 0.1906081500868201
0.4062777701925868 0.18569381557980497 0.2074827399243264
0.3768698466270432 0.31702229997168657 0.286878117683011
0.48766775483425556 0.1960196127659246 0.2933732406977254
0.49199514855968085 0.30351929506353253 0.1906081500868201
0.6062777701925869 0.18569381557980497 0.2074827399243264
0.5768698466270432 0.31702229997168657 0.286878117683011
0.6876677548342556 0.1960196127659246 0.2933732406977254
0.6919951485596809 0.30351929506353253 0.1906081500868201
0.806277770192587 0.18569381557980497 0.2074827399243264
0.7768698466270432 0.31702229997168657 0.286878117683011
0.8876677548342556 0.1960196127659246 0.2933732406977254
0.8919951485596809 0.30351929506353253 0.1906081500868201
0.0062777701925868365 0.385693815579805 0.2074827399243264
-0.023130153372956833 0.5170222999716866 0.286878117683011
0.08766775483425554 0.3960196127659246 0.2933732406977254
0.09199514855968088 0.5035192950635325 0.1906081500868201
0.20627777019258683 0.385693815579805 0.2074827399243264
0.1768698466270432 0.5170222999716866 0.286878117683011
0.28766775483425555 0.3960196127659246 0.2933732406977254
0.2919951485596809 0.5035192950635325 0.1906081500868201
0.4062777701925868 0.385693815579805 0.2074827399243264
0.3768698466270432 0.5170222999716866 0.286878117683011
0.48766775483425556 0.3960196127659246 0.2933732406977254
0.49199514855968085 0.5035192950635325 0.1906081500868201
0.6062777701925869 0.385693815579805 0.2074827399243264
0.5768698466270432 0.5170222999716866 0.286878117683011
0.6876677548342556 0.3960196127659246 0.2933732406977254
0.6919951485596809 0.5035192950635325 0.1906081500868201
0.806277770192587 0.385693815579805 0.2074827399243264
0.7768698466270432 0.5170222999716866 0.286878117683011
0.8876677548342556 0.3960196127659246 0.2933732406977254
0.8919951485596809 0.5035192950635325 0.1906081500868201
0.0062777701925868365 0.5856938155798049 0.2074827399243264
-0.023130153372956833 0.7170222999716866 0.286878117683011
0.08766775483425554 0.5960196127659246 0.2933732406977254
0.09199514855968088 0.7035192950635326 0.1906081500868201
0.20627777019258683 0.5856938155798049 0.2074827399243264
0.1768698466270432 0.7170222999716866 0.286878117683011
0.28766775483425555 0.5960196127659246 0.2933732406977254
0.2919951485596809 0.7035192950635326 0.1906081500868201
0.4062777701925868 0.5856938155798049 0.2074827399243264
0.3768698466270432 0.7170222999716866 0.286878117683011
0.48766775483425556 0.5960196127659246 0.2933732406977254
0.49199514855968085 0.7035192950635326 0.1906081500868201
0.6062777701925869 0.5856938155798049 0.2074827399243264
0.5768698466270432 0.7170222999716866 0.286878117683011
0.6876677548342556 0.5960196127659246 0.2933732406977254
0.6919951485596809 0.7035192950635326 0.1906081500868201
0.806277770192587 0.5856938155798049 0.2074827399243264
0.7768698466270432 0.7170222999716866 0.286878117683011
0.8876677548342556 0.5960196127659246 0.2933732406977254
0.8919951485596809 0.7035192950635326 0.1906081500868201
0.0062777701925868365 0.785693815579805 0.2074827399243264
-0.023130153372956833 0.9170222999716867 0.286878117683011
0.08766775483425554 0.7960196127659247 0.2933732406977254
0.09199514855968088 0.9035192950635326 0.1906081500868201
0.20627777019258683 0.785693815579805 0.2074827399243264
0.1768698466270432 0.9170222999716867 0.286878117683011
0.28766775483425555 0.7960196127659247 0.2933732406977254
0.2919951485596809 0.9035192950635326 0.1906081500868201
0.4062777701925868 0.785693815579805 0.2074827399243264
0.3768698466270432 0.9170222999716867 0.286878117683011
0.48766775483425556 0.7960196127659247 0.2933732406977254
0.49199514855968085 0.9035192950635326 0.1906081500868201
0.6062777701925869 0.785693815579805 0.2074827399243264
0.5768698466270432 0.9170222999716867 0.286878117683011
0.6876677548342556 0.7960196127659247 0.2933732406977254
0.6919951485596809 0.9035192950635326 0.1906081500868201
0.806277770192587 0.785693815579805 0.2074827399243264
0.7768698466270432 0.9170222999716867 0.286878117683011
0.8876677548342556 0.7960196127659247 0.2933732406977254
0.8919951485596809 0.9035192950635326 0.1906081500868201
0.0062777701925868365 -0.014306184420195048 0.4074827399243264
-0.023130153372956833 0.11702229997168659 0.4868781176830111
0.08766775483425554 -0.003980387234075387 0.4933732406977255
0.09199514855968088 0.10351929506353251 0.39060815008682015
0.20627777019258683 -0.014306184420195048 0.4074827399243264
0.1768698466270432 0.11702229997168659 0.4868781176830111
0.28766775483425555 -0.003980387234075387 0.4933732406977255
0.2919951485596809 0.10351929506353251 0.39060815008682015
0.4062777701925868 -0.014306184420195048 0.4074827399243264
0.3768698466270432 0.11702229997168659 0.4868781176830111
0.48766775483425556 -0.003980387234075387 0.4933732406977255
0.49199514855968085 0.10351929506353251 0.39060815008682015
0.6062777701925869 -0.014306184420195048 0.4074827399243264
0.5768698466270432 0.11702229997168659 0.4868781176830111
0.6876677548342556 -0.003980387234075387 0.4933732406977255
0.6919951485596809 0.10351929506353251 0.39060815008682015
0.806277770192587 -0.014306184420195048 0.4074827399243264
0.7768698466270432 0.11702229997168659 0.4868781176830111
0.8876677548342556 -0.003980387234075387 0.4933732406977255
0.8919951485596809 0.10351929506353251 0.39060815008682015
0.0062777701925868365 0.18569381557980497 0.4074827399243264
-0.023130153372956833 0.31702229997168657 0.4868781176830111
0.08766775483425554 0.1960196127659246 0.4933732406977255
0.09199514855968088 0.30351929506353253 0.39060815008682015
0.20627777019258683 0.18569381557980497 0.4074827399243264
0.1768698466270432 0.31702229997168657 0.4868781176830111
0.28766775483425555 0.1960196127659246 0.4933732406977255
0.2919951485596809 0.30351929506353253 0.39060815008682015
0.4062777701925868 0.18569381557980497 0.4074827399243264
0.3768698466270432 0.31702229997168657 0.4868781176830111
0.48766775483425556 0.1960196127659246 0.4933732406977255
0.49199514855968085 0.30351929506353253 0.39060815008682015
0.6062777701925869 0.18569381557980497 0.4074827399243264
0.5768698466270432 0.31702229997168657 0.4868781176830111
0.6876677548342556 0.1960196127659246 0.4933732406977255
0.6919951485596809 0.30351929506353253 0.39060815008682015
0.806277770192587 0.18569381557980497 0.4074827399243264
0.7768698466270432 0.31702229997168657 0.4868781176830111
0.8876677548342556 0.1960196127659246 0.4933732406977255
0.8919951485596809 0.30351929506353253 0.39060815008682015
0.0062777701925868365 0.385693815579805 0.4074827399243264
-0.023130153372956833 0.5170222999716866 0.4868781176830111
0.08766775483425554 0.3960196127659246 0.4933732406977255
0.09199514855968088 0.5035192950635325 0.39060815008682015
0.20627777019258683 0.385693815579805 0.4074827399243264
0.1768698466270432 0.5170222999716866 0.4868781176830111
0.28766775483425555 0.3960196127659246 0.4933732406977255
0.2919951485596809 0.5035192950635325 0.39060815008682015
0.4062777701925868 0.385693815579805 0.4074827399243264
0.3768698466270432 0.5170222999716866 0.4868781176830111
0.48766775483425556 0.3960196127659246 0.4933732406977255
0.49199514855968085 0.5035192950635325 0.39060815008682015
0.6062777701925869 0.385693815579805 0.4074827399243264
0.5768698466270432 0.5170222999716866 0.4868781176830111
0.6876677548342556 0.3960196127659246 0.4933732406977255
0.6919951485596809 0.5035192950635325 0.39060815008682015
0.806277770192587 0.385693815579805 0.4074827399243264
0.7768698466270432 0.5170222999716866 0.4868781176830111
0.8876677548342556 0.3960196127659246 0.4933732406977255
0.8919951485596809 0.5035192950635325 0.39060815008682015
0.0062777701925868365 0.5856938155798049 0.4074827399243264
-0.023130153372956833 0.7170222999716866 0.4868781176830111
0.08766775483425554 0.5960196127659246 0.4933732406977255
0.09199514855968088 0.7035192950635326 0.39060815008682015
0.20627777019258683 0.5856938155798049 0.4074827399243264
0.1768698466270432 0.7170222999716866 0.4868781176830111
0.28766775483425555 0.5960196127659246 0.4933732406977255
0.2919951485596809 0.7035192950635326 0.39060815008682015
0.4062777701925868 0.5856938155798049 0.4074827399243264
0.3768698466270432 0.7170222999716866 0.4868781176830111
0.48766775483425556 0.5960196127659246 0.4933732406977255
0.49199514855968085 0.7035192950635326 0.39060815008682015
0.6062777701925869 0.5856938155798049 0.4074827399243264
0.5768698466270432 0.7170222999716866 0.4868781176830111
0.6876677548342556 0.5960196127659246 0.4933732406977255
0.6919951485596809 0.7035192950635326 0.39060815008682015
0.806277770192587 0.5856938155798049 0.4074827399243264
0.7768698466270432 0.7170222999716866 0.4868781176830111
0.8876677548342556 0.5960196127659246 0.4933732406977255
0.8919951485596809 0.7035192950635326 0.39060815008682015
0.0062777701925868365 0.785693815579805 0.4074827399243264
-0.023130153372956833 0.9170222999716867 0.4868781176830111
0.08766775483425554 0.7960196127659247 0.4933732406977255
0.09199514855968088 0.9035192950635326 0.39060815008682015
0.20627777019258683 0.785693815579805 0.4074827399243264
0.1768698466270432 0.9170222999716867 0.4868781176830111
0.28766775483425555 0.7960196127659247 0.4933732406977255
0.2919951485596809 0.9035192950635326 0.39060815008682015
0.4062777701925868 0.785693815579805 0.4074827399243264
0.3768698466270432 0.9170222999716867 0.4868781176830111
0.48766775483425556 0.7960196127659247 0.4933732406977255
0.49199514855968085 0.9035192950635326 0.39060815008682015
0.6062777701925869 0.785693815579805 0.4074827399243264
0.5768698466270432 0.9170222999716867 0.4868781176830111
0.6876677548342556 0.7960196127659247 0.4933732406977255
0.6919951485596809 0.9035192950635326 0.39060815008682015
0.806277770192587 0.785693815579805 0.4074827399243264
0.7768698466270432 0.9170222999716867 0.4868781176830111
0.8876677548342556 0.7960196127659247 0.4933732406977255
0.8919951485596809 0.9035192950635326 0.39060815008682015
0.0062777701925868365 -0.014306184420195048 0.6074827399243263
-0.023130153372956833 0.11702229997168659 0.6868781176830111
0.08766775483425554 -0.003980387234075387 0.6933732406977255
0.09199514855968088 0.10351929506353251 0.5906081500868201
0.20627777019258683 -0.014306184420195048 0.6074827399243263
0.1768698466270432 0.11702229997168659 0.6868781176830111
0.28766775483425555 -0.003980387234075387 0.6933732406977255
0.2919951485596809 0.10351929506353251 0.5906081500868201
0.4062777701925868 -0.014306184420195048 0.6074827399243263
0.3768698466270432 0.11702229997168659 0.6868781176830111
0.48766775483425556 -0.003980387234075387 0.6933732406977255
0.49199514855968085 0.10351929506353251 0.5906081500868201
0.6062777701925869 -0.014306184420195048 0.6074827399243263
0.5768698466270432 0.11702229997168659 0.6868781176830111
0.6876677548342556 -0.003980387234075387 0.6933732406977255
0.6919951485596809 0.10351929506353251 0.5906081500868201
0.806277770192587 -0.014306184420195048 0.6074827399243263
0.7768698466270432 0.11702229997168659 0.6868781176830111
0.8876677548342556 -0.003980387234075387 0.6933732406977255
0.8919951485596809 0.10351929506353251 0.5906081500868201
0.0062777701925868365 0.18569381557980497 0.6074827399243263
-0.023130153372956833 0.31702229997168657 0.6868781176830111
0.08766775483425554 0.1960196127659246 0.6933732406977255
0.09199514855968088 0.30351929506353253 0.5906081500868201
0.20627777019258683 0.18569381557980497 0.6074827399243263
0.1768698466270432 0.31702229997168657 0.6868781176830111
0.28766775483425555 0.1960196127659246 0.6933732406977255
0.2919951485596809 0.30351929506353253 0.5906081500868201
0.4062777701925868 0.18569381557980497 0.6074827399243263
0.3768698466270432 0.31702229997168657 0.6868781176830111
0.48766775483425556 0.1960196127659246 0.6933732406977255
0.49199514855968085 0.30351929506353253 0.5906081500868201
0.6062777701925869 0.18569381557980497 0.6074827399243263
0.5768698466270432 0.31702229997168657 0.6868781176830111
0.6876677548342556 0.1960196127659246 0.6933732406977255
0.6919951485596809 0.30351929506353253 0.5906081500868201
0.806277770192587 0.18569381557980497 0.6074827399243263
0.7768698466270432 0.31702229997168657 0.6868781176830111
0.8876677548342556 0.1960196127659246 0.6933732406977255
0.8919951485596809 0.30351929506353253 0.5906081500868201
0.0062777701925868365 0.385693815579805 0.6074827399243263
-0.023130153372956833 0.5170222999716866 0.6868781176830111
0.08766775483425554 0.3960196127659246 0.6933732406977255
0.09199514855968088 0.5035192950635325 0.5906081500868201
0.20627777019258683 0.385693815579805 0.6074827399243263
0.1768698466270432 0.5170222999716866 0.6868781176830111
0.28766775483425555 0.3960196127659246 0.6933732406977255
0.2919951485596809 0.5035192950635325 0.5906081500868201
0.4062777701925868 0.385693815579805 0.6074827399243263
0.3768698466270432 0.5170222999716866 0.6868781176830111
0.48766775483425556 0.3960196127659246 0.6933732406977255
0.49199514855968085 0.5035192950635325 0.5906081500868201
0.6062777701925869 0.385693815579805 0.6074827399243263
0.5768698466270432 0.5170222999716866 0.6868781176830111
0.6876677548342556 0.3960196127659246 0.6933732406977255
0.6919951485596809 0.5035192950635325 0.5906081500868201
0.806277770192587 0.385693815579805 0.6074827399243263
0.7768698466270432 0.5170222999716866 0.6868781176830111
0.8876677548342556 0.3960196127659246 0.6933732406977255
0.8919951485596809 0.5035192950635325 0.5906081500868201
0.0062777701925868365 0.5856938155798049 0.6074827399243263
-0.023130153372956833 0.7170222999716866 0.6868781176830111
0.08766775483425554 0.5960196127659246 0.6933732406977255
0.09199514855968088 0.7035192950635326 0.5906081500868201
0.20627777019258683 0.5856938155798049 0.6074827399243263
0.1768698466270432 0.7170222999716866 0.6868781176830111
0.28766775483425555 0.5960196127659246 0.6933732406977255
0.2919951485596809 0.7035192950635326 0.5906081500868201
0.4062777701925868 0.5856938155798049 0.6074827399243263
0.3768698466270432 0.7170222999716866 0.6868781176830111
0.48766775483425556 0.5960196127659246 0.6933732406977255
0.49199514855968085 0.7035192950635326 0.5906081500868201
0.6062777701925869 0.5856938155798049 0.6074827399243263
0.5768698466270432 0.7170222999716866 0.6868781176830111
0.6876677548342556 0.5960196127659246 0.6933732406977255
0.6919951485596809 0.7035192950635326 0.5906081500868201
0.806277770192587 0.5856938155798049 0.6074827399243263
0.7768698466270432 0.7170222999716866 0.6868781176830111
0.8876677548342556 0.5960196127659246 0.6933732406977255
0.8919951485596809 0.7035192950635326 0.5906081500868201
0.0062777701925868365 0.785693815579805 0.6074827399243263
-0.023130153372956833 0.9170222999716867 0.6868781176830111
0.08766775483425554 0.7960196127659247 0.6933732406977255
0.09199514855968088 0.9035192950635326 0.5906081500868201
0.20627777019258683 0.785693815579805 0.6074827399243263
0.1768698466270432 0.9170222999716867 0.6868781176830111
0.28766775483425555 0.7960196127659247 0.6933732406977255
0.2919951485596809 0.9035192950635326 0.5906081500868201
0.4062777701925868 0.785693815579805 0.6074827399243263
0.3768698466270432 0.9170222999716867 0.6868781176830111
0.48766775483425556 0.7960196127659247 0.6933732406977255
0.49199514855968085 0.9035192950635326 0.5906081500868201
0.6062777701925869 0.785693815579805 0.6074827399243263
0.5768698466270432 0.9170222999716867 0.6868781176830111
0.6876677548342556 0.7960196127659247 0.6933732406977255
0.6919951485596809 0.9035192950635326 0.5906081500868201
0.806277770192587 0.785693815579805 0.6074827399243263
0.7768698466270432 0.9170222999716867 0.6868781176830111
0.8876677548342556 0.7960196127659247 0.6933732406977255
0.8919951485596809 0.9035192950635326 0.5906081500868201
0.0062777701925868365 -0.014306184420195048 0.8074827399243264
-0.023130153372956833 0.11702229997168659 0.8868781176830111
0.08766775483425554 -0.003980387234075387 0.8933732406977255
0.09199514855968088 0.10351929506353251 0.7906081500868201
0.20627777019258683 -0.014306184420195048 0.8074827399243264
0.1768698466270432 0.11702229997168659 0.8868781176830111
0.28766775483425555 -0.003980387234075387 0.8933732406977255
0.2919951485596809 0.10351929506353251 0.7906081500868201
0.4062777701925868 -0.014306184420195048 0.8074827399243264
0.3768698466270432 0.11702229997168659 0.8868781176830111
0.48766775483425556 -0.003980387234075387 0.8933732406977255
0.49199514855968085 0.10351929506353251 0.7906081500868201
0.6062777701925869 -0.014306184420195048 0.8074827399243264
0.5768698466270432 0.11702229997168659 0.8868781176830111
0.6876677548342556 -0.003980387234075387 0.8933732406977255
0.6919951485596809 0.10351929506353251 0.7906081500868201
0.806277770192587 -0.014306184420195048 0.8074827399243264
0.7768698466270432 0.11702229997168659 0.8868781176830111
0.8876677548342556 -0.003980387234075387 0.8933732406977255
0.8919951485596809 0.10351929506353251 0.7906081500868201
0.0062777701925868365 0.18569381557980497 0.8074827399243264
-0.023130153372956833 0.31702229997168657 0.8868781176830111
0.08766775483425554 0.1960196127659246 0.8933732406977255
0.09199514855968088 0.30351929506353253 0.7906081500868201
0.20627777019258683 0.18569381557980497 0.8074827399243264
0.1768698466270432 0.31702229997168657 0.8868781176830111
0.28766775483425555 0.1960196127659246 0.8933732406977255
0.2919951485596809 0.30351929506353253 0.7906081500868201
0.4062777701925868 0.18569381557980497 0.8074827399243264
0.3768698466270432 0.31702229997168657 0.8868781176830111
0.48766775483425556 0.1960196127659246 0.8933732406977255
0.49199514855968085 0.30351929506353253 0.7906081500868201
0.6062777701925869 0.18569381557980497 0.8074827399243264
0.5768698466270432 0.31702229997168657 0.8868781176830111
0.6876677548342556 0.1960196127659246 0.8933732406977255
0.6919951485596809 0.30351929506353253 0.7906081500868201
0.806277770192587 0.18569381557980497 0.8074827399243264
0.7768698466270432 0.31702229997168657 0.8868781176830111
0.8876677548342556 0.1960196127659246 0.8933732406977255
0.8919951485596809 0.30351929506353253 0.7906081500868201
0.0062777701925868365 0.385693815579805 0.8074827399243264
-0.023130153372956833 0.5170222999716866 0.8868781176830111
0.08766775483425554 0.3960196127659246 0.8933732406977255
0.09199514855968088 0.5035192950635325 0.7906081500868201
0.20627777019258683 0.385693815579805 0.8074827399243264
0.1768698466270432 0.5170222999716866 0.8868781176830111
0.28766775483425555 0.3960196127659246 0.8933732406977255
0.2919951485596809 0.5035192950635325 0.7906081500868201
0.4062777701925868 0.385693815579805 0.8074827399243264
0.3768698466270432 0.5170222999716866 0.8868781176830111
0.48766775483425556 0.3960196127659246 0.8933732406977255
0.49199514855968085 0.5035192950635325 0.7906081500868201
0.6062777701925869 0.385693815579805 0.8074827399243264
0.5768698466270432 0.5170222999716866 0.8868781176830111
0.6876677548342556 0.3960196127659246 0.8933732406977255
0.6919951485596809 0.5035192950635325 0.7906081500868201
0.806277770192587 0.385693815579805 0.8074827399243264
0.7768698466270432 0.5170222999716866 0.8868781176830111
0.8876677548342556 0.3960196127659246 0.8933732406977255
0.8919951485596809 0.5035192950635325 0.7906081500868201
0.0062777701925868365 0.5856938155798049 0.8074827399243264
-0.023130153372956833 0.7170222999716866 0.8868781176830111
0.08766775483425554 0.5960196127659246 0.8933732406977255
0.09199514855968088 0.7035192950635326 0.7906081500868201
0.20627777019258683 0.5856938155798049 0.8074827399243264
0.1768698466270432 0.7170222999716866 0.8868781176830111
0.28766775483425555 0.5960196127659246 0.8933732406977255
0.2919951485596809 0.7035192950635326 0.7906081500868201
0.4062777701925868 0.5856938155798049 0.8074827399243264
0.3768698466270432 0.7170222999716866 0.8868781176830111
0.48766775483425556 0.5960196127659246 0.8933732406977255
0.49199514855968085 0.7035192950635326 0.7906081500868201
0.6062777701925869 0.5856938155798049 0.8074827399243264
0.5768698466270432 0.7170222999716866 0.8868781176830111
0.6876677548342556 0.5960196127659246 0.8933732406977255
0.6919951485596809 0.7035192950635326 0.7906081500868201
0.806277770192587 0.5856938155798049 0.8074827399243264
0.7768698466270432 0.7170222999716866 0.8868781176830111
0.8876677548342556 0.5960196127659246 0.8933732406977255
0.8919951485596809 0.7035192950635326 0.7906081500868201
0.0062777701925868365 0.785693815579805 0.8074827399243264
-0.023130153372956833 0.9170222999716867 0.8868781176830111
0.08766775483425554 0.7960196127659247 0.8933732406977255
0.09199514855968088 0.9035192950635326 0.7906081500868201
0.20627777019258683 0.785693815579805 0.8074827399243264
0.1768698466270432 0.9170222999716867 0.8868781176830111
0.28766775483425555 0.7960196127659247 0.8933732406977255
0.2919951485596809 0.9035192950635326 0.7906081500868201
0.4062777701925868 0.785693815579805 0.8074827399243264
0.3768698466270432 0.9170222999716867 0.8868781176830111
0.48766775483425556 0.7960196127659247 0.8933732406977255
0.49199514855968085 0.9035192950635326 0.7906081500868201
0.6062777701925869 0.785693815579805 0.8074827399243264
0.5768698466270432 0.9170222999716867 0.8868781176830111
0.6876677548342556 0.7960196127659247 0.8933732406977255
0.6919951485596809 0.9035192950635326 0.7906081500868201
0.806277770192587 0.785693815579805 0.8074827399243264
0.7768698466270432 0.9170222999716867 0.8868781176830111
0.8876677548342556 0.7960196127659247 0.8933732406977255
0.8919951485596809 0.9035192950635326 0.7906081500868201
0.09426551455588096 -0.004131117939012777 -0.01630306232427364
-0.002081177979104515 0.11386041141194314 -0.008889820656350583
0.014452977435728523 0.005146429385272001 0.12411604717464804
0.07267686813789342 0.07563287266599608 0.08444156958655386
0.29426551455588096 -0.004131117939012777 -0.01630306232427364
0.1979188220208955 0.11386041141194314 -0.008889820656350583
0.21445297743572855 0.005146429385272001 0.12411604717464804
0.27267686813789344 0.07563287266599608 0.08444156958655386
0.49426551455588097 -0.004131117939012777 -0.01630306232427364
0.3979188220208955 0.11386041141194314 -0.008889820656350583
0.41445297743572856 0.005146429385272001 0.12411604717464804
0.47267686813789345 0.07563287266599608 0.08444156958655386
0.694265514555881 -0.004131117939012777 -0.01630306232427364
0.5979188220208955 0.11386041141194314 -0.008889820656350583
0.6144529774357286 0.005146429385272001 0.12411604717464804
0.6726768681378935 0.07563287266599608 0.08444156958655386
0.894265514555881 -0.004131117939012777 -0.01630306232427364
0.7979188220208955 0.11386041141194314 -0.008889820656350583
0.8144529774357285 0.005146429385272001 0.12411604717464804
0.8726768681378934 0.07563287266599608 0.08444156958655386
0.09426551455588096 0.19586888206098724 -0.01630306232427364
-0.002081177979104515 0.31386041141194315 -0.008889820656350583
0.014452977435728523 0.20514642938527203 0.12411604717464804
0.07267686813789342 0.27563287266599606 0.08444156958655386
0.29426551455588096 0.19586888206098724 -0.01630306232427364
0.1979188220208955 0.31386041141194315 -0.008889820656350583
0.21445297743572855 0.20514642938527203 0.12411604717464804
0.27267686813789344 0.27563287266599606 0.08444156958655386
0.49426551455588097 0.19586888206098724 -0.01630306232427364
0.3979188220208955 0.31386041141194315 -0.008889820656350583
0.41445297743572856 0.20514642938527203 0.12411604717464804
0.47267686813789345 0.27563287266599606 0.08444156958655386
0.694265514555881 0.19586888206098724 -0.01630306232427364
0.5979188220208955 0.31386041141194315 -0.008889820656350583
0.6144529774357286 0.20514642938527203 0.12411604717464804
0.6726768681378935 0.27563287266599606 0.08444156958655386
0.894265514555881 0.19586888206098724 -0.01630306232427364
0.7979188220208955 0.31386041141194315 -0.008889820656350583
0.8144529774357285 0.20514642938527203 0.12411604717464804
0.8726768681378934 0.27563287266599606 0.08444156958655386
0.09426551455588096 0.39586888206098725 -0.01630306232427364
-0.002081177979104515 0.5138604114119432 -0.008889820656350583
0.014452977435728523 0.405146429385272 0.12411604717464804
0.07267686813789342 0.4756328726659961 0.08444156958655386
0.29426551455588096 0.39586888206098725 -0.01630306232427364
0.1979188220208955 0.5138604114119432 -0.008889820656350583
0.21445297743572855 0.405146429385272 0.12411604717464804
0.27267686813789344 0.4756328726659961 0.08444156958655386
0.49426551455588097 0.39586888206098725 -0.01630306232427364
0.3979188220208955 0.5138604114119432 -0.008889820656350583
0.41445297743572856 0.405146429385272 0.12411604717464804
0.47267686813789345 0.4756328726659961 0.08444156958655386
0.694265514555881 0.39586888206098725 -0.01630306232427364
0.5979188220208955 0.5138604114119432 -0.008889820656350583
0.6144529774357286 0.405146429385272 0.12411604717464804
0.6726768681378935 0.4756328726659961 0.08444156958655386
0.894265514555881 0.39586888206098725 -0.01630306232427364
0.7979188220208955 0.5138604114119432 -0.008889820656350583
0.8144529774357285 0.405146429385272 0.12411604717464804
0.8726768681378934 0.4756328726659961 0.08444156958655386
0.09426551455588096 0.5958688820609872 -0.01630306232427364
-0.002081177979104515 0.7138604114119431 -0.008889820656350583
0.014452977435728523 0.6051464293852721 0.12411604717464804
0.07267686813789342 0.6756328726659961 0.08444156958655386
0.29426551455588096 0.5958688820609872 -0.01630306232427364
0.1979188220208955 0.7138604114119431 -0.008889820656350583
0.21445297743572855 0.6051464293852721 0.12411604717464804
0.27267686813789344 0.6756328726659961 0.08444156958655386
0.49426551455588097 0.5958688820609872 -0.01630306232427364
0.3979188220208955 0.7138604114119431 -0.008889820656350583
0.41445297743572856 0.6051464293852721 0.12411604717464804
0.47267686813789345 0.6756328726659961 0.08444156958655386
0.694265514555881 0.5958688820609872 -0.01630306232427364
0.5979188220208955 0.7138604114119431 -0.008889820656350583
0.6144529774357286 0.6051464293852721 0.12411604717464804
0.6726768681378935 0.6756328726659961 0.08444156958655386
0.894265514555881 0.5958688820609872 -0.01630306232427364
0.7979188220208955 0.7138604114119431 -0.008889820656350583
0.8144529774357285 0.6051464293852721 0.12411604717464804
0.8726768681378934 0.6756328726659961 0.08444156958655386
0.09426551455588096 0.7958688820609873 -0.01630306232427364
-0.002081177979104515 0.9138604114119432 -0.008889820656350583
0.014452977435728523 0.8051464293852719 0.12411604717464804
0.07267686813789342 0.8756328726659961 0.08444156958655386
0.29426551455588096 0.7958688820609873 -0.01630306232427364
0.1979188220208955 0.9138604114119432 -0.008889820656350583
0.21445297743572855 0.8051464293852719 0.12411604717464804
0.27267686813789344 0.8756328726659961 0.08444156958655386
0.49426551455588097 0.7958688820609873 -0.01630306232427364
0.3979188220208955 0.9138604114119432 -0.008889820656350583
0.41445297743572856 0.8051464293852719 0.12411604717464804
0.47267686813789345 0.8756328726659961 0.08444156958655386
0.694265514555881 0.7958688820609873 -0.01630306232427364
0.5979188220208955 0.9138604114119432 -0.008889820656350583
0.6144529774357286 0.8051464293852719 0.12411604717464804
0.6726768681378935 0.8756328726659961 0.08444156958655386
0.894265514555881 0.7958688820609873 -0.01630306232427364
0.7979188220208955 0.9138604114119432 -0.008889820656350583
0.8144529774357285 0.8051464293852719 0.12411604717464804
0.8726768681378934 0.8756328726659961 0.08444156958655386
0.09426551455588096 -0.004131117939012777 0.18369693767572637
-0.002081177979104515 0.11386041141194314 0.19111017934364943
0.014452977435728523 0.005146429385272001 0.32411604717464804
0.07267686813789342 0.07563287266599608 0.2844415695865538
0.29426551455588096 -0.004131117939012777 0.18369693767572637
0.1979188220208955 0.11386041141194314 0.19111017934364943
0.21445297743572855 0.005146429385272001 0.32411604717464804
0.27267686813789344 0.07563287266599608 0.2844415695865538
0.49426551455588097 -0.004131117939012777 0.18369693767572637
0.3979188220208955 0.11386041141194314 0.19111017934364943
0.41445297743572856 0.005146429385272001 0.32411604717464804
0.47267686813789345 0.07563287266599608 0.2844415695865538
0.694265514555881 -0.004131117939012777 0.18369693767572637
0.5979188220208955 0.11386041141194314 0.19111017934364943
0.6144529774357286 0.005146429385272001 0.32411604717464804
0.6726768681378935 0.07563287266599608 0.2844415695865538
0.894265514555881 -0.004131117939012777 0.18369693767572637
0.7979188220208955 0.11386041141194314 0.19111017934364943
0.8144529774357285 0.005146429385272001 0.32411604717464804
0.8726768681378934 0.07563287266599608 0.2844415695865538
0.09426551455588096 0.19586888206098724 0.18369693767572637
-0.002081177979104515 0.31386041141194315 0.19111017934364943
0.014452977435728523 0.20514642938527203 0.32411604717464804
0.07267686813789342 0.27563287266599606 0.2844415695865538
0.29426551455588096 0.19586888206098724 0.18369693767572637
0.1979188220208955 0.31386041141194315 0.19111017934364943
0.21445297743572855 0.20514642938527203 0.32411604717464804
0.27267686813789344 0.27563287266599606 0.2844415695865538
0.49426551455588097 0.19586888206098724 0.18369693767572637
0.3979188220208955 0.31386041141194315 0.19111017934364943
0.41445297743572856 0.20514642938527203 0.32411604717464804
0.47267686813789345 0.27563287266599606 0.2844415695865538
0.694265514555881 0.19586888206098724 0.18369693767572637
0.5979188220208955 0.31386041141194315 0.19111017934364943
0.6144529774357286 0.20514642938527203 0.32411604717464804
0.6726768681378935 0.27563287266599606 0.2844415695865538
0.894265514555881 0.19586888206098724 0.18369693767572637
0.7979188220208955 0.31386041141194315 0.19111017934364943
0.8144529774357285 0.20514642938527203 0.32411604717464804
0.8726768681378934 0.27563287266599606 0.2844415695865538
0.09426551455588096 0.39586888206098725 0.18369693767572637
-0.002081177979104515 0.5138604114119432 0.19111017934364943
0.014452977435728523 0.405146429385272 0.32411604717464804
0.07267686813789342 0.4756328726659961 0.2844415695865538
0.29426551455588096 0.39586888206098725 0.18369693767572637
0.1979188220208955 0.5138604114119432 0.19111017934364943
0.21445297743572855 0.405146429385272 0.32411604717464804
0.27267686813789344 0.4756328726659961 0.2844415695865538
0.49426551455588097 0.39586888206098725 0.18369693767572637
0.3979188220208955 0.5138604114119432 0.19111017934364943
0.41445297743572856 0.405146429385272 0.32411604717464804
0.47267686813789345 0.4756328726659961 0.2844415695865538
0.694265514555881 0.39586888206098725 0.18369693767572637
0.5979188220208955 0.5138604114119432 0.19111017934364943
0.6144529774357286 0.405146429385272 0.32411604717464804
0.6726768681378935 0.4756328726659961 0.2844415695865538
0.894265514555881 0.39586888206098725 0.18369693767572637
0.7979188220208955 0.5138604114119432 0.19111017934364943
0.8144529774357285 0.405146429385272 0.32411604717464804
0.8726768681378934 0.4756328726659961 0.2844415695865538
0.09426551455588096 0.5958688820609872 0.18369693767572637
-0.002081177979104515 0.7138604114119431 0.19111017934364943
0.014452977435728523 0.6051464293852721 0.32411604717464804
0.07267686813789342 0.6756328726659961 0.2844415695865538
0.29426551455588096 0.5958688820609872 0.18369693767572637
0.1979188220208955 0.7138604114119431 0.19111017934364943
0.21445297743572855 0.6051464293852721 0.32411604717464804
0.27267686813789344 0.6756328726659961 0.2844415695865538
0.49426551455588097 0.5958688820609872 0.18369693767572637
0.3979188220208955 0.7138604114119431 0.19111017934364943
0.41445297743572856 0.6051464293852721 0.32411604717464804
0.47267686813789345 0.6756328726659961 0.2844415695865538
0.694265514555881 0.5958688820609872 0.18369693767572637
0.5979188220208955 0.7138604114119431 0.19111017934364943
0.6144529774357286 0.6051464293852721 0.32411604717464804
0.6726768681378935 0.6756328726659961 0.2844415695865538
0.894265514555881 0.5958688820609872 0.18369693767572637
0.7979188220208955 0.7138604114119431 0.19111017934364943
0.8144529774357285 0.6051464293852721 0.32411604717464804
0.8726768681378934 0.6756328726659961 0.2844415695865538
0.09426551455588096 0.7958688820609873 0.18369693767572637
-0.002081177979104515 0.9138604114119432 0.19111017934364943
0.014452977435728523 0.8051464293852719 0.32411604717464804
0.07267686813789342 0.8756328726659961 0.2844415695865538
0.29426551455588096 0.7958688820609873 0.18369693767572637
0.1979188220208955 0.9138604114119432 0.19111017934364943
0.21445297743572855 0.8051464293852719 0.32411604717464804
0.27267686813789344 0.8756328726659961 0.2844415695865538
0.49426551455588097 0.7958688820609873 0.18369693767572637
0.3979188220208955 0.9138604114119432 0.19111017934364943
0.41445297743572856 0.8051464293852719 0.32411604717464804
0.47267686813789345 0.8756328726659961 0.2844415695865538
0.694265514555881 0.7958688820609873 0.18369693767572637
0.5979188220208955 0.9138604114119432 0.19111017934364943
0.6144529774357286 0.8051464293852719 0.32411604717464804
0.6726768681378935 0.8756328726659961 0.2844415695865538
0.894265514555881 0.7958688820609873 0.18369693767572637
0.7979188220208955 0.9138604114119432 0.19111017934364943
0.8144529774357285 0.8051464293852719 0.32411604717464804
0.8726768681378934 0.8756328726659961 0.2844415695865538
0.09426551455588096 -0.004131117939012777 0.3836969376757264
-0.002081177979104515 0.11386041141194314 0.39111017934364944
0.014452977435728523 0.005146429385272001 0.5241160471746481
0.07267686813789342 0.07563287266599608 0.4844415695865538
0.29426551455588096 -0.004131117939012777 0.3836969376757264
0.1979188220208955 0.11386041141194314 0.39111017934364944
0.21445297743572855 0.005146429385272001 0.5241160471746481
0.27267686813789344 0.07563287266599608 0.4844415695865538
0.49426551455588097 -0.004131117939012777 0.3836969376757264
0.3979188220208955 0.11386041141194314 0.39111017934364944
0.41445297743572856 0.005146429385272001 0.5241160471746481
0.47267686813789345 0.07563287266599608 0.4844415695865538
0.694265514555881 -0.004131117939012777 0.3836969376757264
0.5979188220208955 0.11386041141194314 0.39111017934364944
0.6144529774357286 0.005146429385272001 0.5241160471746481
0.6726768681378935 0.07563287266599608 0.4844415695865538
0.894265514555881 -0.004131117939012777 0.3836969376757264
0.7979188220208955 0.11386041141194314 0.39111017934364944
0.8144529774357285 0.005146429385272001 0.5241160471746481
0.8726768681378934 0.07563287266599608 0.4844415695865538
0.09426551455588096 0.19586888206098724 0.3836969376757264
-0.002081177979104515 0.31386041141194315 0.39111017934364944
0.014452977435728523 0.20514642938527203 0.5241160471746481
0.07267686813789342 0.27563287266599606 0.4844415695865538
0.29426551455588096 0.19586888206098724 0.3836969376757264
0.1979188220208955 0.31386041141194315 0.39111017934364944
0.21445297743572855 0.20514642938527203 0.5241160471746481
0.27267686813789344 0.27563287266599606 0.4844415695865538
0.49426551455588097 0.19586888206098724 0.3836969376757264
0.3979188220208955 0.31386041141194315 0.39111017934364944
0.41445297743572856 0.20514642938527203 0.5241160471746481
0.47267686813789345 0.27563287266599606 0.4844415695865538
0.694265514555881 0.19586888206098724 0.3836969376757264
0.5979188220208955 0.31386041141194315 0.39111017934364944
0.6144529774357286 0.20514642938527203 0.5241160471746481
0.6726768681378935 0.27563287266599606 0.4844415695865538
0.894265514555881 0.19586888206098724 0.3836969376757264
0.7979188220208955 0.31386041141194315 0.39111017934364944
0.8144529774357285 0.20514642938527203 0.5241160471746481
0.8726768681378934 0.27563287266599606 0.4844415695865538
0.09426551455588096 0.39586888206098725 0.3836969376757264
-0.002081177979104515 0.5138604114119432 0.39111017934364944
0.014452977435728523 0.405146429385272 0.5241160471746481
0.07267686813789342 0.4756328726659961 0.4844415695865538
0.29426551455588096 0.39586888206098725 0.3836969376757264
0.1979188220208955 0.5138604114119432 0.39111017934364944
0.21445297743572855 0.405146429385272 0.5241160471746481
0.27267686813789344 0.4756328726659961 0.4844415695865538
0.49426551455588097 0.39586888206098725 0.3836969376757264
0.3979188220208955 0.5138604114119432 0.39111017934364944
0.41445297743572856 0.405146429385272 0.5241160471746481
0.47267686813789345 0.4756328726659961 0.4844415695865538
0.694265514555881 0.39586888206098725 0.3836969376757264
0.5979188220208955 0.5138604114119432 0.39111017934364944
0.6144529774357286 0.405146429385272 0.5241160471746481
0.6726768681378935 0.4756328726659961 0.4844415695865538
0.894265514555881 0.39586888206098725 0.3836969376757264
0.7979188220208955 0.5138604114119432 0.39111017934364944
0.8144529774357285 0.405146429385272 0.5241160471746481
0.8726768681378934 0.4756328726659961 0.4844415695865538
0.09426551455588096 0.5958688820609872 0.3836969376757264
-0.002081177979104515 0.7138604114119431 0.39111017934364944
0.014452977435728523 0.6051464293852721 0.5241160471746481
0.07267686813789342 0.6756328726659961 0.4844415695865538
0.29426551455588096 0.5958688820609872 0.3836969376757264
0.1979188220208955 0.7138604114119431 0.39111017934364944
0.21445297743572855 0.6051464293852721 0.5241160471746481
0.27267686813789344 0.6756328726659961 0.4844415695865538
0.49426551455588097 0.5958688820609872 0.3836969376757264
0.3979188220208955 0.7138604114119431 0.39111017934364944
0.41445297743572856 0.6051464293852721 0.5241160471746481
0.47267686813789345 0.6756328726659961 0.4844415695865538
0.694265514555881 0.5958688820609872 0.3836969376757264
0.5979188220208955 0.7138604114119431 0.39111017934364944
0.6144529774357286 0.6051464293852721 0.5241160471746481
0.6726768681378935 0.6756328726659961 0.4844415695865538
0.894265514555881 0.5958688820609872 0.3836969376757264
0.7979188220208955 0.7138604114119431 0.39111017934364944
0.8144529774357285 0.6051464293852721 0.5241160471746481
0.8726768681378934 0.6756328726659961 0.4844415695865538
0.09426551455588096 0.7958688820609873 0.3836969376757264
-0.002081177979104515 0.9138604114119432 0.39111017934364944
0.014452977435728523 0.8051464293852719 0.5241160471746481
0.07267686813789342 0.8756328726659961 0.4844415695865538
0.29426551455588096 0.7958688820609873 0.3836969376757264
0.1979188220208955 0.9138604114119432 0.39111017934364944
0.21445297743572855 0.8051464293852719 0.5241160471746481
0.27267686813789344 0.8756328726659961 0.4844415695865538
0.49426551455588097 0.7958688820609873 0.3836969376757264
0.3979188220208955 0.9138604114119432 0.39111017934364944
0.41445297743572856 0.8051464293852719 0.5241160471746481
0.47267686813789345 0.8756328726659961 0.4844415695865538
0.694265514555881 0.7958688820609873 0.3836969376757264
0.5979188220208955 0.9138604114119432 0.39111017934364944
0.6144529774357286 0.8051464293852719 0.5241160471746481
0.6726768681378935 0.8756328726659961 0.4844415695865538
0.894265514555881 0.7958688820609873 0.3836969376757264
0.7979188220208955 0.9138604114119432 0.39111017934364944
0.8144529774357285 0.8051464293852719 0.5241160471746481
0.8726768681378934 0.8756328726659961 0.4844415695865538
0.09426551455588096 -0.004131117939012777 0.5836969376757264
-0.002081177979104515 0.11386041141194314 0.5911101793436494
0.014452977435728523 0.005146429385272001 0.7241160471746482
0.07267686813789342 0.07563287266599608 0.6844415695865539
0.29426551455588096 -0.004131117939012777 0.5836969376757264
0.1979188220208955 0.11386041141194314 0.5911101793436494
0.21445297743572855 0.005146429385272001 0.7241160471746482
0.27267686813789344 0.07563287266599608 0.6844415695865539
0.49426551455588097 -0.004131117939012777 0.5836969376757264
0.3979188220208955 0.11386041141194314 0.5911101793436494
0.41445297743572856 0.005146429385272001 0.7241160471746482
0.47267686813789345 0.07563287266599608 0.6844415695865539
0.694265514555881 -0.004131117939012777 0.5836969376757264
0.5979188220208955 0.11386041141194314 0.5911101793436494
0.6144529774357286 0.005146429385272001 0.7241160471746482
0.6726768681378935 0.07563287266599608 0.6844415695865539
0.894265514555881 -0.004131117939012777 0.5836969376757264
0.7979188220208955 0.11386041141194314 0.5911101793436494
0.8144529774357285 0.005146429385272001 0.7241160471746482
0.8726768681378934 0.07563287266599608 0.6844415695865539
0.09426551455588096 0.19586888206098724 0.5836969376757264
-0.002081177979104515 0.31386041141194315 0.5911101793436494
0.014452977435728523 0.20514642938527203 0.7241160471746482
0.07267686813789342 0.27563287266599606 0.6844415695865539
0.29426551455588096 0.19586888206098724 0.5836969376757264
0.1979188220208955 0.31386041141194315 0.5911101793436494
0.21445297743572855 0.20514642938527203 0.7241160471746482
0.27267686813789344 0.27563287266599606 0.6844415695865539
0.49426551455588097 0.19586888206098724 0.5836969376757264
0.3979188220208955 0.31386041141194315 0.5911101793436494
0.41445297743572856 0.20514642938527203 0.7241160471746482
0.47267686813789345 0.27563287266599606 0.6844415695865539
0.694265514555881 0.19586888206098724 0.5836969376757264
0.5979188220208955 0.31386041141194315 0.5911101793436494
0.6144529774357286 0.20514642938527203 0.7241160471746482
0.6726768681378935 0.27563287266599606 0.6844415695865539
0.894265514555881 0.19586888206098724 0.5836969376757264
0.7979188220208955 0.31386041141194315 0.5911101793436494
0.8144529774357285 0.20514642938527203 0.7241160471746482
0.8726768681378934 0.27563287266599606 0.6844415695865539
0.09426551455588096 0.39586888206098725 0.5836969376757264
-0.002081177979104515 0.5138604114119432 0.5911101793436494
0.014452977435728523 0.405146429385272 0.7241160471746482
0.07267686813789342 0.4756328726659961 0.6844415695865539
0.29426551455588096 0.39586888206098725 0.5836969376757264
0.1979188220208955 0.5138604114119432 0.5911101793436494
0.21445297743572855 0.405146429385272 0.7241160471746482
0.27267686813789344 0.4756328726659961 0.6844415695865539
0.49426551455588097 0.39586888206098725 0.5836969376757264
0.3979188220208955 0.5138604114119432 0.5911101793436494
0.41445297743572856 0.405146429385272 0.7241160471746482
0.47267686813789345 0.4756328726659961 0.6844415695865539
0.694265514555881 0.39586888206098725 0.5836969376757264
0.5979188220208955 0.5138604114119432 0.5911101793436494
0.6144529774357286 0.405146429385272 0.7241160471746482
0.6726768681378935 0.4756328726659961 0.6844415695865539
0.894265514555881 0.39586888206098725 0.5836969376757264
0.7979188220208955 0.5138604114119432 0.5911101793436494
0.8144529774357285 0.405146429385272 0.7241160471746482
0.8726768681378934 0.4756328726659961 0.6844415695865539
0.09426551455588096 0.5958688820609872 0.5836969376757264
-0.002081177979104515 0.7138604114119431 0.5911101793436494
0.014452977435728523 0.6051464293852721 0.7241160471746482
0.07267686813789342 0.6756328726659961 0.6844415695865539
0.29426551455588096 0.5958688820609872 0.5836969376757264
0.1979188220208955 0.7138604114119431 0.5911101793436494
0.21445297743572855 0.6051464293852721 0.7241160471746482
0.27267686813789344 0.6756328726659961 0.6844415695865539
0.49426551455588097 0.5958688820609872 0.5836969376757264
0.3979188220208955 0.7138604114119431 0.5911101793436494
0.41445297743572856 0.6051464293852721 0.7241160471746482
0.47267686813789345 0.6756328726659961 0.6844415695865539
0.694265514555881 0.5958688820609872 0.5836969376757264
0.5979188220208955 0.7138604114119431 0.5911101793436494
0.6144529774357286 0.6051464293852721 0.7241160471746482
0.6726768681378935 0.6756328726659961 0.6844415695865539
0.894265514555881 0.5958688820609872 0.5836969376757264
0.7979188220208955 0.7138604114119431 0.5911101793436494
0.8144529774357285 0.6051464293852721 0.7241160471746482
0.8726768681378934 0.6756328726659961 0.6844415695865539
0.09426551455588096 0.7958688820609873 0.5836969376757264
-0.002081177979104515 0.9138604114119432 0.5911101793436494
0.014452977435728523 0.8051464293852719 0.7241160471746482
0.07267686813789342 0.8756328726659961 0.6844415695865539
0.29426551455588096 0.7958688820609873 0.5836969376757264
0.1979188220208955 0.9138604114119432 0.5911101793436494
0.21445297743572855 0.8051464293852719 0.7241160471746482
0.27267686813789344 0.8756328726659961 0.6844415695865539
0.49426551455588097 0.7958688820609873 0.5836969376757264
0.3979188220208955 0.9138604114119432 0.5911101793436494
0.41445297743572856 0.8051464293852719 0.7241160471746482
0.47267686813789345 0.8756328726659961 0.6844415695865539
0.694265514555881 0.7958688820609873 0.5836969376757264
0.5979188220208955 0.9138604114119432 0.5911101793436494
0.6144529774357286 0.8051464293852719 0.7241160471746482
0.6726768681378935 0.8756328726659961 0.6844415695865539
0.894265514555881 0.7958688820609873 0.5836969376757264
0.7979188220208955 0.9138604114119432 0.5911101793436494
0.8144529774357285 0.8051464293852719 0.7241160471746482
0.8726768681378934 0.8756328726659961 0.6844415695865539
0.09426551455588096 -0.004131117939012777 0.7836969376757263
-0.002081177979104515 0.11386041141194314 0.7911101793436495
0.014452977435728523 0.005146429385272001 0.9241160471746481
0.07267686813789342 0.07563287266599608 0.884441569586554
0.29426551455588096 -0.004131117939012777 0.7836969376757263
0.1979188220208955 0.11386041141194314 0.7911101793436495
0.21445297743572855 0.005146429385272001 0.9241160471746481
0.27267686813789344 0.07563287266599608 0.884441569586554
0.49426551455588097 -0.004131117939012777 0.7836969376757263
0.3979188220208955 0.11386041141194314 0.7911101793436495
0.41445297743572856 0.005146429385272001 0.9241160471746481
0.47267686813789345 0.07563287266599608 0.884441569586554
0.694265514555881 -0.004131117939012777 0.7836969376757263
0.5979188220208955 0.11386041141194314 0.7911101793436495
0.6144529774357286 0.005146429385272001 0.9241160471746481
0.6726768681378935 0.07563287266599608 0.884441569586554
0.894265514555881 -0.004131117939012777 0.7836969376757263
0.7979188220208955 0.11386041141194314 0.7911101793436495
0.8144529774357285 0.005146429385272001 0.9241160471746481
0.8726768681378934 0.07563287266599608 0.884441569586554
0.09426551455588096 0.19586888206098724 0.7836969376757263
-0.002081177979104515 0.31386041141194315 0.7911101793436495
0.014452977435728523 0.20514642938527203 0.9241160471746481
0.07267686813789342 0.27563287266599606 0.884441569586554
0.29426551455588096 0.19586888206098724 0.7836969376757263
0.1979188220208955 0.31386041141194315 0.7911101793436495
0.21445297743572855 0.20514642938527203 0.9241160471746481
0.27267686813789344 0.27563287266599606 0.884441569586554
0.49426551455588097 0.19586888206098724 0.7836969376757263
0.3979188220208955 0.31386041141194315 0.7911101793436495
0.41445297743572856 0.20514642938527203 0.9241160471746481
0.47267686813789345 0.27563287266599606 0.884441569586554
0.694265514555881 0.19586888206098724 0.7836969376757263
0.5979188220208955 0.31386041141194315 0.7911101793436495
0.6144529774357286 0.20514642938527203 0.9241160471746481
0.6726768681378935 0.27563287266599606 0.884441569586554
0.894265514555881 0.19586888206098724 0.7836969376757263
0.7979188220208955 0.31386041141194315 0.7911101793436495
0.8144529774357285 0.20514642938527203 0.9241160471746481
0.8726768681378934 0.27563287266599606 0.884441569586554
0.09426551455588096 0.39586888206098725 0.7836969376757263
-0.002081177979104515 0.5138604114119432 0.7911101793436495
0.014452977435728523 0.405146429385272 0.9241160471746481
0.07267686813789342 0.4756328726659961 0.884441569586554
0.29426551455588096 0.39586888206098725 0.7836969376757263
0.1979188220208955 0.5138604114119432 0.7911101793436495
0.21445297743572855 0.405146429385272 0.9241160471746481
0.27267686813789344 0.4756328726659961 0.884441569586554
0.49426551455588097 0.39586888206098725 0.7836969376757263
0.3979188220208955 0.5138604114119432 0.7911101793436495
0.41445297743572856 0.405146429385272 0.9241160471746481
0.47267686813789345 0.4756328726659961 0.884441569586554
0.694265514555881 0.39586888206098725 0.7836969376757263
0.5979188220208955 0.5138604114119432 0.7911101793436495
0.6144529774357286 0.405146429385272 0.9241160471746481
0.6726768681378935 0.4756328726659961 0.884441569586554
0.894265514555881 0.39586888206098725 0.7836969376757263
0.7979188220208955 0.5138604114119432 0.7911101793436495
0.8144529774357285 0.405146429385272 0.9241160471746481
0.8726768681378934 0.4756328726659961 0.884441569586554
0.09426551455588096 0.5958688820609872 0.7836969376757263
-0.002081177979104515 0.7138604114119431 0.7911101793436495
0.014452977435728523 0.6051464293852721 0.9241160471746481
0.07267686813789342 0.6756328726659961 0.884441569586554
0.29426551455588096 0.5958688820609872 0.7836969376757263
0.1979188220208955 0.7138604114119431 0.7911101793436495
0.21445297743572855 0.6051464293852721 0.9241160471746481
0.27267686813789344 0.6756328726659961 0.884441569586554
0.49426551455588097 0.5958688820609872 0.7836969376757263
0.3979188220208955 0.7138604114119431 0.7911101793436495
0.41445297743572856 0.6051464293852721 0.9241160471746481
0.47267686813789345 0.6756328726659961 0.884441569586554
0.694265514555881 0.5958688820609872 0.7836969376757263
0.5979188220208955 0.7138604114119431 0.7911101793436495
0.6144529774357286 0.6051464293852721 0.9241160471746481
0.6726768681378935 0.6756328726659961 0.884441569586554
0.894265514555881 0.5958688820609872 0.7836969376757263
0.7979188220208955 0.7138604114119431 0.7911101793436495
0.8144529774357285 0.6051464293852721 0.9241160471746481
0.8726768681378934 0.6756328726659961 0.884441569586554
0.09426551455588096 0.7958688820609873 0.7836969376757263
-0.002081177979104515 0.9138604114119432 0.7911101793436495
0.014452977435728523 0.8051464293852719 0.9241160471746481
0.07267686813789342 0.8756328726659961 0.884441569586554
0.29426551455588096 0.7958688820609873 0.7836969376757263
0.1979188220208955 0.9138604114119432 0.7911101793436495
0.21445297743572855 0.8051464293852719 0.9241160471746481
0.27267686813789344 0.8756328726659961 0.884441569586554
0.49426551455588097 0.7958688820609873 0.7836969376757263
0.3979188220208955 0.9138604114119432 0.7911101793436495
0.41445297743572856 0.8051464293852719 0.9241160471746481
0.47267686813789345 0.8756328726659961 0.884441569586554
0.694265514555881 0.7958688820609873 0.7836969376757263
0.5979188220208955 0.9138604114119432 0.7911101793436495
0.6144529774357286 0.8051464293852719 0.9241160471746481
0.6726768681378935 0.8756328726659961 0.884441569586554
0.894265514555881 0.7958688820609873 0.7836969376757263
0.7979188220208955 0.9138604114119432 0.7911101793436495
0.8144529774357285 0.8051464293852719 0.9241160471746481
0.8726768681378934 0.8756328726659961 0.884441569586554
