FCC BaO
3.971
5.0 0.0 0.0
0.0 5.0 0.0
0.0 0.0 5.0
Ba O 
500 500 
Direct
0.008725706306375178 -0.028412806826375647 -0.0156826111747284
0.01390229943825138 0.10399438778323802 0.0912763258877074
0.10798119097926391 -0.008133078851172778 0.11987729530961239
0.0711869800449446 0.1161396984770836 0.018940150076811976
0.20872570630637519 -0.028412806826375647 -0.0156826111747284
0.2139022994382514 0.10399438778323802 0.0912763258877074
0.3079811909792639 -0.008133078851172778 0.11987729530961239
0.2711869800449446 0.1161396984770836 0.018940150076811976
0.40872570630637517 -0.028412806826375647 -0.0156826111747284
0.4139022994382514 0.10399438778323802 0.0912763258877074
0.5079811909792639 -0.008133078851172778 0.11987729530961239
0.4711869800449446 0.1161396984770836 0.018940150076811976
0.6087257063063752 -0.028412806826375647 -0.0156826111747284
0.6139022994382515 0.10399438778323802 0.0912763258877074
0.7079811909792639 -0.008133078851172778 0.11987729530961239
0.6711869800449446 0.1161396984770836 0.018940150076811976
0.8087257063063753 -0.028412806826375647 -0.0156826111747284
0.8139022994382513 0.10399438778323802 0.0912763258877074
0.9079811909792639 -0.008133078851172778 0.11987729530961239
0.8711869800449445 0.1161396984770836 0.018940150076811976
0.008725706306375178 0.17158719317362436 -0.0156826111747284
0.01390229943825138 0.30399438778323806 0.0912763258877074
0.10798119097926391 0.19186692114882722 0.11987729530961239
0.0711869800449446 0.3161396984770836 0.018940150076811976
0.20872570630637519 0.17158719317362436 -0.0156826111747284
0.2139022994382514 0.30399438778323806 0.0912763258877074
0.3079811909792639 0.19186692114882722 0.11987729530961239
0.2711869800449446 0.3161396984770836 0.018940150076811976
0.40872570630637517 0.17158719317362436 -0.0156826111747284
0.4139022994382514 0.30399438778323806 0.0912763258877074
0.5079811909792639 0.19186692114882722 0.11987729530961239
0.4711869800449446 0.3161396984770836 0.018940150076811976
0.6087257063063752 0.17158719317362436 -0.0156826111747284
0.6139022994382515 0.30399438778323806 0.0912763258877074
0.7079811909792639 0.19186692114882722 0.11987729530961239
0.6711869800449446 0.3161396984770836 0.018940150076811976
0.8087257063063753 0.17158719317362436 -0.0156826111747284
0.8139022994382513 0.30399438778323806 0.0912763258877074
0.9079811909792639 0.19186692114882722 0.11987729530961239
0.8711869800449445 0.3161396984770836 0.018940150076811976
0.008725706306375178 0.3715871931736244 -0.0156826111747284
0.01390229943825138 0.503994387783238 0.0912763258877074
0.10798119097926391 0.39186692114882726 0.11987729530961239
0.0711869800449446 0.5161396984770835 0.018940150076811976
0.20872570630637519 0.3715871931736244 -0.0156826111747284
0.2139022994382514 0.503994387783238 0.0912763258877074
0.3079811909792639 0.39186692114882726 0.11987729530961239
0.2711869800449446 0.5161396984770835 0.018940150076811976
0.40872570630637517 0.3715871931736244 -0.0156826111747284
0.4139022994382514 0.503994387783238 0.0912763258877074
0.5079811909792639 0.39186692114882726 0.11987729530961239
0.4711869800449446 0.5161396984770835 0.018940150076811976
0.6087257063063752 0.3715871931736244 -0.0156826111747284
0.6139022994382515 0.503994387783238 0.0912763258877074
0.7079811909792639 0.39186692114882726 0.11987729530961239
0.6711869800449446 0.5161396984770835 0.018940150076811976
0.8087257063063753 0.3715871931736244 -0.0156826111747284
0.8139022994382513 0.503994387783238 0.0912763258877074
0.9079811909792639 0.39186692114882726 0.11987729530961239
0.8711869800449445 0.5161396984770835 0.018940150076811976
0.008725706306375178 0.5715871931736244 -0.0156826111747284
0.01390229943825138 0.7039943877832381 0.0912763258877074
0.10798119097926391 0.5918669211488273 0.11987729530961239
0.0711869800449446 0.7161396984770836 0.018940150076811976
0.20872570630637519 0.5715871931736244 -0.0156826111747284
0.2139022994382514 0.7039943877832381 0.0912763258877074
0.3079811909792639 0.5918669211488273 0.11987729530961239
0.2711869800449446 0.7161396984770836 0.018940150076811976
0.40872570630637517 0.5715871931736244 -0.0156826111747284
0.4139022994382514 0.7039943877832381 0.0912763258877074
0.5079811909792639 0.5918669211488273 0.11987729530961239
0.4711869800449446 0.7161396984770836 0.018940150076811976
0.6087257063063752 0.5715871931736244 -0.0156826111747284
0.6139022994382515 0.7039943877832381 0.0912763258877074
0.7079811909792639 0.5918669211488273 0.11987729530961239
0.6711869800449446 0.7161396984770836 0.018940150076811976
0.8087257063063753 0.5715871931736244 -0.0156826111747284
0.8139022994382513 0.7039943877832381 0.0912763258877074
0.9079811909792639 0.5918669211488273 0.11987729530961239
0.8711869800449445 0.7161396984770836 0.018940150076811976
0.008725706306375178 0.7715871931736245 -0.0156826111747284
0.01390229943825138 0.903994387783238 0.0912763258877074
0.10798119097926391 0.7918669211488273 0.11987729530961239
0.0711869800449446 0.9161396984770835 0.018940150076811976
0.20872570630637519 0.7715871931736245 -0.0156826111747284
0.2139022994382514 0.903994387783238 0.0912763258877074
0.3079811909792639 0.7918669211488273 0.11987729530961239
0.2711869800449446 0.9161396984770835 0.018940150076811976
0.40872570630637517 0.7715871931736245 -0.0156826111747284
0.4139022994382514 0.903994387783238 0.0912763258877074
0.5079811909792639 0.7918669211488273 0.11987729530961239
0.4711869800449446 0.9161396984770835 0.018940150076811976
0.6087257063063752 0.7715871931736245 -0.0156826111747284
0.6139022994382515 0.903994387783238 0.0912763258877074
0.7079811909792639 0.7918669211488273 0.11987729530961239
0.6711869800449446 0.9161396984770835 0.018940150076811976
0.8087257063063753 0.7715871931736245 -0.0156826111747284
0.8139022994382513 0.903994387783238 0.0912763258877074
0.9079811909792639 0.7918669211488273 0.11987729530961239
0.8711869800449445 0.9161396984770835 0.018940150076811976
0.008725706306375178 -0.028412806826375647 0.1843173888252716
0.01390229943825138 0.10399438778323802 0.2912763258877074
0.10798119097926391 -0.008133078851172778 0.3198772953096124
0.0711869800449446 0.1161396984770836 0.21894015007681197
0.20872570630637519 -0.028412806826375647 0.1843173888252716
0.2139022994382514 0.10399438778323802 0.2912763258877074
0.3079811909792639 -0.008133078851172778 0.3198772953096124
0.2711869800449446 0.1161396984770836 0.21894015007681197
0.40872570630637517 -0.028412806826375647 0.1843173888252716
0.4139022994382514 0.10399438778323802 0.2912763258877074
0.5079811909792639 -0.008133078851172778 0.3198772953096124
0.4711869800449446 0.1161396984770836 0.21894015007681197
0.6087257063063752 -0.028412806826375647 0.1843173888252716
0.6139022994382515 0.10399438778323802 0.2912763258877074
0.7079811909792639 -0.008133078851172778 0.3198772953096124
0.6711869800449446 0.1161396984770836 0.21894015007681197
0.8087257063063753 -0.028412806826375647 0.1843173888252716
0.8139022994382513 0.10399438778323802 0.2912763258877074
0.9079811909792639 -0.008133078851172778 0.3198772953096124
0.8711869800449445 0.1161396984770836 0.21894015007681197
0.008725706306375178 0.17158719317362436 0.1843173888252716
0.01390229943825138 0.30399438778323806 0.2912763258877074
0.10798119097926391 0.19186692114882722 0.3198772953096124
0.0711869800449446 0.3161396984770836 0.21894015007681197
0.20872570630637519 0.17158719317362436 0.1843173888252716
0.2139022994382514 0.30399438778323806 0.2912763258877074
0.3079811909792639 0.19186692114882722 0.3198772953096124
0.2711869800449446 0.3161396984770836 0.21894015007681197
0.40872570630637517 0.17158719317362436 0.1843173888252716
0.4139022994382514 0.30399438778323806 0.2912763258877074
0.5079811909792639 0.19186692114882722 0.3198772953096124
0.4711869800449446 0.3161396984770836 0.21894015007681197
0.6087257063063752 0.17158719317362436 0.1843173888252716
0.6139022994382515 0.30399438778323806 0.2912763258877074
0.7079811909792639 0.19186692114882722 0.3198772953096124
0.6711869800449446 0.3161396984770836 0.21894015007681197
0.8087257063063753 0.17158719317362436 0.1843173888252716
0.8139022994382513 0.30399438778323806 0.2912763258877074
0.9079811909792639 0.19186692114882722 0.3198772953096124
0.8711869800449445 0.3161396984770836 0.21894015007681197
0.008725706306375178 0.3715871931736244 0.1843173888252716
0.01390229943825138 0.503994387783238 0.2912763258877074
0.10798119097926391 0.39186692114882726 0.3198772953096124
0.0711869800449446 0.5161396984770835 0.21894015007681197
0.20872570630637519 0.3715871931736244 0.1843173888252716
0.2139022994382514 0.503994387783238 0.2912763258877074
0.3079811909792639 0.39186692114882726 0.3198772953096124
0.2711869800449446 0.5161396984770835 0.21894015007681197
0.40872570630637517 0.3715871931736244 0.1843173888252716
0.4139022994382514 0.503994387783238 0.2912763258877074
0.5079811909792639 0.39186692114882726 0.3198772953096124
0.4711869800449446 0.5161396984770835 0.21894015007681197
0.6087257063063752 0.3715871931736244 0.1843173888252716
0.6139022994382515 0.503994387783238 0.2912763258877074
0.7079811909792639 0.39186692114882726 0.3198772953096124
0.6711869800449446 0.5161396984770835 0.21894015007681197
0.8087257063063753 0.3715871931736244 0.1843173888252716
0.8139022994382513 0.503994387783238 0.2912763258877074
0.9079811909792639 0.39186692114882726 0.3198772953096124
0.8711869800449445 0.5161396984770835 0.21894015007681197
0.008725706306375178 0.5715871931736244 0.1843173888252716
0.01390229943825138 0.7039943877832381 0.2912763258877074
0.10798119097926391 0.5918669211488273 0.3198772953096124
0.0711869800449446 0.7161396984770836 0.21894015007681197
0.20872570630637519 0.5715871931736244 0.1843173888252716
0.2139022994382514 0.7039943877832381 0.2912763258877074
0.3079811909792639 0.5918669211488273 0.3198772953096124
0.2711869800449446 0.7161396984770836 0.21894015007681197
0.40872570630637517 0.5715871931736244 0.1843173888252716
0.4139022994382514 0.7039943877832381 0.2912763258877074
0.5079811909792639 0.5918669211488273 0.3198772953096124
0.4711869800449446 0.7161396984770836 0.21894015007681197
0.6087257063063752 0.5715871931736244 0.1843173888252716
0.6139022994382515 0.7039943877832381 0.2912763258877074
0.7079811909792639 0.5918669211488273 0.3198772953096124
0.6711869800449446 0.7161396984770836 0.21894015007681197
0.8087257063063753 0.5715871931736244 0.1843173888252716
0.8139022994382513 0.7039943877832381 0.2912763258877074
0.9079811909792639 0.5918669211488273 0.3198772953096124
0.8711869800449445 0.7161396984770836 0.21894015007681197
0.008725706306375178 0.7715871931736245 0.1843173888252716
0.01390229943825138 0.903994387783238 0.2912763258877074
0.10798119097926391 0.7918669211488273 0.3198772953096124
0.0711869800449446 0.9161396984770835 0.21894015007681197
0.20872570630637519 0.7715871931736245 0.1843173888252716
0.2139022994382514 0.903994387783238 0.2912763258877074
0.3079811909792639 0.7918669211488273 0.3198772953096124
0.2711869800449446 0.9161396984770835 0.21894015007681197
0.40872570630637517 0.7715871931736245 0.1843173888252716
0.4139022994382514 0.903994387783238 0.2912763258877074
0.5079811909792639 0.7918669211488273 0.3198772953096124
0.4711869800449446 0.9161396984770835 0.21894015007681197
0.6087257063063752 0.7715871931736245 0.1843173888252716
0.6139022994382515 0.903994387783238 0.2912763258877074
0.7079811909792639 0.7918669211488273 0.3198772953096124
0.6711869800449446 0.9161396984770835 0.21894015007681197
0.8087257063063753 0.7715871931736245 0.1843173888252716
0.8139022994382513 0.903994387783238 0.2912763258877074
0.9079811909792639 0.7918669211488273 0.3198772953096124
0.8711869800449445 0.9161396984770835 0.21894015007681197
0.008725706306375178 -0.028412806826375647 0.3843173888252716
0.01390229943825138 0.10399438778323802 0.49127632588770737
0.10798119097926391 -0.008133078851172778 0.5198772953096124
0.0711869800449446 0.1161396984770836 0.41894015007681196
0.20872570630637519 -0.028412806826375647 0.3843173888252716
0.2139022994382514 0.10399438778323802 0.49127632588770737
0.3079811909792639 -0.008133078851172778 0.5198772953096124
0.2711869800449446 0.1161396984770836 0.41894015007681196
0.40872570630637517 -0.028412806826375647 0.3843173888252716
0.4139022994382514 0.10399438778323802 0.49127632588770737
0.5079811909792639 -0.008133078851172778 0.5198772953096124
0.4711869800449446 0.1161396984770836 0.41894015007681196
0.6087257063063752 -0.028412806826375647 0.3843173888252716
0.6139022994382515 0.10399438778323802 0.49127632588770737
0.7079811909792639 -0.008133078851172778 0.5198772953096124
0.6711869800449446 0.1161396984770836 0.41894015007681196
0.8087257063063753 -0.028412806826375647 0.3843173888252716
0.8139022994382513 0.10399438778323802 0.49127632588770737
0.9079811909792639 -0.008133078851172778 0.5198772953096124
0.8711869800449445 0.1161396984770836 0.41894015007681196
0.008725706306375178 0.17158719317362436 0.3843173888252716
0.01390229943825138 0.30399438778323806 0.49127632588770737
0.10798119097926391 0.19186692114882722 0.5198772953096124
0.0711869800449446 0.3161396984770836 0.41894015007681196
0.20872570630637519 0.17158719317362436 0.3843173888252716
0.2139022994382514 0.30399438778323806 0.49127632588770737
0.3079811909792639 0.19186692114882722 0.5198772953096124
0.2711869800449446 0.3161396984770836 0.41894015007681196
0.40872570630637517 0.17158719317362436 0.3843173888252716
0.4139022994382514 0.30399438778323806 0.49127632588770737
0.5079811909792639 0.19186692114882722 0.5198772953096124
0.4711869800449446 0.3161396984770836 0.41894015007681196
0.6087257063063752 0.17158719317362436 0.3843173888252716
0.6139022994382515 0.30399438778323806 0.49127632588770737
0.7079811909792639 0.19186692114882722 0.5198772953096124
0.6711869800449446 0.3161396984770836 0.41894015007681196
0.8087257063063753 0.17158719317362436 0.3843173888252716
0.8139022994382513 0.30399438778323806 0.49127632588770737
0.9079811909792639 0.19186692114882722 0.5198772953096124
0.8711869800449445 0.3161396984770836 0.41894015007681196
0.008725706306375178 0.3715871931736244 0.3843173888252716
0.01390229943825138 0.503994387783238 0.49127632588770737
0.10798119097926391 0.39186692114882726 0.5198772953096124
0.0711869800449446 0.5161396984770835 0.41894015007681196
0.20872570630637519 0.3715871931736244 0.3843173888252716
0.2139022994382514 0.503994387783238 0.49127632588770737
0.3079811909792639 0.39186692114882726 0.5198772953096124
0.2711869800449446 0.5161396984770835 0.41894015007681196
0.40872570630637517 0.3715871931736244 0.3843173888252716
0.4139022994382514 0.503994387783238 0.49127632588770737
0.5079811909792639 0.39186692114882726 0.5198772953096124
0.4711869800449446 0.5161396984770835 0.41894015007681196
0.6087257063063752 0.3715871931736244 0.3843173888252716
0.6139022994382515 0.503994387783238 0.49127632588770737
0.7079811909792639 0.39186692114882726 0.5198772953096124
0.6711869800449446 0.5161396984770835 0.41894015007681196
0.8087257063063753 0.3715871931736244 0.3843173888252716
0.8139022994382513 0.503994387783238 0.49127632588770737
0.9079811909792639 0.39186692114882726 0.5198772953096124
0.8711869800449445 0.5161396984770835 0.41894015007681196
0.008725706306375178 0.5715871931736244 0.3843173888252716
0.01390229943825138 0.7039943877832381 0.49127632588770737
0.10798119097926391 0.5918669211488273 0.5198772953096124
0.0711869800449446 0.7161396984770836 0.41894015007681196
0.20872570630637519 0.5715871931736244 0.3843173888252716
0.2139022994382514 0.7039943877832381 0.49127632588770737
0.3079811909792639 0.5918669211488273 0.5198772953096124
0.2711869800449446 0.7161396984770836 0.41894015007681196
0.40872570630637517 0.5715871931736244 0.3843173888252716
0.4139022994382514 0.7039943877832381 0.49127632588770737
0.5079811909792639 0.5918669211488273 0.5198772953096124
0.4711869800449446 0.7161396984770836 0.41894015007681196
0.6087257063063752 0.5715871931736244 0.3843173888252716
0.6139022994382515 0.7039943877832381 0.49127632588770737
0.7079811909792639 0.5918669211488273 0.5198772953096124
0.6711869800449446 0.7161396984770836 0.41894015007681196
0.8087257063063753 0.5715871931736244 0.3843173888252716
0.8139022994382513 0.7039943877832381 0.49127632588770737
0.9079811909792639 0.5918669211488273 0.5198772953096124
0.8711869800449445 0.7161396984770836 0.41894015007681196
0.008725706306375178 0.7715871931736245 0.3843173888252716
0.01390229943825138 0.903994387783238 0.49127632588770737
0.10798119097926391 0.7918669211488273 0.5198772953096124
0.0711869800449446 0.9161396984770835 0.41894015007681196
0.20872570630637519 0.7715871931736245 0.3843173888252716
0.2139022994382514 0.903994387783238 0.49127632588770737
0.3079811909792639 0.7918669211488273 0.5198772953096124
0.2711869800449446 0.9161396984770835 0.41894015007681196
0.40872570630637517 0.7715871931736245 0.3843173888252716
0.4139022994382514 0.903994387783238 0.49127632588770737
0.5079811909792639 0.7918669211488273 0.5198772953096124
0.4711869800449446 0.9161396984770835 0.41894015007681196
0.6087257063063752 0.7715871931736245 0.3843173888252716
0.6139022994382515 0.903994387783238 0.49127632588770737
0.7079811909792639 0.7918669211488273 0.5198772953096124
0.6711869800449446 0.9161396984770835 0.41894015007681196
0.8087257063063753 0.7715871931736245 0.3843173888252716
0.8139022994382513 0.903994387783238 0.49127632588770737
0.9079811909792639 0.7918669211488273 0.5198772953096124
0.8711869800449445 0.9161396984770835 0.41894015007681196
0.008725706306375178 -0.028412806826375647 0.5843173888252716
0.01390229943825138 0.10399438778323802 0.6912763258877074
0.10798119097926391 -0.008133078851172778 0.7198772953096124
0.0711869800449446 0.1161396984770836 0.618940150076812
0.20872570630637519 -0.028412806826375647 0.5843173888252716
0.2139022994382514 0.10399438778323802 0.6912763258877074
0.3079811909792639 -0.008133078851172778 0.7198772953096124
0.2711869800449446 0.1161396984770836 0.618940150076812
0.40872570630637517 -0.028412806826375647 0.5843173888252716
0.4139022994382514 0.10399438778323802 0.6912763258877074
0.5079811909792639 -0.008133078851172778 0.7198772953096124
0.4711869800449446 0.1161396984770836 0.618940150076812
0.6087257063063752 -0.028412806826375647 0.5843173888252716
0.6139022994382515 0.10399438778323802 0.6912763258877074
0.7079811909792639 -0.008133078851172778 0.7198772953096124
0.6711869800449446 0.1161396984770836 0.618940150076812
0.8087257063063753 -0.028412806826375647 0.5843173888252716
0.8139022994382513 0.10399438778323802 0.6912763258877074
0.9079811909792639 -0.008133078851172778 0.7198772953096124
0.8711869800449445 0.1161396984770836 0.618940150076812
0.008725706306375178 0.17158719317362436 0.5843173888252716
0.01390229943825138 0.30399438778323806 0.6912763258877074
0.10798119097926391 0.19186692114882722 0.7198772953096124
0.0711869800449446 0.3161396984770836 0.618940150076812
0.20872570630637519 0.17158719317362436 0.5843173888252716
0.2139022994382514 0.30399438778323806 0.6912763258877074
0.3079811909792639 0.19186692114882722 0.7198772953096124
0.2711869800449446 0.3161396984770836 0.618940150076812
0.40872570630637517 0.17158719317362436 0.5843173888252716
0.4139022994382514 0.30399438778323806 0.6912763258877074
0.5079811909792639 0.19186692114882722 0.7198772953096124
0.4711869800449446 0.3161396984770836 0.618940150076812
0.6087257063063752 0.17158719317362436 0.5843173888252716
0.6139022994382515 0.30399438778323806 0.6912763258877074
0.7079811909792639 0.19186692114882722 0.7198772953096124
0.6711869800449446 0.3161396984770836 0.618940150076812
0.8087257063063753 0.17158719317362436 0.5843173888252716
0.8139022994382513 0.30399438778323806 0.6912763258877074
0.9079811909792639 0.19186692114882722 0.7198772953096124
0.8711869800449445 0.3161396984770836 0.618940150076812
0.008725706306375178 0.3715871931736244 0.5843173888252716
0.01390229943825138 0.503994387783238 0.6912763258877074
0.10798119097926391 0.39186692114882726 0.7198772953096124
0.0711869800449446 0.5161396984770835 0.618940150076812
0.20872570630637519 0.3715871931736244 0.5843173888252716
0.2139022994382514 0.503994387783238 0.6912763258877074
0.3079811909792639 0.39186692114882726 0.7198772953096124
0.2711869800449446 0.5161396984770835 0.618940150076812
0.40872570630637517 0.3715871931736244 0.5843173888252716
0.4139022994382514 0.503994387783238 0.6912763258877074
0.5079811909792639 0.39186692114882726 0.7198772953096124
0.4711869800449446 0.5161396984770835 0.618940150076812
0.6087257063063752 0.3715871931736244 0.5843173888252716
0.6139022994382515 0.503994387783238 0.6912763258877074
0.7079811909792639 0.39186692114882726 0.7198772953096124
0.6711869800449446 0.5161396984770835 0.618940150076812
0.8087257063063753 0.3715871931736244 0.5843173888252716
0.8139022994382513 0.503994387783238 0.6912763258877074
0.9079811909792639 0.39186692114882726 0.7198772953096124
0.8711869800449445 0.5161396984770835 0.618940150076812
0.008725706306375178 0.5715871931736244 0.5843173888252716
0.01390229943825138 0.7039943877832381 0.6912763258877074
0.10798119097926391 0.5918669211488273 0.7198772953096124
0.0711869800449446 0.7161396984770836 0.618940150076812
0.20872570630637519 0.5715871931736244 0.5843173888252716
0.2139022994382514 0.7039943877832381 0.6912763258877074
0.3079811909792639 0.5918669211488273 0.7198772953096124
0.2711869800449446 0.7161396984770836 0.618940150076812
0.40872570630637517 0.5715871931736244 0.5843173888252716
0.4139022994382514 0.7039943877832381 0.6912763258877074
0.5079811909792639 0.5918669211488273 0.7198772953096124
0.4711869800449446 0.7161396984770836 0.618940150076812
0.6087257063063752 0.5715871931736244 0.5843173888252716
0.6139022994382515 0.7039943877832381 0.6912763258877074
0.7079811909792639 0.5918669211488273 0.7198772953096124
0.6711869800449446 0.7161396984770836 0.618940150076812
0.8087257063063753 0.5715871931736244 0.5843173888252716
0.8139022994382513 0.7039943877832381 0.6912763258877074
0.9079811909792639 0.5918669211488273 0.7198772953096124
0.8711869800449445 0.7161396984770836 0.618940150076812
0.008725706306375178 0.7715871931736245 0.5843173888252716
0.01390229943825138 0.903994387783238 0.6912763258877074
0.10798119097926391 0.7918669211488273 0.7198772953096124
0.0711869800449446 0.9161396984770835 0.618940150076812
0.20872570630637519 0.7715871931736245 0.5843173888252716
0.2139022994382514 0.903994387783238 0.6912763258877074
0.3079811909792639 0.7918669211488273 0.7198772953096124
0.2711869800449446 0.9161396984770835 0.618940150076812
0.40872570630637517 0.7715871931736245 0.5843173888252716
0.4139022994382514 0.903994387783238 0.6912763258877074
0.5079811909792639 0.7918669211488273 0.7198772953096124
0.4711869800449446 0.9161396984770835 0.618940150076812
0.6087257063063752 0.7715871931736245 0.5843173888252716
0.6139022994382515 0.903994387783238 0.6912763258877074
0.7079811909792639 0.7918669211488273 0.7198772953096124
0.6711869800449446 0.9161396984770835 0.618940150076812
0.8087257063063753 0.7715871931736245 0.5843173888252716
0.8139022994382513 0.903994387783238 0.6912763258877074
0.9079811909792639 0.7918669211488273 0.7198772953096124
0.8711869800449445 0.9161396984770835 0.618940150076812
0.008725706306375178 -0.028412806826375647 0.7843173888252717
0.01390229943825138 0.10399438778323802 0.8912763258877074
0.10798119097926391 -0.008133078851172778 0.9198772953096125
0.0711869800449446 0.1161396984770836 0.8189401500768121
0.20872570630637519 -0.028412806826375647 0.7843173888252717
0.2139022994382514 0.10399438778323802 0.8912763258877074
0.3079811909792639 -0.008133078851172778 0.9198772953096125
0.2711869800449446 0.1161396984770836 0.8189401500768121
0.40872570630637517 -0.028412806826375647 0.7843173888252717
0.4139022994382514 0.10399438778323802 0.8912763258877074
0.5079811909792639 -0.008133078851172778 0.9198772953096125
0.4711869800449446 0.1161396984770836 0.8189401500768121
0.6087257063063752 -0.028412806826375647 0.7843173888252717
0.6139022994382515 0.10399438778323802 0.8912763258877074
0.7079811909792639 -0.008133078851172778 0.9198772953096125
0.6711869800449446 0.1161396984770836 0.8189401500768121
0.8087257063063753 -0.028412806826375647 0.7843173888252717
0.8139022994382513 0.10399438778323802 0.8912763258877074
0.9079811909792639 -0.008133078851172778 0.9198772953096125
0.8711869800449445 0.1161396984770836 0.8189401500768121
0.008725706306375178 0.17158719317362436 0.7843173888252717
0.01390229943825138 0.30399438778323806 0.8912763258877074
0.10798119097926391 0.19186692114882722 0.9198772953096125
0.0711869800449446 0.3161396984770836 0.8189401500768121
0.20872570630637519 0.17158719317362436 0.7843173888252717
0.2139022994382514 0.30399438778323806 0.8912763258877074
0.3079811909792639 0.19186692114882722 0.9198772953096125
0.2711869800449446 0.3161396984770836 0.8189401500768121
0.40872570630637517 0.17158719317362436 0.7843173888252717
0.4139022994382514 0.30399438778323806 0.8912763258877074
0.5079811909792639 0.19186692114882722 0.9198772953096125
0.4711869800449446 0.3161396984770836 0.8189401500768121
0.6087257063063752 0.17158719317362436 0.7843173888252717
0.6139022994382515 0.30399438778323806 0.8912763258877074
0.7079811909792639 0.19186692114882722 0.9198772953096125
0.6711869800449446 0.3161396984770836 0.8189401500768121
0.8087257063063753 0.17158719317362436 0.7843173888252717
0.8139022994382513 0.30399438778323806 0.8912763258877074
0.9079811909792639 0.19186692114882722 0.9198772953096125
0.8711869800449445 0.3161396984770836 0.8189401500768121
0.008725706306375178 0.3715871931736244 0.7843173888252717
0.01390229943825138 0.503994387783238 0.8912763258877074
0.10798119097926391 0.39186692114882726 0.9198772953096125
0.0711869800449446 0.5161396984770835 0.8189401500768121
0.20872570630637519 0.3715871931736244 0.7843173888252717
0.2139022994382514 0.503994387783238 0.8912763258877074
0.3079811909792639 0.39186692114882726 0.9198772953096125
0.2711869800449446 0.5161396984770835 0.8189401500768121
0.40872570630637517 0.3715871931736244 0.7843173888252717
0.4139022994382514 0.503994387783238 0.8912763258877074
0.5079811909792639 0.39186692114882726 0.9198772953096125
0.4711869800449446 0.5161396984770835 0.8189401500768121
0.6087257063063752 0.3715871931736244 0.7843173888252717
0.6139022994382515 0.503994387783238 0.8912763258877074
0.7079811909792639 0.39186692114882726 0.9198772953096125
0.6711869800449446 0.5161396984770835 0.8189401500768121
0.8087257063063753 0.3715871931736244 0.7843173888252717
0.8139022994382513 0.503994387783238 0.8912763258877074
0.9079811909792639 0.39186692114882726 0.9198772953096125
0.8711869800449445 0.5161396984770835 0.8189401500768121
0.008725706306375178 0.5715871931736244 0.7843173888252717
0.01390229943825138 0.7039943877832381 0.8912763258877074
0.10798119097926391 0.5918669211488273 0.9198772953096125
0.0711869800449446 0.7161396984770836 0.8189401500768121
0.20872570630637519 0.5715871931736244 0.7843173888252717
0.2139022994382514 0.7039943877832381 0.8912763258877074
0.3079811909792639 0.5918669211488273 0.9198772953096125
0.2711869800449446 0.7161396984770836 0.8189401500768121
0.40872570630637517 0.5715871931736244 0.7843173888252717
0.4139022994382514 0.7039943877832381 0.8912763258877074
0.5079811909792639 0.5918669211488273 0.9198772953096125
0.4711869800449446 0.7161396984770836 0.8189401500768121
0.6087257063063752 0.5715871931736244 0.7843173888252717
0.6139022994382515 0.7039943877832381 0.8912763258877074
0.7079811909792639 0.5918669211488273 0.9198772953096125
0.6711869800449446 0.7161396984770836 0.8189401500768121
0.8087257063063753 0.5715871931736244 0.7843173888252717
0.8139022994382513 0.7039943877832381 0.8912763258877074
0.9079811909792639 0.5918669211488273 0.9198772953096125
0.8711869800449445 0.7161396984770836 0.8189401500768121
0.008725706306375178 0.7715871931736245 0.7843173888252717
0.01390229943825138 0.903994387783238 0.8912763258877074
0.10798119097926391 0.7918669211488273 0.9198772953096125
0.0711869800449446 0.9161396984770835 0.8189401500768121
0.20872570630637519 0.7715871931736245 0.7843173888252717
0.2139022994382514 0.903994387783238 0.8912763258877074
0.3079811909792639 0.7918669211488273 0.9198772953096125
0.2711869800449446 0.9161396984770835 0.8189401500768121
0.40872570630637517 0.7715871931736245 0.7843173888252717
0.4139022994382514 0.903994387783238 0.8912763258877074
0.5079811909792639 0.7918669211488273 0.9198772953096125
0.4711869800449446 0.9161396984770835 0.8189401500768121
0.6087257063063752 0.7715871931736245 0.7843173888252717
0.6139022994382515 0.903994387783238 0.8912763258877074
0.7079811909792639 0.7918669211488273 0.9198772953096125
0.6711869800449446 0.9161396984770835 0.8189401500768121
0.8087257063063753 0.7715871931736245 0.7843173888252717
0.8139022994382513 0.903994387783238 0.8912763258877074
0.9079811909792639 0.7918669211488273 0.9198772953096125
0.8711869800449445 0.9161396984770835 0.8189401500768121
0.10030876757417294 -0.029966479443950225 -0.02033611011052971
-0.0014646368666267472 0.10078348703310974 -0.018213574063648416
-0.01713270973430802 0.029888328971990508 0.09242198352999086
0.12595885124999057 0.08109895854157374 0.11824014751704698
0.3003087675741729 -0.029966479443950225 -0.02033611011052971
0.19853536313337328 0.10078348703310974 -0.018213574063648416
0.18286729026569198 0.029888328971990508 0.09242198352999086
0.3259588512499906 0.08109895854157374 0.11824014751704698
0.500308767574173 -0.029966479443950225 -0.02033611011052971
0.39853536313337323 0.10078348703310974 -0.018213574063648416
0.382867290265692 0.029888328971990508 0.09242198352999086
0.5259588512499905 0.08109895854157374 0.11824014751704698
0.7003087675741729 -0.029966479443950225 -0.02033611011052971
0.5985353631333733 0.10078348703310974 -0.018213574063648416
0.5828672902656921 0.029888328971990508 0.09242198352999086
0.7259588512499906 0.08109895854157374 0.11824014751704698
0.900308767574173 -0.029966479443950225 -0.02033611011052971
0.7985353631333734 0.10078348703310974 -0.018213574063648416
0.782867290265692 0.029888328971990508 0.09242198352999086
0.9259588512499907 0.08109895854157374 0.11824014751704698
0.10030876757417294 0.1700335205560498 -0.02033611011052971
-0.0014646368666267472 0.30078348703310975 -0.018213574063648416
-0.01713270973430802 0.22988832897199052 0.09242198352999086
0.12595885124999057 0.28109895854157374 0.11824014751704698
0.3003087675741729 0.1700335205560498 -0.02033611011052971
0.19853536313337328 0.30078348703310975 -0.018213574063648416
0.18286729026569198 0.22988832897199052 0.09242198352999086
0.3259588512499906 0.28109895854157374 0.11824014751704698
0.500308767574173 0.1700335205560498 -0.02033611011052971
0.39853536313337323 0.30078348703310975 -0.018213574063648416
0.382867290265692 0.22988832897199052 0.09242198352999086
0.5259588512499905 0.28109895854157374 0.11824014751704698
0.7003087675741729 0.1700335205560498 -0.02033611011052971
0.5985353631333733 0.30078348703310975 -0.018213574063648416
0.5828672902656921 0.22988832897199052 0.09242198352999086
0.7259588512499906 0.28109895854157374 0.11824014751704698
0.900308767574173 0.1700335205560498 -0.02033611011052971
0.7985353631333734 0.30078348703310975 -0.018213574063648416
0.782867290265692 0.22988832897199052 0.09242198352999086
0.9259588512499907 0.28109895854157374 0.11824014751704698
0.10030876757417294 0.3700335205560498 -0.02033611011052971
-0.0014646368666267472 0.5007834870331097 -0.018213574063648416
-0.01713270973430802 0.42988832897199053 0.09242198352999086
0.12595885124999057 0.48109895854157375 0.11824014751704698
0.3003087675741729 0.3700335205560498 -0.02033611011052971
0.19853536313337328 0.5007834870331097 -0.018213574063648416
0.18286729026569198 0.42988832897199053 0.09242198352999086
0.3259588512499906 0.48109895854157375 0.11824014751704698
0.500308767574173 0.3700335205560498 -0.02033611011052971
0.39853536313337323 0.5007834870331097 -0.018213574063648416
0.382867290265692 0.42988832897199053 0.09242198352999086
0.5259588512499905 0.48109895854157375 0.11824014751704698
0.7003087675741729 0.3700335205560498 -0.02033611011052971
0.5985353631333733 0.5007834870331097 -0.018213574063648416
0.5828672902656921 0.42988832897199053 0.09242198352999086
0.7259588512499906 0.48109895854157375 0.11824014751704698
0.900308767574173 0.3700335205560498 -0.02033611011052971
0.7985353631333734 0.5007834870331097 -0.018213574063648416
0.782867290265692 0.42988832897199053 0.09242198352999086
0.9259588512499907 0.48109895854157375 0.11824014751704698
0.10030876757417294 0.5700335205560497 -0.02033611011052971
-0.0014646368666267472 0.7007834870331098 -0.018213574063648416
-0.01713270973430802 0.6298883289719905 0.09242198352999086
0.12595885124999057 0.6810989585415738 0.11824014751704698
0.3003087675741729 0.5700335205560497 -0.02033611011052971
0.19853536313337328 0.7007834870331098 -0.018213574063648416
0.18286729026569198 0.6298883289719905 0.09242198352999086
0.3259588512499906 0.6810989585415738 0.11824014751704698
0.500308767574173 0.5700335205560497 -0.02033611011052971
0.39853536313337323 0.7007834870331098 -0.018213574063648416
0.382867290265692 0.6298883289719905 0.09242198352999086
0.5259588512499905 0.6810989585415738 0.11824014751704698
0.7003087675741729 0.5700335205560497 -0.02033611011052971
0.5985353631333733 0.7007834870331098 -0.018213574063648416
0.5828672902656921 0.6298883289719905 0.09242198352999086
0.7259588512499906 0.6810989585415738 0.11824014751704698
0.900308767574173 0.5700335205560497 -0.02033611011052971
0.7985353631333734 0.7007834870331098 -0.018213574063648416
0.782867290265692 0.6298883289719905 0.09242198352999086
0.9259588512499907 0.6810989585415738 0.11824014751704698
0.10030876757417294 0.7700335205560498 -0.02033611011052971
-0.0014646368666267472 0.9007834870331097 -0.018213574063648416
-0.01713270973430802 0.8298883289719905 0.09242198352999086
0.12595885124999057 0.8810989585415737 0.11824014751704698
0.3003087675741729 0.7700335205560498 -0.02033611011052971
0.19853536313337328 0.9007834870331097 -0.018213574063648416
0.18286729026569198 0.8298883289719905 0.09242198352999086
0.3259588512499906 0.8810989585415737 0.11824014751704698
0.500308767574173 0.7700335205560498 -0.02033611011052971
0.39853536313337323 0.9007834870331097 -0.018213574063648416
0.382867290265692 0.8298883289719905 0.09242198352999086
0.5259588512499905 0.8810989585415737 0.11824014751704698
0.7003087675741729 0.7700335205560498 -0.02033611011052971
0.5985353631333733 0.9007834870331097 -0.018213574063648416
0.5828672902656921 0.8298883289719905 0.09242198352999086
0.7259588512499906 0.8810989585415737 0.11824014751704698
0.900308767574173 0.7700335205560498 -0.02033611011052971
0.7985353631333734 0.9007834870331097 -0.018213574063648416
0.782867290265692 0.8298883289719905 0.09242198352999086
0.9259588512499907 0.8810989585415737 0.11824014751704698
0.10030876757417294 -0.029966479443950225 0.1796638898894703
-0.0014646368666267472 0.10078348703310974 0.1817864259363516
-0.01713270973430802 0.029888328971990508 0.2924219835299908
0.12595885124999057 0.08109895854157374 0.318240147517047
0.3003087675741729 -0.029966479443950225 0.1796638898894703
0.19853536313337328 0.10078348703310974 0.1817864259363516
0.18286729026569198 0.029888328971990508 0.2924219835299908
0.3259588512499906 0.08109895854157374 0.318240147517047
0.500308767574173 -0.029966479443950225 0.1796638898894703
0.39853536313337323 0.10078348703310974 0.1817864259363516
0.382867290265692 0.029888328971990508 0.2924219835299908
0.5259588512499905 0.08109895854157374 0.318240147517047
0.7003087675741729 -0.029966479443950225 0.1796638898894703
0.5985353631333733 0.10078348703310974 0.1817864259363516
0.5828672902656921 0.029888328971990508 0.2924219835299908
0.7259588512499906 0.08109895854157374 0.318240147517047
0.900308767574173 -0.029966479443950225 0.1796638898894703
0.7985353631333734 0.10078348703310974 0.1817864259363516
0.782867290265692 0.029888328971990508 0.2924219835299908
0.9259588512499907 0.08109895854157374 0.318240147517047
0.10030876757417294 0.1700335205560498 0.1796638898894703
-0.0014646368666267472 0.30078348703310975 0.1817864259363516
-0.01713270973430802 0.22988832897199052 0.2924219835299908
0.12595885124999057 0.28109895854157374 0.318240147517047
0.3003087675741729 0.1700335205560498 0.1796638898894703
0.19853536313337328 0.30078348703310975 0.1817864259363516
0.18286729026569198 0.22988832897199052 0.2924219835299908
0.3259588512499906 0.28109895854157374 0.318240147517047
0.500308767574173 0.1700335205560498 0.1796638898894703
0.39853536313337323 0.30078348703310975 0.1817864259363516
0.382867290265692 0.22988832897199052 0.2924219835299908
0.5259588512499905 0.28109895854157374 0.318240147517047
0.7003087675741729 0.1700335205560498 0.1796638898894703
0.5985353631333733 0.30078348703310975 0.1817864259363516
0.5828672902656921 0.22988832897199052 0.2924219835299908
0.7259588512499906 0.28109895854157374 0.318240147517047
0.900308767574173 0.1700335205560498 0.1796638898894703
0.7985353631333734 0.30078348703310975 0.1817864259363516
0.782867290265692 0.22988832897199052 0.2924219835299908
0.9259588512499907 0.28109895854157374 0.318240147517047
0.10030876757417294 0.3700335205560498 0.1796638898894703
-0.0014646368666267472 0.5007834870331097 0.1817864259363516
-0.01713270973430802 0.42988832897199053 0.2924219835299908
0.12595885124999057 0.48109895854157375 0.318240147517047
0.3003087675741729 0.3700335205560498 0.1796638898894703
0.19853536313337328 0.5007834870331097 0.1817864259363516
0.18286729026569198 0.42988832897199053 0.2924219835299908
0.3259588512499906 0.48109895854157375 0.318240147517047
0.500308767574173 0.3700335205560498 0.1796638898894703
0.39853536313337323 0.5007834870331097 0.1817864259363516
0.382867290265692 0.42988832897199053 0.2924219835299908
0.5259588512499905 0.48109895854157375 0.318240147517047
0.7003087675741729 0.3700335205560498 0.1796638898894703
0.5985353631333733 0.5007834870331097 0.1817864259363516
0.5828672902656921 0.42988832897199053 0.2924219835299908
0.7259588512499906 0.48109895854157375 0.318240147517047
0.900308767574173 0.3700335205560498 0.1796638898894703
0.7985353631333734 0.5007834870331097 0.1817864259363516
0.782867290265692 0.42988832897199053 0.2924219835299908
0.9259588512499907 0.48109895854157375 0.318240147517047
0.10030876757417294 0.5700335205560497 0.1796638898894703
-0.0014646368666267472 0.7007834870331098 0.1817864259363516
-0.01713270973430802 0.6298883289719905 0.2924219835299908
0.12595885124999057 0.6810989585415738 0.318240147517047
0.3003087675741729 0.5700335205560497 0.1796638898894703
0.19853536313337328 0.7007834870331098 0.1817864259363516
0.18286729026569198 0.6298883289719905 0.2924219835299908
0.3259588512499906 0.6810989585415738 0.318240147517047
0.500308767574173 0.5700335205560497 0.1796638898894703
0.39853536313337323 0.7007834870331098 0.1817864259363516
0.382867290265692 0.6298883289719905 0.2924219835299908
0.5259588512499905 0.6810989585415738 0.318240147517047
0.7003087675741729 0.5700335205560497 0.1796638898894703
0.5985353631333733 0.7007834870331098 0.1817864259363516
0.5828672902656921 0.6298883289719905 0.2924219835299908
0.7259588512499906 0.6810989585415738 0.318240147517047
0.900308767574173 0.5700335205560497 0.1796638898894703
0.7985353631333734 0.7007834870331098 0.1817864259363516
0.782867290265692 0.6298883289719905 0.2924219835299908
0.9259588512499907 0.6810989585415738 0.318240147517047
0.10030876757417294 0.7700335205560498 0.1796638898894703
-0.0014646368666267472 0.9007834870331097 0.1817864259363516
-0.01713270973430802 0.8298883289719905 0.2924219835299908
0.12595885124999057 0.8810989585415737 0.318240147517047
0.3003087675741729 0.7700335205560498 0.1796638898894703
0.19853536313337328 0.9007834870331097 0.1817864259363516
0.18286729026569198 0.8298883289719905 0.2924219835299908
0.3259588512499906 0.8810989585415737 0.318240147517047
0.500308767574173 0.7700335205560498 0.1796638898894703
0.39853536313337323 0.9007834870331097 0.1817864259363516
0.382867290265692 0.8298883289719905 0.2924219835299908
0.5259588512499905 0.8810989585415737 0.318240147517047
0.7003087675741729 0.7700335205560498 0.1796638898894703
0.5985353631333733 0.9007834870331097 0.1817864259363516
0.5828672902656921 0.8298883289719905 0.2924219835299908
0.7259588512499906 0.8810989585415737 0.318240147517047
0.900308767574173 0.7700335205560498 0.1796638898894703
0.7985353631333734 0.9007834870331097 0.1817864259363516
0.782867290265692 0.8298883289719905 0.2924219835299908
0.9259588512499907 0.8810989585415737 0.318240147517047
0.10030876757417294 -0.029966479443950225 0.3796638898894703
-0.0014646368666267472 0.10078348703310974 0.3817864259363516
-0.01713270973430802 0.029888328971990508 0.49242198352999084
0.12595885124999057 0.08109895854157374 0.518240147517047
0.3003087675741729 -0.029966479443950225 0.3796638898894703
0.19853536313337328 0.10078348703310974 0.3817864259363516
0.18286729026569198 0.029888328971990508 0.49242198352999084
0.3259588512499906 0.08109895854157374 0.518240147517047
0.500308767574173 -0.029966479443950225 0.3796638898894703
0.39853536313337323 0.10078348703310974 0.3817864259363516
0.382867290265692 0.029888328971990508 0.49242198352999084
0.5259588512499905 0.08109895854157374 0.518240147517047
0.7003087675741729 -0.029966479443950225 0.3796638898894703
0.5985353631333733 0.10078348703310974 0.3817864259363516
0.5828672902656921 0.029888328971990508 0.49242198352999084
0.7259588512499906 0.08109895854157374 0.518240147517047
0.900308767574173 -0.029966479443950225 0.3796638898894703
0.7985353631333734 0.10078348703310974 0.3817864259363516
0.782867290265692 0.029888328971990508 0.49242198352999084
0.9259588512499907 0.08109895854157374 0.518240147517047
0.10030876757417294 0.1700335205560498 0.3796638898894703
-0.0014646368666267472 0.30078348703310975 0.3817864259363516
-0.01713270973430802 0.22988832897199052 0.49242198352999084
0.12595885124999057 0.28109895854157374 0.518240147517047
0.3003087675741729 0.1700335205560498 0.3796638898894703
0.19853536313337328 0.30078348703310975 0.3817864259363516
0.18286729026569198 0.22988832897199052 0.49242198352999084
0.3259588512499906 0.28109895854157374 0.518240147517047
0.500308767574173 0.1700335205560498 0.3796638898894703
0.39853536313337323 0.30078348703310975 0.3817864259363516
0.382867290265692 0.22988832897199052 0.49242198352999084
0.5259588512499905 0.28109895854157374 0.518240147517047
0.7003087675741729 0.1700335205560498 0.3796638898894703
0.5985353631333733 0.30078348703310975 0.3817864259363516
0.5828672902656921 0.22988832897199052 0.49242198352999084
0.7259588512499906 0.28109895854157374 0.518240147517047
0.900308767574173 0.1700335205560498 0.3796638898894703
0.7985353631333734 0.30078348703310975 0.3817864259363516
0.782867290265692 0.22988832897199052 0.49242198352999084
0.9259588512499907 0.28109895854157374 0.518240147517047
0.10030876757417294 0.3700335205560498 0.3796638898894703
-0.0014646368666267472 0.5007834870331097 0.3817864259363516
-0.01713270973430802 0.42988832897199053 0.49242198352999084
0.12595885124999057 0.48109895854157375 0.518240147517047
0.3003087675741729 0.3700335205560498 0.3796638898894703
0.19853536313337328 0.5007834870331097 0.3817864259363516
0.18286729026569198 0.42988832897199053 0.49242198352999084
0.3259588512499906 0.48109895854157375 0.518240147517047
0.500308767574173 0.3700335205560498 0.3796638898894703
0.39853536313337323 0.5007834870331097 0.3817864259363516
0.382867290265692 0.42988832897199053 0.49242198352999084
0.5259588512499905 0.48109895854157375 0.518240147517047
0.7003087675741729 0.3700335205560498 0.3796638898894703
0.5985353631333733 0.5007834870331097 0.3817864259363516
0.5828672902656921 0.42988832897199053 0.49242198352999084
0.7259588512499906 0.48109895854157375 0.518240147517047
0.900308767574173 0.3700335205560498 0.3796638898894703
0.7985353631333734 0.5007834870331097 0.3817864259363516
0.782867290265692 0.42988832897199053 0.49242198352999084
0.9259588512499907 0.48109895854157375 0.518240147517047
0.10030876757417294 0.5700335205560497 0.3796638898894703
-0.0014646368666267472 0.7007834870331098 0.3817864259363516
-0.01713270973430802 0.6298883289719905 0.49242198352999084
0.12595885124999057 0.6810989585415738 0.518240147517047
0.3003087675741729 0.5700335205560497 0.3796638898894703
0.19853536313337328 0.7007834870331098 0.3817864259363516
0.18286729026569198 0.6298883289719905 0.49242198352999084
0.3259588512499906 0.6810989585415738 0.518240147517047
0.500308767574173 0.5700335205560497 0.3796638898894703
0.39853536313337323 0.7007834870331098 0.3817864259363516
0.382867290265692 0.6298883289719905 0.49242198352999084
0.5259588512499905 0.6810989585415738 0.518240147517047
0.7003087675741729 0.5700335205560497 0.3796638898894703
0.5985353631333733 0.7007834870331098 0.3817864259363516
0.5828672902656921 0.6298883289719905 0.49242198352999084
0.7259588512499906 0.6810989585415738 0.518240147517047
0.900308767574173 0.5700335205560497 0.3796638898894703
0.7985353631333734 0.7007834870331098 0.3817864259363516
0.782867290265692 0.6298883289719905 0.49242198352999084
0.9259588512499907 0.6810989585415738 0.518240147517047
0.10030876757417294 0.7700335205560498 0.3796638898894703
-0.0014646368666267472 0.9007834870331097 0.3817864259363516
-0.01713270973430802 0.8298883289719905 0.49242198352999084
0.12595885124999057 0.8810989585415737 0.518240147517047
0.3003087675741729 0.7700335205560498 0.3796638898894703
0.19853536313337328 0.9007834870331097 0.3817864259363516
0.18286729026569198 0.8298883289719905 0.49242198352999084
0.3259588512499906 0.8810989585415737 0.518240147517047
0.500308767574173 0.7700335205560498 0.3796638898894703
0.39853536313337323 0.9007834870331097 0.3817864259363516
0.382867290265692 0.8298883289719905 0.49242198352999084
0.5259588512499905 0.8810989585415737 0.518240147517047
0.7003087675741729 0.7700335205560498 0.3796638898894703
0.5985353631333733 0.9007834870331097 0.3817864259363516
0.5828672902656921 0.8298883289719905 0.49242198352999084
0.7259588512499906 0.8810989585415737 0.518240147517047
0.900308767574173 0.7700335205560498 0.3796638898894703
0.7985353631333734 0.9007834870331097 0.3817864259363516
0.782867290265692 0.8298883289719905 0.49242198352999084
0.9259588512499907 0.8810989585415737 0.518240147517047
0.10030876757417294 -0.029966479443950225 0.5796638898894704
-0.0014646368666267472 0.10078348703310974 0.5817864259363515
-0.01713270973430802 0.029888328971990508 0.6924219835299908
0.12595885124999057 0.08109895854157374 0.718240147517047
0.3003087675741729 -0.029966479443950225 0.5796638898894704
0.19853536313337328 0.10078348703310974 0.5817864259363515
0.18286729026569198 0.029888328971990508 0.6924219835299908
0.3259588512499906 0.08109895854157374 0.718240147517047
0.500308767574173 -0.029966479443950225 0.5796638898894704
0.39853536313337323 0.10078348703310974 0.5817864259363515
0.382867290265692 0.029888328971990508 0.6924219835299908
0.5259588512499905 0.08109895854157374 0.718240147517047
0.7003087675741729 -0.029966479443950225 0.5796638898894704
0.5985353631333733 0.10078348703310974 0.5817864259363515
0.5828672902656921 0.029888328971990508 0.6924219835299908
0.7259588512499906 0.08109895854157374 0.718240147517047
0.900308767574173 -0.029966479443950225 0.5796638898894704
0.7985353631333734 0.10078348703310974 0.5817864259363515
0.782867290265692 0.029888328971990508 0.6924219835299908
0.9259588512499907 0.08109895854157374 0.718240147517047
0.10030876757417294 0.1700335205560498 0.5796638898894704
-0.0014646368666267472 0.30078348703310975 0.5817864259363515
-0.01713270973430802 0.22988832897199052 0.6924219835299908
0.12595885124999057 0.28109895854157374 0.718240147517047
0.3003087675741729 0.1700335205560498 0.5796638898894704
0.19853536313337328 0.30078348703310975 0.5817864259363515
0.18286729026569198 0.22988832897199052 0.6924219835299908
0.3259588512499906 0.28109895854157374 0.718240147517047
0.500308767574173 0.1700335205560498 0.5796638898894704
0.39853536313337323 0.30078348703310975 0.5817864259363515
0.382867290265692 0.22988832897199052 0.6924219835299908
0.5259588512499905 0.28109895854157374 0.718240147517047
0.7003087675741729 0.1700335205560498 0.5796638898894704
0.5985353631333733 0.30078348703310975 0.5817864259363515
0.5828672902656921 0.22988832897199052 0.6924219835299908
0.7259588512499906 0.28109895854157374 0.718240147517047
0.900308767574173 0.1700335205560498 0.5796638898894704
0.7985353631333734 0.30078348703310975 0.5817864259363515
0.782867290265692 0.22988832897199052 0.6924219835299908
0.9259588512499907 0.28109895854157374 0.718240147517047
0.10030876757417294 0.3700335205560498 0.5796638898894704
-0.0014646368666267472 0.5007834870331097 0.5817864259363515
-0.01713270973430802 0.42988832897199053 0.6924219835299908
0.12595885124999057 0.48109895854157375 0.718240147517047
0.3003087675741729 0.3700335205560498 0.5796638898894704
0.19853536313337328 0.5007834870331097 0.5817864259363515
0.18286729026569198 0.42988832897199053 0.6924219835299908
0.3259588512499906 0.48109895854157375 0.718240147517047
0.500308767574173 0.3700335205560498 0.5796638898894704
0.39853536313337323 0.5007834870331097 0.5817864259363515
0.382867290265692 0.42988832897199053 0.6924219835299908
0.5259588512499905 0.48109895854157375 0.718240147517047
0.7003087675741729 0.3700335205560498 0.5796638898894704
0.5985353631333733 0.5007834870331097 0.5817864259363515
0.5828672902656921 0.42988832897199053 0.6924219835299908
0.7259588512499906 0.48109895854157375 0.718240147517047
0.900308767574173 0.3700335205560498 0.5796638898894704
0.7985353631333734 0.5007834870331097 0.5817864259363515
0.782867290265692 0.42988832897199053 0.6924219835299908
0.9259588512499907 0.48109895854157375 0.718240147517047
0.10030876757417294 0.5700335205560497 0.5796638898894704
-0.0014646368666267472 0.7007834870331098 0.5817864259363515
-0.01713270973430802 0.6298883289719905 0.6924219835299908
0.12595885124999057 0.6810989585415738 0.718240147517047
0.3003087675741729 0.5700335205560497 0.5796638898894704
0.19853536313337328 0.7007834870331098 0.5817864259363515
0.18286729026569198 0.6298883289719905 0.6924219835299908
0.3259588512499906 0.6810989585415738 0.718240147517047
0.500308767574173 0.5700335205560497 0.5796638898894704
0.39853536313337323 0.7007834870331098 0.5817864259363515
0.382867290265692 0.6298883289719905 0.6924219835299908
0.5259588512499905 0.6810989585415738 0.718240147517047
0.7003087675741729 0.5700335205560497 0.5796638898894704
0.5985353631333733 0.7007834870331098 0.5817864259363515
0.5828672902656921 0.6298883289719905 0.6924219835299908
0.7259588512499906 0.6810989585415738 0.718240147517047
0.900308767574173 0.5700335205560497 0.5796638898894704
0.7985353631333734 0.7007834870331098 0.5817864259363515
0.782867290265692 0.6298883289719905 0.6924219835299908
0.9259588512499907 0.6810989585415738 0.718240147517047
0.10030876757417294 0.7700335205560498 0.5796638898894704
-0.0014646368666267472 0.9007834870331097 0.5817864259363515
-0.01713270973430802 0.8298883289719905 0.6924219835299908
0.12595885124999057 0.8810989585415737 0.718240147517047
0.3003087675741729 0.7700335205560498 0.5796638898894704
0.19853536313337328 0.9007834870331097 0.5817864259363515
0.18286729026569198 0.8298883289719905 0.6924219835299908
0.3259588512499906 0.8810989585415737 0.718240147517047
0.500308767574173 0.7700335205560498 0.5796638898894704
0.39853536313337323 0.9007834870331097 0.5817864259363515
0.382867290265692 0.8298883289719905 0.6924219835299908
0.5259588512499905 0.8810989585415737 0.718240147517047
0.7003087675741729 0.7700335205560498 0.5796638898894704
0.5985353631333733 0.9007834870331097 0.5817864259363515
0.5828672902656921 0.8298883289719905 0.6924219835299908
0.7259588512499906 0.8810989585415737 0.718240147517047
0.900308767574173 0.7700335205560498 0.5796638898894704
0.7985353631333734 0.9007834870331097 0.5817864259363515
0.782867290265692 0.8298883289719905 0.6924219835299908
0.9259588512499907 0.8810989585415737 0.718240147517047
0.10030876757417294 -0.029966479443950225 0.7796638898894703
-0.0014646368666267472 0.10078348703310974 0.7817864259363516
-0.01713270973430802 0.029888328971990508 0.8924219835299909
0.12595885124999057 0.08109895854157374 0.918240147517047
0.3003087675741729 -0.029966479443950225 0.7796638898894703
0.19853536313337328 0.10078348703310974 0.7817864259363516
0.18286729026569198 0.029888328971990508 0.8924219835299909
0.3259588512499906 0.08109895854157374 0.918240147517047
0.500308767574173 -0.029966479443950225 0.7796638898894703
0.39853536313337323 0.10078348703310974 0.7817864259363516
0.382867290265692 0.029888328971990508 0.8924219835299909
0.5259588512499905 0.08109895854157374 0.918240147517047
0.7003087675741729 -0.029966479443950225 0.7796638898894703
0.5985353631333733 0.10078348703310974 0.7817864259363516
0.5828672902656921 0.029888328971990508 0.8924219835299909
0.7259588512499906 0.08109895854157374 0.918240147517047
0.900308767574173 -0.029966479443950225 0.7796638898894703
0.7985353631333734 0.10078348703310974 0.7817864259363516
0.782867290265692 0.029888328971990508 0.8924219835299909
0.9259588512499907 0.08109895854157374 0.918240147517047
0.10030876757417294 0.1700335205560498 0.7796638898894703
-0.0014646368666267472 0.30078348703310975 0.7817864259363516
-0.01713270973430802 0.22988832897199052 0.8924219835299909
0.12595885124999057 0.28109895854157374 0.918240147517047
0.3003087675741729 0.1700335205560498 0.7796638898894703
0.19853536313337328 0.30078348703310975 0.7817864259363516
0.18286729026569198 0.22988832897199052 0.8924219835299909
0.3259588512499906 0.28109895854157374 0.918240147517047
0.500308767574173 0.1700335205560498 0.7796638898894703
0.39853536313337323 0.30078348703310975 0.7817864259363516
0.382867290265692 0.22988832897199052 0.8924219835299909
0.5259588512499905 0.28109895854157374 0.918240147517047
0.7003087675741729 0.1700335205560498 0.7796638898894703
0.5985353631333733 0.30078348703310975 0.7817864259363516
0.5828672902656921 0.22988832897199052 0.8924219835299909
0.7259588512499906 0.28109895854157374 0.918240147517047
0.900308767574173 0.1700335205560498 0.7796638898894703
0.7985353631333734 0.30078348703310975 0.7817864259363516
0.782867290265692 0.22988832897199052 0.8924219835299909
0.9259588512499907 0.28109895854157374 0.918240147517047
0.10030876757417294 0.3700335205560498 0.7796638898894703
-0.0014646368666267472 0.5007834870331097 0.7817864259363516
-0.01713270973430802 0.42988832897199053 0.8924219835299909
0.12595885124999057 0.48109895854157375 0.918240147517047
0.3003087675741729 0.3700335205560498 0.7796638898894703
0.19853536313337328 0.5007834870331097 0.7817864259363516
0.18286729026569198 0.42988832897199053 0.8924219835299909
0.3259588512499906 0.48109895854157375 0.918240147517047
0.500308767574173 0.3700335205560498 0.7796638898894703
0.39853536313337323 0.5007834870331097 0.7817864259363516
0.382867290265692 0.42988832897199053 0.8924219835299909
0.5259588512499905 0.48109895854157375 0.918240147517047
0.7003087675741729 0.3700335205560498 0.7796638898894703
0.5985353631333733 0.5007834870331097 0.7817864259363516
0.5828672902656921 0.42988832897199053 0.8924219835299909
0.7259588512499906 0.48109895854157375 0.918240147517047
0.900308767574173 0.3700335205560498 0.7796638898894703
0.7985353631333734 0.5007834870331097 0.7817864259363516
0.782867290265692 0.42988832897199053 0.8924219835299909
0.9259588512499907 0.48109895854157375 0.918240147517047
0.10030876757417294 0.5700335205560497 0.7796638898894703
-0.0014646368666267472 0.7007834870331098 0.7817864259363516
-0.01713270973430802 0.6298883289719905 0.8924219835299909
0.12595885124999057 0.6810989585415738 0.918240147517047
0.3003087675741729 0.5700335205560497 0.7796638898894703
0.19853536313337328 0.7007834870331098 0.7817864259363516
0.18286729026569198 0.6298883289719905 0.8924219835299909
0.3259588512499906 0.6810989585415738 0.918240147517047
0.500308767574173 0.5700335205560497 0.7796638898894703
0.39853536313337323 0.7007834870331098 0.7817864259363516
0.382867290265692 0.6298883289719905 0.8924219835299909
0.5259588512499905 0.6810989585415738 0.918240147517047
0.7003087675741729 0.5700335205560497 0.7796638898894703
0.5985353631333733 0.7007834870331098 0.7817864259363516
0.5828672902656921 0.6298883289719905 0.8924219835299909
0.7259588512499906 0.6810989585415738 0.918240147517047
0.900308767574173 0.5700335205560497 0.7796638898894703
0.7985353631333734 0.7007834870331098 0.7817864259363516
0.782867290265692 0.6298883289719905 0.8924219835299909
0.9259588512499907 0.6810989585415738 0.918240147517047
0.10030876757417294 0.7700335205560498 0.7796638898894703
-0.0014646368666267472 0.9007834870331097 0.7817864259363516
-0.01713270973430802 0.8298883289719905 0.8924219835299909
0.12595885124999057 0.8810989585415737 0.918240147517047
0.3003087675741729 0.7700335205560498 0.7796638898894703
0.19853536313337328 0.9007834870331097 0.7817864259363516
0.18286729026569198 0.8298883289719905 0.8924219835299909
0.3259588512499906 0.8810989585415737 0.918240147517047
0.500308767574173 0.7700335205560498 0.7796638898894703
0.39853536313337323 0.9007834870331097 0.7817864259363516
0.382867290265692 0.8298883289719905 0.8924219835299909
0.5259588512499905 0.8810989585415737 0.918240147517047
0.7003087675741729 0.7700335205560498 0.7796638898894703
0.5985353631333733 0.9007834870331097 0.7817864259363516
0.5828672902656921 0.8298883289719905 0.8924219835299909
0.7259588512499906 0.8810989585415737 0.918240147517047
0.900308767574173 0.7700335205560498 0.7796638898894703
0.7985353631333734 0.9007834870331097 0.7817864259363516
0.782867290265692 0.8298883289719905 0.8924219835299909
0.9259588512499907 0.8810989585415737 0.918240147517047
