FCC BaO
3.971
5.0 0.0 0.0
0.0 5.0 0.0
0.0 0.0 5.0
Ba O 
500 500 
Direct
0.016921183534755403 0.014248125155307543 0.016968931631468127
0.007678388756273233 0.12129277758184981 0.09379094638753686
0.09981407055368739 -0.013542004138214934 0.12104181987387529
0.12193849966061697 0.07412223627837602 0.002156010520891151
0.21692118353475542 0.014248125155307543 0.016968931631468127
0.20767838875627326 0.12129277758184981 0.09379094638753686
0.29981407055368736 -0.013542004138214934 0.12104181987387529
0.321938499660617 0.07412223627837602 0.002156010520891151
0.4169211835347554 0.014248125155307543 0.016968931631468127
0.40767838875627327 0.12129277758184981 0.09379094638753686
0.4998140705536874 -0.013542004138214934 0.12104181987387529
0.521938499660617 0.07412223627837602 0.002156010520891151
0.6169211835347554 0.014248125155307543 0.016968931631468127
0.6076783887562733 0.12129277758184981 0.09379094638753686
0.6998140705536874 -0.013542004138214934 0.12104181987387529
0.7219384996606171 0.07412223627837602 0.002156010520891151
0.8169211835347554 0.014248125155307543 0.016968931631468127
0.8076783887562732 0.12129277758184981 0.09379094638753686
0.8998140705536875 -0.013542004138214934 0.12104181987387529
0.921938499660617 0.07412223627837602 0.002156010520891151
0.016921183534755403 0.21424812515530756 0.016968931631468127
0.007678388756273233 0.3212927775818498 0.09379094638753686
0.09981407055368739 0.18645799586178508 0.12104181987387529
0.12193849966061697 0.274122236278376 0.002156010520891151
0.21692118353475542 0.21424812515530756 0.016968931631468127
0.20767838875627326 0.3212927775818498 0.09379094638753686
0.29981407055368736 0.18645799586178508 0.12104181987387529
0.321938499660617 0.274122236278376 0.002156010520891151
0.4169211835347554 0.21424812515530756 0.016968931631468127
0.40767838875627327 0.3212927775818498 0.09379094638753686
0.4998140705536874 0.18645799586178508 0.12104181987387529
0.521938499660617 0.274122236278376 0.002156010520891151
0.6169211835347554 0.21424812515530756 0.016968931631468127
0.6076783887562733 0.3212927775818498 0.09379094638753686
0.6998140705536874 0.18645799586178508 0.12104181987387529
0.7219384996606171 0.274122236278376 0.002156010520891151
0.8169211835347554 0.21424812515530756 0.016968931631468127
0.8076783887562732 0.3212927775818498 0.09379094638753686
0.8998140705536875 0.18645799586178508 0.12104181987387529
0.921938499660617 0.274122236278376 0.002156010520891151
0.016921183534755403 0.41424812515530757 0.016968931631468127
0.007678388756273233 0.5212927775818498 0.09379094638753686
0.09981407055368739 0.3864579958617851 0.12104181987387529
0.12193849966061697 0.474122236278376 0.002156010520891151
0.21692118353475542 0.41424812515530757 0.016968931631468127
0.20767838875627326 0.5212927775818498 0.09379094638753686
0.29981407055368736 0.3864579958617851 0.12104181987387529
0.321938499660617 0.474122236278376 0.002156010520891151
0.4169211835347554 0.41424812515530757 0.016968931631468127
0.40767838875627327 0.5212927775818498 0.09379094638753686
0.4998140705536874 0.3864579958617851 0.12104181987387529
0.521938499660617 0.474122236278376 0.002156010520891151
0.6169211835347554 0.41424812515530757 0.016968931631468127
0.6076783887562733 0.5212927775818498 0.09379094638753686
0.6998140705536874 0.3864579958617851 0.12104181987387529
0.7219384996606171 0.474122236278376 0.002156010520891151
0.8169211835347554 0.41424812515530757 0.016968931631468127
0.8076783887562732 0.5212927775818498 0.09379094638753686
0.8998140705536875 0.3864579958617851 0.12104181987387529
0.921938499660617 0.474122236278376 0.002156010520891151
0.016921183534755403 0.6142481251553076 0.016968931631468127
0.007678388756273233 0.7212927775818498 0.09379094638753686
0.09981407055368739 0.5864579958617852 0.12104181987387529
0.12193849966061697 0.6741222362783761 0.002156010520891151
0.21692118353475542 0.6142481251553076 0.016968931631468127
0.20767838875627326 0.7212927775818498 0.09379094638753686
0.29981407055368736 0.5864579958617852 0.12104181987387529
0.321938499660617 0.6741222362783761 0.002156010520891151
0.4169211835347554 0.6142481251553076 0.016968931631468127
0.40767838875627327 0.7212927775818498 0.09379094638753686
0.4998140705536874 0.5864579958617852 0.12104181987387529
0.521938499660617 0.6741222362783761 0.002156010520891151
0.6169211835347554 0.6142481251553076 0.016968931631468127
0.6076783887562733 0.7212927775818498 0.09379094638753686
0.6998140705536874 0.5864579958617852 0.12104181987387529
0.7219384996606171 0.6741222362783761 0.002156010520891151
0.8169211835347554 0.6142481251553076 0.016968931631468127
0.8076783887562732 0.7212927775818498 0.09379094638753686
0.8998140705536875 0.5864579958617852 0.12104181987387529
0.921938499660617 0.6741222362783761 0.002156010520891151
0.016921183534755403 0.8142481251553075 0.016968931631468127
0.007678388756273233 0.9212927775818498 0.09379094638753686
0.09981407055368739 0.7864579958617851 0.12104181987387529
0.12193849966061697 0.8741222362783762 0.002156010520891151
0.21692118353475542 0.8142481251553075 0.016968931631468127
0.20767838875627326 0.9212927775818498 0.09379094638753686
0.29981407055368736 0.7864579958617851 0.12104181987387529
0.321938499660617 0.8741222362783762 0.002156010520891151
0.4169211835347554 0.8142481251553075 0.016968931631468127
0.40767838875627327 0.9212927775818498 0.09379094638753686
0.4998140705536874 0.7864579958617851 0.12104181987387529
0.521938499660617 0.8741222362783762 0.002156010520891151
0.6169211835347554 0.8142481251553075 0.016968931631468127
0.6076783887562733 0.9212927775818498 0.09379094638753686
0.6998140705536874 0.7864579958617851 0.12104181987387529
0.7219384996606171 0.8741222362783762 0.002156010520891151
0.8169211835347554 0.8142481251553075 0.016968931631468127
0.8076783887562732 0.9212927775818498 0.09379094638753686
0.8998140705536875 0.7864579958617851 0.12104181987387529
0.921938499660617 0.8741222362783762 0.002156010520891151
0.016921183534755403 0.014248125155307543 0.21696893163146813
0.007678388756273233 0.12129277758184981 0.2937909463875369
0.09981407055368739 -0.013542004138214934 0.3210418198738753
0.12193849966061697 0.07412223627837602 0.20215601052089116
0.21692118353475542 0.014248125155307543 0.21696893163146813
0.20767838875627326 0.12129277758184981 0.2937909463875369
0.29981407055368736 -0.013542004138214934 0.3210418198738753
0.321938499660617 0.07412223627837602 0.20215601052089116
0.4169211835347554 0.014248125155307543 0.21696893163146813
0.40767838875627327 0.12129277758184981 0.2937909463875369
0.4998140705536874 -0.013542004138214934 0.3210418198738753
0.521938499660617 0.07412223627837602 0.20215601052089116
0.6169211835347554 0.014248125155307543 0.21696893163146813
0.6076783887562733 0.12129277758184981 0.2937909463875369
0.6998140705536874 -0.013542004138214934 0.3210418198738753
0.7219384996606171 0.07412223627837602 0.20215601052089116
0.8169211835347554 0.014248125155307543 0.21696893163146813
0.8076783887562732 0.12129277758184981 0.2937909463875369
0.8998140705536875 -0.013542004138214934 0.3210418198738753
0.921938499660617 0.07412223627837602 0.20215601052089116
0.016921183534755403 0.21424812515530756 0.21696893163146813
0.007678388756273233 0.3212927775818498 0.2937909463875369
0.09981407055368739 0.18645799586178508 0.3210418198738753
0.12193849966061697 0.274122236278376 0.20215601052089116
0.21692118353475542 0.21424812515530756 0.21696893163146813
0.20767838875627326 0.3212927775818498 0.2937909463875369
0.29981407055368736 0.18645799586178508 0.3210418198738753
0.321938499660617 0.274122236278376 0.20215601052089116
0.4169211835347554 0.21424812515530756 0.21696893163146813
0.40767838875627327 0.3212927775818498 0.2937909463875369
0.4998140705536874 0.18645799586178508 0.3210418198738753
0.521938499660617 0.274122236278376 0.20215601052089116
0.6169211835347554 0.21424812515530756 0.21696893163146813
0.6076783887562733 0.3212927775818498 0.2937909463875369
0.6998140705536874 0.18645799586178508 0.3210418198738753
0.7219384996606171 0.274122236278376 0.20215601052089116
0.8169211835347554 0.21424812515530756 0.21696893163146813
0.8076783887562732 0.3212927775818498 0.2937909463875369
0.8998140705536875 0.18645799586178508 0.3210418198738753
0.921938499660617 0.274122236278376 0.20215601052089116
0.016921183534755403 0.41424812515530757 0.21696893163146813
0.007678388756273233 0.5212927775818498 0.2937909463875369
0.09981407055368739 0.3864579958617851 0.3210418198738753
0.12193849966061697 0.474122236278376 0.20215601052089116
0.21692118353475542 0.41424812515530757 0.21696893163146813
0.20767838875627326 0.5212927775818498 0.2937909463875369
0.29981407055368736 0.3864579958617851 0.3210418198738753
0.321938499660617 0.474122236278376 0.20215601052089116
0.4169211835347554 0.41424812515530757 0.21696893163146813
0.40767838875627327 0.5212927775818498 0.2937909463875369
0.4998140705536874 0.3864579958617851 0.3210418198738753
0.521938499660617 0.474122236278376 0.20215601052089116
0.6169211835347554 0.41424812515530757 0.21696893163146813
0.6076783887562733 0.5212927775818498 0.2937909463875369
0.6998140705536874 0.3864579958617851 0.3210418198738753
0.7219384996606171 0.474122236278376 0.20215601052089116
0.8169211835347554 0.41424812515530757 0.21696893163146813
0.8076783887562732 0.5212927775818498 0.2937909463875369
0.8998140705536875 0.3864579958617851 0.3210418198738753
0.921938499660617 0.474122236278376 0.20215601052089116
0.016921183534755403 0.6142481251553076 0.21696893163146813
0.007678388756273233 0.7212927775818498 0.2937909463875369
0.09981407055368739 0.5864579958617852 0.3210418198738753
0.12193849966061697 0.6741222362783761 0.20215601052089116
0.21692118353475542 0.6142481251553076 0.21696893163146813
0.20767838875627326 0.7212927775818498 0.2937909463875369
0.29981407055368736 0.5864579958617852 0.3210418198738753
0.321938499660617 0.6741222362783761 0.20215601052089116
0.4169211835347554 0.6142481251553076 0.21696893163146813
0.40767838875627327 0.7212927775818498 0.2937909463875369
0.4998140705536874 0.5864579958617852 0.3210418198738753
0.521938499660617 0.6741222362783761 0.20215601052089116
0.6169211835347554 0.6142481251553076 0.21696893163146813
0.6076783887562733 0.7212927775818498 0.2937909463875369
0.6998140705536874 0.5864579958617852 0.3210418198738753
0.7219384996606171 0.6741222362783761 0.20215601052089116
0.8169211835347554 0.6142481251553076 0.21696893163146813
0.8076783887562732 0.7212927775818498 0.2937909463875369
0.8998140705536875 0.5864579958617852 0.3210418198738753
0.921938499660617 0.6741222362783761 0.20215601052089116
0.016921183534755403 0.8142481251553075 0.21696893163146813
0.007678388756273233 0.9212927775818498 0.2937909463875369
0.09981407055368739 0.7864579958617851 0.3210418198738753
0.12193849966061697 0.8741222362783762 0.20215601052089116
0.21692118353475542 0.8142481251553075 0.21696893163146813
0.20767838875627326 0.9212927775818498 0.2937909463875369
0.29981407055368736 0.7864579958617851 0.3210418198738753
0.321938499660617 0.8741222362783762 0.20215601052089116
0.4169211835347554 0.8142481251553075 0.21696893163146813
0.40767838875627327 0.9212927775818498 0.2937909463875369
0.4998140705536874 0.7864579958617851 0.3210418198738753
0.521938499660617 0.8741222362783762 0.20215601052089116
0.6169211835347554 0.8142481251553075 0.21696893163146813
0.6076783887562733 0.9212927775818498 0.2937909463875369
0.6998140705536874 0.7864579958617851 0.3210418198738753
0.7219384996606171 0.8741222362783762 0.20215601052089116
0.8169211835347554 0.8142481251553075 0.21696893163146813
0.8076783887562732 0.9212927775818498 0.2937909463875369
0.8998140705536875 0.7864579958617851 0.3210418198738753
0.921938499660617 0.8741222362783762 0.20215601052089116
0.016921183534755403 0.014248125155307543 0.41696893163146814
0.007678388756273233 0.12129277758184981 0.4937909463875369
0.09981407055368739 -0.013542004138214934 0.5210418198738752
0.12193849966061697 0.07412223627837602 0.4021560105208912
0.21692118353475542 0.014248125155307543 0.41696893163146814
0.20767838875627326 0.12129277758184981 0.4937909463875369
0.29981407055368736 -0.013542004138214934 0.5210418198738752
0.321938499660617 0.07412223627837602 0.4021560105208912
0.4169211835347554 0.014248125155307543 0.41696893163146814
0.40767838875627327 0.12129277758184981 0.4937909463875369
0.4998140705536874 -0.013542004138214934 0.5210418198738752
0.521938499660617 0.07412223627837602 0.4021560105208912
0.6169211835347554 0.014248125155307543 0.41696893163146814
0.6076783887562733 0.12129277758184981 0.4937909463875369
0.6998140705536874 -0.013542004138214934 0.5210418198738752
0.7219384996606171 0.07412223627837602 0.4021560105208912
0.8169211835347554 0.014248125155307543 0.41696893163146814
0.8076783887562732 0.12129277758184981 0.4937909463875369
0.8998140705536875 -0.013542004138214934 0.5210418198738752
0.921938499660617 0.07412223627837602 0.4021560105208912
0.016921183534755403 0.21424812515530756 0.41696893163146814
0.007678388756273233 0.3212927775818498 0.4937909463875369
0.09981407055368739 0.18645799586178508 0.5210418198738752
0.12193849966061697 0.274122236278376 0.4021560105208912
0.21692118353475542 0.21424812515530756 0.41696893163146814
0.20767838875627326 0.3212927775818498 0.4937909463875369
0.29981407055368736 0.18645799586178508 0.5210418198738752
0.321938499660617 0.274122236278376 0.4021560105208912
0.4169211835347554 0.21424812515530756 0.41696893163146814
0.40767838875627327 0.3212927775818498 0.4937909463875369
0.4998140705536874 0.18645799586178508 0.5210418198738752
0.521938499660617 0.274122236278376 0.4021560105208912
0.6169211835347554 0.21424812515530756 0.41696893163146814
0.6076783887562733 0.3212927775818498 0.4937909463875369
0.6998140705536874 0.18645799586178508 0.5210418198738752
0.7219384996606171 0.274122236278376 0.4021560105208912
0.8169211835347554 0.21424812515530756 0.41696893163146814
0.8076783887562732 0.3212927775818498 0.4937909463875369
0.8998140705536875 0.18645799586178508 0.5210418198738752
0.921938499660617 0.274122236278376 0.4021560105208912
0.016921183534755403 0.41424812515530757 0.41696893163146814
0.007678388756273233 0.5212927775818498 0.4937909463875369
0.09981407055368739 0.3864579958617851 0.5210418198738752
0.12193849966061697 0.474122236278376 0.4021560105208912
0.21692118353475542 0.41424812515530757 0.41696893163146814
0.20767838875627326 0.5212927775818498 0.4937909463875369
0.29981407055368736 0.3864579958617851 0.5210418198738752
0.321938499660617 0.474122236278376 0.4021560105208912
0.4169211835347554 0.41424812515530757 0.41696893163146814
0.40767838875627327 0.5212927775818498 0.4937909463875369
0.4998140705536874 0.3864579958617851 0.5210418198738752
0.521938499660617 0.474122236278376 0.4021560105208912
0.6169211835347554 0.41424812515530757 0.41696893163146814
0.6076783887562733 0.5212927775818498 0.4937909463875369
0.6998140705536874 0.3864579958617851 0.5210418198738752
0.7219384996606171 0.474122236278376 0.4021560105208912
0.8169211835347554 0.41424812515530757 0.41696893163146814
0.8076783887562732 0.5212927775818498 0.4937909463875369
0.8998140705536875 0.3864579958617851 0.5210418198738752
0.921938499660617 0.474122236278376 0.4021560105208912
0.016921183534755403 0.6142481251553076 0.41696893163146814
0.007678388756273233 0.7212927775818498 0.4937909463875369
0.09981407055368739 0.5864579958617852 0.5210418198738752
0.12193849966061697 0.6741222362783761 0.4021560105208912
0.21692118353475542 0.6142481251553076 0.41696893163146814
0.20767838875627326 0.7212927775818498 0.4937909463875369
0.29981407055368736 0.5864579958617852 0.5210418198738752
0.321938499660617 0.6741222362783761 0.4021560105208912
0.4169211835347554 0.6142481251553076 0.41696893163146814
0.40767838875627327 0.7212927775818498 0.4937909463875369
0.4998140705536874 0.5864579958617852 0.5210418198738752
0.521938499660617 0.6741222362783761 0.4021560105208912
0.6169211835347554 0.6142481251553076 0.41696893163146814
0.6076783887562733 0.7212927775818498 0.4937909463875369
0.6998140705536874 0.5864579958617852 0.5210418198738752
0.7219384996606171 0.6741222362783761 0.4021560105208912
0.8169211835347554 0.6142481251553076 0.41696893163146814
0.8076783887562732 0.7212927775818498 0.4937909463875369
0.8998140705536875 0.5864579958617852 0.5210418198738752
0.921938499660617 0.6741222362783761 0.4021560105208912
0.016921183534755403 0.8142481251553075 0.41696893163146814
0.007678388756273233 0.9212927775818498 0.4937909463875369
0.09981407055368739 0.7864579958617851 0.5210418198738752
0.12193849966061697 0.8741222362783762 0.4021560105208912
0.21692118353475542 0.8142481251553075 0.41696893163146814
0.20767838875627326 0.9212927775818498 0.4937909463875369
0.29981407055368736 0.7864579958617851 0.5210418198738752
0.321938499660617 0.8741222362783762 0.4021560105208912
0.4169211835347554 0.8142481251553075 0.41696893163146814
0.40767838875627327 0.9212927775818498 0.4937909463875369
0.4998140705536874 0.7864579958617851 0.5210418198738752
0.521938499660617 0.8741222362783762 0.4021560105208912
0.6169211835347554 0.8142481251553075 0.41696893163146814
0.6076783887562733 0.9212927775818498 0.4937909463875369
0.6998140705536874 0.7864579958617851 0.5210418198738752
0.7219384996606171 0.8741222362783762 0.4021560105208912
0.8169211835347554 0.8142481251553075 0.41696893163146814
0.8076783887562732 0.9212927775818498 0.4937909463875369
0.8998140705536875 0.7864579958617851 0.5210418198738752
0.921938499660617 0.8741222362783762 0.4021560105208912
0.016921183534755403 0.014248125155307543 0.6169689316314682
0.007678388756273233 0.12129277758184981 0.6937909463875369
0.09981407055368739 -0.013542004138214934 0.7210418198738753
0.12193849966061697 0.07412223627837602 0.6021560105208912
0.21692118353475542 0.014248125155307543 0.6169689316314682
0.20767838875627326 0.12129277758184981 0.6937909463875369
0.29981407055368736 -0.013542004138214934 0.7210418198738753
0.321938499660617 0.07412223627837602 0.6021560105208912
0.4169211835347554 0.014248125155307543 0.6169689316314682
0.40767838875627327 0.12129277758184981 0.6937909463875369
0.4998140705536874 -0.013542004138214934 0.7210418198738753
0.521938499660617 0.07412223627837602 0.6021560105208912
0.6169211835347554 0.014248125155307543 0.6169689316314682
0.6076783887562733 0.12129277758184981 0.6937909463875369
0.6998140705536874 -0.013542004138214934 0.7210418198738753
0.7219384996606171 0.07412223627837602 0.6021560105208912
0.8169211835347554 0.014248125155307543 0.6169689316314682
0.8076783887562732 0.12129277758184981 0.6937909463875369
0.8998140705536875 -0.013542004138214934 0.7210418198738753
0.921938499660617 0.07412223627837602 0.6021560105208912
0.016921183534755403 0.21424812515530756 0.6169689316314682
0.007678388756273233 0.3212927775818498 0.6937909463875369
0.09981407055368739 0.18645799586178508 0.7210418198738753
0.12193849966061697 0.274122236278376 0.6021560105208912
0.21692118353475542 0.21424812515530756 0.6169689316314682
0.20767838875627326 0.3212927775818498 0.6937909463875369
0.29981407055368736 0.18645799586178508 0.7210418198738753
0.321938499660617 0.274122236278376 0.6021560105208912
0.4169211835347554 0.21424812515530756 0.6169689316314682
0.40767838875627327 0.3212927775818498 0.6937909463875369
0.4998140705536874 0.18645799586178508 0.7210418198738753
0.521938499660617 0.274122236278376 0.6021560105208912
0.6169211835347554 0.21424812515530756 0.6169689316314682
0.6076783887562733 0.3212927775818498 0.6937909463875369
0.6998140705536874 0.18645799586178508 0.7210418198738753
0.7219384996606171 0.274122236278376 0.6021560105208912
0.8169211835347554 0.21424812515530756 0.6169689316314682
0.8076783887562732 0.3212927775818498 0.6937909463875369
0.8998140705536875 0.18645799586178508 0.7210418198738753
0.921938499660617 0.274122236278376 0.6021560105208912
0.016921183534755403 0.41424812515530757 0.6169689316314682
0.007678388756273233 0.5212927775818498 0.6937909463875369
0.09981407055368739 0.3864579958617851 0.7210418198738753
0.12193849966061697 0.474122236278376 0.6021560105208912
0.21692118353475542 0.41424812515530757 0.6169689316314682
0.20767838875627326 0.5212927775818498 0.6937909463875369
0.29981407055368736 0.3864579958617851 0.7210418198738753
0.321938499660617 0.474122236278376 0.6021560105208912
0.4169211835347554 0.41424812515530757 0.6169689316314682
0.40767838875627327 0.5212927775818498 0.6937909463875369
0.4998140705536874 0.3864579958617851 0.7210418198738753
0.521938499660617 0.474122236278376 0.6021560105208912
0.6169211835347554 0.41424812515530757 0.6169689316314682
0.6076783887562733 0.5212927775818498 0.6937909463875369
0.6998140705536874 0.3864579958617851 0.7210418198738753
0.7219384996606171 0.474122236278376 0.6021560105208912
0.8169211835347554 0.41424812515530757 0.6169689316314682
0.8076783887562732 0.5212927775818498 0.6937909463875369
0.8998140705536875 0.3864579958617851 0.7210418198738753
0.921938499660617 0.474122236278376 0.6021560105208912
0.016921183534755403 0.6142481251553076 0.6169689316314682
0.007678388756273233 0.7212927775818498 0.6937909463875369
0.09981407055368739 0.5864579958617852 0.7210418198738753
0.12193849966061697 0.6741222362783761 0.6021560105208912
0.21692118353475542 0.6142481251553076 0.6169689316314682
0.20767838875627326 0.7212927775818498 0.6937909463875369
0.29981407055368736 0.5864579958617852 0.7210418198738753
0.321938499660617 0.6741222362783761 0.6021560105208912
0.4169211835347554 0.6142481251553076 0.6169689316314682
0.40767838875627327 0.7212927775818498 0.6937909463875369
0.4998140705536874 0.5864579958617852 0.7210418198738753
0.521938499660617 0.6741222362783761 0.6021560105208912
0.6169211835347554 0.6142481251553076 0.6169689316314682
0.6076783887562733 0.7212927775818498 0.6937909463875369
0.6998140705536874 0.5864579958617852 0.7210418198738753
0.7219384996606171 0.6741222362783761 0.6021560105208912
0.8169211835347554 0.6142481251553076 0.6169689316314682
0.8076783887562732 0.7212927775818498 0.6937909463875369
0.8998140705536875 0.5864579958617852 0.7210418198738753
0.921938499660617 0.6741222362783761 0.6021560105208912
0.016921183534755403 0.8142481251553075 0.6169689316314682
0.007678388756273233 0.9212927775818498 0.6937909463875369
0.09981407055368739 0.7864579958617851 0.7210418198738753
0.12193849966061697 0.8741222362783762 0.6021560105208912
0.21692118353475542 0.8142481251553075 0.6169689316314682
0.20767838875627326 0.9212927775818498 0.6937909463875369
0.29981407055368736 0.7864579958617851 0.7210418198738753
0.321938499660617 0.8741222362783762 0.6021560105208912
0.4169211835347554 0.8142481251553075 0.6169689316314682
0.40767838875627327 0.9212927775818498 0.6937909463875369
0.4998140705536874 0.7864579958617851 0.7210418198738753
0.521938499660617 0.8741222362783762 0.6021560105208912
0.6169211835347554 0.8142481251553075 0.6169689316314682
0.6076783887562733 0.9212927775818498 0.6937909463875369
0.6998140705536874 0.7864579958617851 0.7210418198738753
0.7219384996606171 0.8741222362783762 0.6021560105208912
0.8169211835347554 0.8142481251553075 0.6169689316314682
0.8076783887562732 0.9212927775818498 0.6937909463875369
0.8998140705536875 0.7864579958617851 0.7210418198738753
0.921938499660617 0.8741222362783762 0.6021560105208912
0.016921183534755403 0.014248125155307543 0.8169689316314681
0.007678388756273233 0.12129277758184981 0.8937909463875369
0.09981407055368739 -0.013542004138214934 0.9210418198738752
0.12193849966061697 0.07412223627837602 0.8021560105208911
0.21692118353475542 0.014248125155307543 0.8169689316314681
0.20767838875627326 0.12129277758184981 0.8937909463875369
0.29981407055368736 -0.013542004138214934 0.9210418198738752
0.321938499660617 0.07412223627837602 0.8021560105208911
0.4169211835347554 0.014248125155307543 0.8169689316314681
0.40767838875627327 0.12129277758184981 0.8937909463875369
0.4998140705536874 -0.013542004138214934 0.9210418198738752
0.521938499660617 0.07412223627837602 0.8021560105208911
0.6169211835347554 0.014248125155307543 0.8169689316314681
0.6076783887562733 0.12129277758184981 0.8937909463875369
0.6998140705536874 -0.013542004138214934 0.9210418198738752
0.7219384996606171 0.07412223627837602 0.8021560105208911
0.8169211835347554 0.014248125155307543 0.8169689316314681
0.8076783887562732 0.12129277758184981 0.8937909463875369
0.8998140705536875 -0.013542004138214934 0.9210418198738752
0.921938499660617 0.07412223627837602 0.8021560105208911
0.016921183534755403 0.21424812515530756 0.8169689316314681
0.007678388756273233 0.3212927775818498 0.8937909463875369
0.09981407055368739 0.18645799586178508 0.9210418198738752
0.12193849966061697 0.274122236278376 0.8021560105208911
0.21692118353475542 0.21424812515530756 0.8169689316314681
0.20767838875627326 0.3212927775818498 0.8937909463875369
0.29981407055368736 0.18645799586178508 0.9210418198738752
0.321938499660617 0.274122236278376 0.8021560105208911
0.4169211835347554 0.21424812515530756 0.8169689316314681
0.40767838875627327 0.3212927775818498 0.8937909463875369
0.4998140705536874 0.18645799586178508 0.9210418198738752
0.521938499660617 0.274122236278376 0.8021560105208911
0.6169211835347554 0.21424812515530756 0.8169689316314681
0.6076783887562733 0.3212927775818498 0.8937909463875369
0.6998140705536874 0.18645799586178508 0.9210418198738752
0.7219384996606171 0.274122236278376 0.8021560105208911
0.8169211835347554 0.21424812515530756 0.8169689316314681
0.8076783887562732 0.3212927775818498 0.8937909463875369
0.8998140705536875 0.18645799586178508 0.9210418198738752
0.921938499660617 0.274122236278376 0.8021560105208911
0.016921183534755403 0.41424812515530757 0.8169689316314681
0.007678388756273233 0.5212927775818498 0.8937909463875369
0.09981407055368739 0.3864579958617851 0.9210418198738752
0.12193849966061697 0.474122236278376 0.8021560105208911
0.21692118353475542 0.41424812515530757 0.8169689316314681
0.20767838875627326 0.5212927775818498 0.8937909463875369
0.29981407055368736 0.3864579958617851 0.9210418198738752
0.321938499660617 0.474122236278376 0.8021560105208911
0.4169211835347554 0.41424812515530757 0.8169689316314681
0.40767838875627327 0.5212927775818498 0.8937909463875369
0.4998140705536874 0.3864579958617851 0.9210418198738752
0.521938499660617 0.474122236278376 0.8021560105208911
0.6169211835347554 0.41424812515530757 0.8169689316314681
0.6076783887562733 0.5212927775818498 0.8937909463875369
0.6998140705536874 0.3864579958617851 0.9210418198738752
0.7219384996606171 0.474122236278376 0.8021560105208911
0.8169211835347554 0.41424812515530757 0.8169689316314681
0.8076783887562732 0.5212927775818498 0.8937909463875369
0.8998140705536875 0.3864579958617851 0.9210418198738752
0.921938499660617 0.474122236278376 0.8021560105208911
0.016921183534755403 0.6142481251553076 0.8169689316314681
0.007678388756273233 0.7212927775818498 0.8937909463875369
0.09981407055368739 0.5864579958617852 0.9210418198738752
0.12193849966061697 0.6741222362783761 0.8021560105208911
0.21692118353475542 0.6142481251553076 0.8169689316314681
0.20767838875627326 0.7212927775818498 0.8937909463875369
0.29981407055368736 0.5864579958617852 0.9210418198738752
0.321938499660617 0.6741222362783761 0.8021560105208911
0.4169211835347554 0.6142481251553076 0.8169689316314681
0.40767838875627327 0.7212927775818498 0.8937909463875369
0.4998140705536874 0.5864579958617852 0.9210418198738752
0.521938499660617 0.6741222362783761 0.8021560105208911
0.6169211835347554 0.6142481251553076 0.8169689316314681
0.6076783887562733 0.7212927775818498 0.8937909463875369
0.6998140705536874 0.5864579958617852 0.9210418198738752
0.7219384996606171 0.6741222362783761 0.8021560105208911
0.8169211835347554 0.6142481251553076 0.8169689316314681
0.8076783887562732 0.7212927775818498 0.8937909463875369
0.8998140705536875 0.5864579958617852 0.9210418198738752
0.921938499660617 0.6741222362783761 0.8021560105208911
0.016921183534755403 0.8142481251553075 0.8169689316314681
0.007678388756273233 0.9212927775818498 0.8937909463875369
0.09981407055368739 0.7864579958617851 0.9210418198738752
0.12193849966061697 0.8741222362783762 0.8021560105208911
0.21692118353475542 0.8142481251553075 0.8169689316314681
0.20767838875627326 0.9212927775818498 0.8937909463875369
0.29981407055368736 0.7864579958617851 0.9210418198738752
0.321938499660617 0.8741222362783762 0.8021560105208911
0.4169211835347554 0.8142481251553075 0.8169689316314681
0.40767838875627327 0.9212927775818498 0.8937909463875369
0.4998140705536874 0.7864579958617851 0.9210418198738752
0.521938499660617 0.8741222362783762 0.8021560105208911
0.6169211835347554 0.8142481251553075 0.8169689316314681
0.6076783887562733 0.9212927775818498 0.8937909463875369
0.6998140705536874 0.7864579958617851 0.9210418198738752
0.7219384996606171 0.8741222362783762 0.8021560105208911
0.8169211835347554 0.8142481251553075 0.8169689316314681
0.8076783887562732 0.9212927775818498 0.8937909463875369
0.8998140705536875 0.7864579958617851 0.9210418198738752
0.921938499660617 0.8741222362783762 0.8021560105208911
0.10770827665461413 0.002207544795583486 0.020728247874003524
0.027926671446183177 0.1090556307643857 0.01616195793026206
0.020626352484207276 -0.008100468020545867 0.10537479192806587
0.10226836057802867 0.12435253496292756 0.10888802724062648
0.30770827665461414 0.002207544795583486 0.020728247874003524
0.22792667144618317 0.1090556307643857 0.01616195793026206
0.22062635248420728 -0.008100468020545867 0.10537479192806587
0.3022683605780287 0.12435253496292756 0.10888802724062648
0.5077082766546142 0.002207544795583486 0.020728247874003524
0.4279266714461832 0.1090556307643857 0.01616195793026206
0.4206263524842073 -0.008100468020545867 0.10537479192806587
0.5022683605780287 0.12435253496292756 0.10888802724062648
0.7077082766546141 0.002207544795583486 0.020728247874003524
0.6279266714461832 0.1090556307643857 0.01616195793026206
0.6206263524842073 -0.008100468020545867 0.10537479192806587
0.7022683605780288 0.12435253496292756 0.10888802724062648
0.9077082766546142 0.002207544795583486 0.020728247874003524
0.8279266714461833 0.1090556307643857 0.01616195793026206
0.8206263524842072 -0.008100468020545867 0.10537479192806587
0.9022683605780287 0.12435253496292756 0.10888802724062648
0.10770827665461413 0.20220754479558348 0.020728247874003524
0.027926671446183177 0.3090556307643857 0.01616195793026206
0.020626352484207276 0.19189953197945414 0.10537479192806587
0.10226836057802867 0.3243525349629276 0.10888802724062648
0.30770827665461414 0.20220754479558348 0.020728247874003524
0.22792667144618317 0.3090556307643857 0.01616195793026206
0.22062635248420728 0.19189953197945414 0.10537479192806587
0.3022683605780287 0.3243525349629276 0.10888802724062648
0.5077082766546142 0.20220754479558348 0.020728247874003524
0.4279266714461832 0.3090556307643857 0.01616195793026206
0.4206263524842073 0.19189953197945414 0.10537479192806587
0.5022683605780287 0.3243525349629276 0.10888802724062648
0.7077082766546141 0.20220754479558348 0.020728247874003524
0.6279266714461832 0.3090556307643857 0.01616195793026206
0.6206263524842073 0.19189953197945414 0.10537479192806587
0.7022683605780288 0.3243525349629276 0.10888802724062648
0.9077082766546142 0.20220754479558348 0.020728247874003524
0.8279266714461833 0.3090556307643857 0.01616195793026206
0.8206263524842072 0.19189953197945414 0.10537479192806587
0.9022683605780287 0.3243525349629276 0.10888802724062648
0.10770827665461413 0.4022075447955835 0.020728247874003524
0.027926671446183177 0.5090556307643856 0.01616195793026206
0.020626352484207276 0.39189953197945415 0.10537479192806587
0.10226836057802867 0.5243525349629276 0.10888802724062648
0.30770827665461414 0.4022075447955835 0.020728247874003524
0.22792667144618317 0.5090556307643856 0.01616195793026206
0.22062635248420728 0.39189953197945415 0.10537479192806587
0.3022683605780287 0.5243525349629276 0.10888802724062648
0.5077082766546142 0.4022075447955835 0.020728247874003524
0.4279266714461832 0.5090556307643856 0.01616195793026206
0.4206263524842073 0.39189953197945415 0.10537479192806587
0.5022683605780287 0.5243525349629276 0.10888802724062648
0.7077082766546141 0.4022075447955835 0.020728247874003524
0.6279266714461832 0.5090556307643856 0.01616195793026206
0.6206263524842073 0.39189953197945415 0.10537479192806587
0.7022683605780288 0.5243525349629276 0.10888802724062648
0.9077082766546142 0.4022075447955835 0.020728247874003524
0.8279266714461833 0.5090556307643856 0.01616195793026206
0.8206263524842072 0.39189953197945415 0.10537479192806587
0.9022683605780287 0.5243525349629276 0.10888802724062648
0.10770827665461413 0.6022075447955836 0.020728247874003524
0.027926671446183177 0.7090556307643857 0.01616195793026206
0.020626352484207276 0.5918995319794542 0.10537479192806587
0.10226836057802867 0.7243525349629276 0.10888802724062648
0.30770827665461414 0.6022075447955836 0.020728247874003524
0.22792667144618317 0.7090556307643857 0.01616195793026206
0.22062635248420728 0.5918995319794542 0.10537479192806587
0.3022683605780287 0.7243525349629276 0.10888802724062648
0.5077082766546142 0.6022075447955836 0.020728247874003524
0.4279266714461832 0.7090556307643857 0.01616195793026206
0.4206263524842073 0.5918995319794542 0.10537479192806587
0.5022683605780287 0.7243525349629276 0.10888802724062648
0.7077082766546141 0.6022075447955836 0.020728247874003524
0.6279266714461832 0.7090556307643857 0.01616195793026206
0.6206263524842073 0.5918995319794542 0.10537479192806587
0.7022683605780288 0.7243525349629276 0.10888802724062648
0.9077082766546142 0.6022075447955836 0.020728247874003524
0.8279266714461833 0.7090556307643857 0.01616195793026206
0.8206263524842072 0.5918995319794542 0.10537479192806587
0.9022683605780287 0.7243525349629276 0.10888802724062648
0.10770827665461413 0.8022075447955835 0.020728247874003524
0.027926671446183177 0.9090556307643857 0.01616195793026206
0.020626352484207276 0.7918995319794542 0.10537479192806587
0.10226836057802867 0.9243525349629276 0.10888802724062648
0.30770827665461414 0.8022075447955835 0.020728247874003524
0.22792667144618317 0.9090556307643857 0.01616195793026206
0.22062635248420728 0.7918995319794542 0.10537479192806587
0.3022683605780287 0.9243525349629276 0.10888802724062648
0.5077082766546142 0.8022075447955835 0.020728247874003524
0.4279266714461832 0.9090556307643857 0.01616195793026206
0.4206263524842073 0.7918995319794542 0.10537479192806587
0.5022683605780287 0.9243525349629276 0.10888802724062648
0.7077082766546141 0.8022075447955835 0.020728247874003524
0.6279266714461832 0.9090556307643857 0.01616195793026206
0.6206263524842073 0.7918995319794542 0.10537479192806587
0.7022683605780288 0.9243525349629276 0.10888802724062648
0.9077082766546142 0.8022075447955835 0.020728247874003524
0.8279266714461833 0.9090556307643857 0.01616195793026206
0.8206263524842072 0.7918995319794542 0.10537479192806587
0.9022683605780287 0.9243525349629276 0.10888802724062648
0.10770827665461413 0.002207544795583486 0.22072824787400355
0.027926671446183177 0.1090556307643857 0.21616195793026205
0.020626352484207276 -0.008100468020545867 0.3053747919280659
0.10226836057802867 0.12435253496292756 0.3088880272406265
0.30770827665461414 0.002207544795583486 0.22072824787400355
0.22792667144618317 0.1090556307643857 0.21616195793026205
0.22062635248420728 -0.008100468020545867 0.3053747919280659
0.3022683605780287 0.12435253496292756 0.3088880272406265
0.5077082766546142 0.002207544795583486 0.22072824787400355
0.4279266714461832 0.1090556307643857 0.21616195793026205
0.4206263524842073 -0.008100468020545867 0.3053747919280659
0.5022683605780287 0.12435253496292756 0.3088880272406265
0.7077082766546141 0.002207544795583486 0.22072824787400355
0.6279266714461832 0.1090556307643857 0.21616195793026205
0.6206263524842073 -0.008100468020545867 0.3053747919280659
0.7022683605780288 0.12435253496292756 0.3088880272406265
0.9077082766546142 0.002207544795583486 0.22072824787400355
0.8279266714461833 0.1090556307643857 0.21616195793026205
0.8206263524842072 -0.008100468020545867 0.3053747919280659
0.9022683605780287 0.12435253496292756 0.3088880272406265
0.10770827665461413 0.20220754479558348 0.22072824787400355
0.027926671446183177 0.3090556307643857 0.21616195793026205
0.020626352484207276 0.19189953197945414 0.3053747919280659
0.10226836057802867 0.3243525349629276 0.3088880272406265
0.30770827665461414 0.20220754479558348 0.22072824787400355
0.22792667144618317 0.3090556307643857 0.21616195793026205
0.22062635248420728 0.19189953197945414 0.3053747919280659
0.3022683605780287 0.3243525349629276 0.3088880272406265
0.5077082766546142 0.20220754479558348 0.22072824787400355
0.4279266714461832 0.3090556307643857 0.21616195793026205
0.4206263524842073 0.19189953197945414 0.3053747919280659
0.5022683605780287 0.3243525349629276 0.3088880272406265
0.7077082766546141 0.20220754479558348 0.22072824787400355
0.6279266714461832 0.3090556307643857 0.21616195793026205
0.6206263524842073 0.19189953197945414 0.3053747919280659
0.7022683605780288 0.3243525349629276 0.3088880272406265
0.9077082766546142 0.20220754479558348 0.22072824787400355
0.8279266714461833 0.3090556307643857 0.21616195793026205
0.8206263524842072 0.19189953197945414 0.3053747919280659
0.9022683605780287 0.3243525349629276 0.3088880272406265
0.10770827665461413 0.4022075447955835 0.22072824787400355
0.027926671446183177 0.5090556307643856 0.21616195793026205
0.020626352484207276 0.39189953197945415 0.3053747919280659
0.10226836057802867 0.5243525349629276 0.3088880272406265
0.30770827665461414 0.4022075447955835 0.22072824787400355
0.22792667144618317 0.5090556307643856 0.21616195793026205
0.22062635248420728 0.39189953197945415 0.3053747919280659
0.3022683605780287 0.5243525349629276 0.3088880272406265
0.5077082766546142 0.4022075447955835 0.22072824787400355
0.4279266714461832 0.5090556307643856 0.21616195793026205
0.4206263524842073 0.39189953197945415 0.3053747919280659
0.5022683605780287 0.5243525349629276 0.3088880272406265
0.7077082766546141 0.4022075447955835 0.22072824787400355
0.6279266714461832 0.5090556307643856 0.21616195793026205
0.6206263524842073 0.39189953197945415 0.3053747919280659
0.7022683605780288 0.5243525349629276 0.3088880272406265
0.9077082766546142 0.4022075447955835 0.22072824787400355
0.8279266714461833 0.5090556307643856 0.21616195793026205
0.8206263524842072 0.39189953197945415 0.3053747919280659
0.9022683605780287 0.5243525349629276 0.3088880272406265
0.10770827665461413 0.6022075447955836 0.22072824787400355
0.027926671446183177 0.7090556307643857 0.21616195793026205
0.020626352484207276 0.5918995319794542 0.3053747919280659
0.10226836057802867 0.7243525349629276 0.3088880272406265
0.30770827665461414 0.6022075447955836 0.22072824787400355
0.22792667144618317 0.7090556307643857 0.21616195793026205
0.22062635248420728 0.5918995319794542 0.3053747919280659
0.3022683605780287 0.7243525349629276 0.3088880272406265
0.5077082766546142 0.6022075447955836 0.22072824787400355
0.4279266714461832 0.7090556307643857 0.21616195793026205
0.4206263524842073 0.5918995319794542 0.3053747919280659
0.5022683605780287 0.7243525349629276 0.3088880272406265
0.7077082766546141 0.6022075447955836 0.22072824787400355
0.6279266714461832 0.7090556307643857 0.21616195793026205
0.6206263524842073 0.5918995319794542 0.3053747919280659
0.7022683605780288 0.7243525349629276 0.3088880272406265
0.9077082766546142 0.6022075447955836 0.22072824787400355
0.8279266714461833 0.7090556307643857 0.21616195793026205
0.8206263524842072 0.5918995319794542 0.3053747919280659
0.9022683605780287 0.7243525349629276 0.3088880272406265
0.10770827665461413 0.8022075447955835 0.22072824787400355
0.027926671446183177 0.9090556307643857 0.21616195793026205
0.020626352484207276 0.7918995319794542 0.3053747919280659
0.10226836057802867 0.9243525349629276 0.3088880272406265
0.30770827665461414 0.8022075447955835 0.22072824787400355
0.22792667144618317 0.9090556307643857 0.21616195793026205
0.22062635248420728 0.7918995319794542 0.3053747919280659
0.3022683605780287 0.9243525349629276 0.3088880272406265
0.5077082766546142 0.8022075447955835 0.22072824787400355
0.4279266714461832 0.9090556307643857 0.21616195793026205
0.4206263524842073 0.7918995319794542 0.3053747919280659
0.5022683605780287 0.9243525349629276 0.3088880272406265
0.7077082766546141 0.8022075447955835 0.22072824787400355
0.6279266714461832 0.9090556307643857 0.21616195793026205
0.6206263524842073 0.7918995319794542 0.3053747919280659
0.7022683605780288 0.9243525349629276 0.3088880272406265
0.9077082766546142 0.8022075447955835 0.22072824787400355
0.8279266714461833 0.9090556307643857 0.21616195793026205
0.8206263524842072 0.7918995319794542 0.3053747919280659
0.9022683605780287 0.9243525349629276 0.3088880272406265
0.10770827665461413 0.002207544795583486 0.42072824787400354
0.027926671446183177 0.1090556307643857 0.4161619579302621
0.020626352484207276 -0.008100468020545867 0.5053747919280659
0.10226836057802867 0.12435253496292756 0.5088880272406264
0.30770827665461414 0.002207544795583486 0.42072824787400354
0.22792667144618317 0.1090556307643857 0.4161619579302621
0.22062635248420728 -0.008100468020545867 0.5053747919280659
0.3022683605780287 0.12435253496292756 0.5088880272406264
0.5077082766546142 0.002207544795583486 0.42072824787400354
0.4279266714461832 0.1090556307643857 0.4161619579302621
0.4206263524842073 -0.008100468020545867 0.5053747919280659
0.5022683605780287 0.12435253496292756 0.5088880272406264
0.7077082766546141 0.002207544795583486 0.42072824787400354
0.6279266714461832 0.1090556307643857 0.4161619579302621
0.6206263524842073 -0.008100468020545867 0.5053747919280659
0.7022683605780288 0.12435253496292756 0.5088880272406264
0.9077082766546142 0.002207544795583486 0.42072824787400354
0.8279266714461833 0.1090556307643857 0.4161619579302621
0.8206263524842072 -0.008100468020545867 0.5053747919280659
0.9022683605780287 0.12435253496292756 0.5088880272406264
0.10770827665461413 0.20220754479558348 0.42072824787400354
0.027926671446183177 0.3090556307643857 0.4161619579302621
0.020626352484207276 0.19189953197945414 0.5053747919280659
0.10226836057802867 0.3243525349629276 0.5088880272406264
0.30770827665461414 0.20220754479558348 0.42072824787400354
0.22792667144618317 0.3090556307643857 0.4161619579302621
0.22062635248420728 0.19189953197945414 0.5053747919280659
0.3022683605780287 0.3243525349629276 0.5088880272406264
0.5077082766546142 0.20220754479558348 0.42072824787400354
0.4279266714461832 0.3090556307643857 0.4161619579302621
0.4206263524842073 0.19189953197945414 0.5053747919280659
0.5022683605780287 0.3243525349629276 0.5088880272406264
0.7077082766546141 0.20220754479558348 0.42072824787400354
0.6279266714461832 0.3090556307643857 0.4161619579302621
0.6206263524842073 0.19189953197945414 0.5053747919280659
0.7022683605780288 0.3243525349629276 0.5088880272406264
0.9077082766546142 0.20220754479558348 0.42072824787400354
0.8279266714461833 0.3090556307643857 0.4161619579302621
0.8206263524842072 0.19189953197945414 0.5053747919280659
0.9022683605780287 0.3243525349629276 0.5088880272406264
0.10770827665461413 0.4022075447955835 0.42072824787400354
0.027926671446183177 0.5090556307643856 0.4161619579302621
0.020626352484207276 0.39189953197945415 0.5053747919280659
0.10226836057802867 0.5243525349629276 0.5088880272406264
0.30770827665461414 0.4022075447955835 0.42072824787400354
0.22792667144618317 0.5090556307643856 0.4161619579302621
0.22062635248420728 0.39189953197945415 0.5053747919280659
0.3022683605780287 0.5243525349629276 0.5088880272406264
0.5077082766546142 0.4022075447955835 0.42072824787400354
0.4279266714461832 0.5090556307643856 0.4161619579302621
0.4206263524842073 0.39189953197945415 0.5053747919280659
0.5022683605780287 0.5243525349629276 0.5088880272406264
0.7077082766546141 0.4022075447955835 0.42072824787400354
0.6279266714461832 0.5090556307643856 0.4161619579302621
0.6206263524842073 0.39189953197945415 0.5053747919280659
0.7022683605780288 0.5243525349629276 0.5088880272406264
0.9077082766546142 0.4022075447955835 0.42072824787400354
0.8279266714461833 0.5090556307643856 0.4161619579302621
0.8206263524842072 0.39189953197945415 0.5053747919280659
0.9022683605780287 0.5243525349629276 0.5088880272406264
0.10770827665461413 0.6022075447955836 0.42072824787400354
0.027926671446183177 0.7090556307643857 0.4161619579302621
0.020626352484207276 0.5918995319794542 0.5053747919280659
0.10226836057802867 0.7243525349629276 0.5088880272406264
0.30770827665461414 0.6022075447955836 0.42072824787400354
0.22792667144618317 0.7090556307643857 0.4161619579302621
0.22062635248420728 0.5918995319794542 0.5053747919280659
0.3022683605780287 0.7243525349629276 0.5088880272406264
0.5077082766546142 0.6022075447955836 0.42072824787400354
0.4279266714461832 0.7090556307643857 0.4161619579302621
0.4206263524842073 0.5918995319794542 0.5053747919280659
0.5022683605780287 0.7243525349629276 0.5088880272406264
0.7077082766546141 0.6022075447955836 0.42072824787400354
0.6279266714461832 0.7090556307643857 0.4161619579302621
0.6206263524842073 0.5918995319794542 0.5053747919280659
0.7022683605780288 0.7243525349629276 0.5088880272406264
0.9077082766546142 0.6022075447955836 0.42072824787400354
0.8279266714461833 0.7090556307643857 0.4161619579302621
0.8206263524842072 0.5918995319794542 0.5053747919280659
0.9022683605780287 0.7243525349629276 0.5088880272406264
0.10770827665461413 0.8022075447955835 0.42072824787400354
0.027926671446183177 0.9090556307643857 0.4161619579302621
0.020626352484207276 0.7918995319794542 0.5053747919280659
0.10226836057802867 0.9243525349629276 0.5088880272406264
0.30770827665461414 0.8022075447955835 0.42072824787400354
0.22792667144618317 0.9090556307643857 0.4161619579302621
0.22062635248420728 0.7918995319794542 0.5053747919280659
0.3022683605780287 0.9243525349629276 0.5088880272406264
0.5077082766546142 0.8022075447955835 0.42072824787400354
0.4279266714461832 0.9090556307643857 0.4161619579302621
0.4206263524842073 0.7918995319794542 0.5053747919280659
0.5022683605780287 0.9243525349629276 0.5088880272406264
0.7077082766546141 0.8022075447955835 0.42072824787400354
0.6279266714461832 0.9090556307643857 0.4161619579302621
0.6206263524842073 0.7918995319794542 0.5053747919280659
0.7022683605780288 0.9243525349629276 0.5088880272406264
0.9077082766546142 0.8022075447955835 0.42072824787400354
0.8279266714461833 0.9090556307643857 0.4161619579302621
0.8206263524842072 0.7918995319794542 0.5053747919280659
0.9022683605780287 0.9243525349629276 0.5088880272406264
0.10770827665461413 0.002207544795583486 0.6207282478740036
0.027926671446183177 0.1090556307643857 0.6161619579302622
0.020626352484207276 -0.008100468020545867 0.7053747919280658
0.10226836057802867 0.12435253496292756 0.7088880272406265
0.30770827665461414 0.002207544795583486 0.6207282478740036
0.22792667144618317 0.1090556307643857 0.6161619579302622
0.22062635248420728 -0.008100468020545867 0.7053747919280658
0.3022683605780287 0.12435253496292756 0.7088880272406265
0.5077082766546142 0.002207544795583486 0.6207282478740036
0.4279266714461832 0.1090556307643857 0.6161619579302622
0.4206263524842073 -0.008100468020545867 0.7053747919280658
0.5022683605780287 0.12435253496292756 0.7088880272406265
0.7077082766546141 0.002207544795583486 0.6207282478740036
0.6279266714461832 0.1090556307643857 0.6161619579302622
0.6206263524842073 -0.008100468020545867 0.7053747919280658
0.7022683605780288 0.12435253496292756 0.7088880272406265
0.9077082766546142 0.002207544795583486 0.6207282478740036
0.8279266714461833 0.1090556307643857 0.6161619579302622
0.8206263524842072 -0.008100468020545867 0.7053747919280658
0.9022683605780287 0.12435253496292756 0.7088880272406265
0.10770827665461413 0.20220754479558348 0.6207282478740036
0.027926671446183177 0.3090556307643857 0.6161619579302622
0.020626352484207276 0.19189953197945414 0.7053747919280658
0.10226836057802867 0.3243525349629276 0.7088880272406265
0.30770827665461414 0.20220754479558348 0.6207282478740036
0.22792667144618317 0.3090556307643857 0.6161619579302622
0.22062635248420728 0.19189953197945414 0.7053747919280658
0.3022683605780287 0.3243525349629276 0.7088880272406265
0.5077082766546142 0.20220754479558348 0.6207282478740036
0.4279266714461832 0.3090556307643857 0.6161619579302622
0.4206263524842073 0.19189953197945414 0.7053747919280658
0.5022683605780287 0.3243525349629276 0.7088880272406265
0.7077082766546141 0.20220754479558348 0.6207282478740036
0.6279266714461832 0.3090556307643857 0.6161619579302622
0.6206263524842073 0.19189953197945414 0.7053747919280658
0.7022683605780288 0.3243525349629276 0.7088880272406265
0.9077082766546142 0.20220754479558348 0.6207282478740036
0.8279266714461833 0.3090556307643857 0.6161619579302622
0.8206263524842072 0.19189953197945414 0.7053747919280658
0.9022683605780287 0.3243525349629276 0.7088880272406265
0.10770827665461413 0.4022075447955835 0.6207282478740036
0.027926671446183177 0.5090556307643856 0.6161619579302622
0.020626352484207276 0.39189953197945415 0.7053747919280658
0.10226836057802867 0.5243525349629276 0.7088880272406265
0.30770827665461414 0.4022075447955835 0.6207282478740036
0.22792667144618317 0.5090556307643856 0.6161619579302622
0.22062635248420728 0.39189953197945415 0.7053747919280658
0.3022683605780287 0.5243525349629276 0.7088880272406265
0.5077082766546142 0.4022075447955835 0.6207282478740036
0.4279266714461832 0.5090556307643856 0.6161619579302622
0.4206263524842073 0.39189953197945415 0.7053747919280658
0.5022683605780287 0.5243525349629276 0.7088880272406265
0.7077082766546141 0.4022075447955835 0.6207282478740036
0.6279266714461832 0.5090556307643856 0.6161619579302622
0.6206263524842073 0.39189953197945415 0.7053747919280658
0.7022683605780288 0.5243525349629276 0.7088880272406265
0.9077082766546142 0.4022075447955835 0.6207282478740036
0.8279266714461833 0.5090556307643856 0.6161619579302622
0.8206263524842072 0.39189953197945415 0.7053747919280658
0.9022683605780287 0.5243525349629276 0.7088880272406265
0.10770827665461413 0.6022075447955836 0.6207282478740036
0.027926671446183177 0.7090556307643857 0.6161619579302622
0.020626352484207276 0.5918995319794542 0.7053747919280658
0.10226836057802867 0.7243525349629276 0.7088880272406265
0.30770827665461414 0.6022075447955836 0.6207282478740036
0.22792667144618317 0.7090556307643857 0.6161619579302622
0.22062635248420728 0.5918995319794542 0.7053747919280658
0.3022683605780287 0.7243525349629276 0.7088880272406265
0.5077082766546142 0.6022075447955836 0.6207282478740036
0.4279266714461832 0.7090556307643857 0.6161619579302622
0.4206263524842073 0.5918995319794542 0.7053747919280658
0.5022683605780287 0.7243525349629276 0.7088880272406265
0.7077082766546141 0.6022075447955836 0.6207282478740036
0.6279266714461832 0.7090556307643857 0.6161619579302622
0.6206263524842073 0.5918995319794542 0.7053747919280658
0.7022683605780288 0.7243525349629276 0.7088880272406265
0.9077082766546142 0.6022075447955836 0.6207282478740036
0.8279266714461833 0.7090556307643857 0.6161619579302622
0.8206263524842072 0.5918995319794542 0.7053747919280658
0.9022683605780287 0.7243525349629276 0.7088880272406265
0.10770827665461413 0.8022075447955835 0.6207282478740036
0.027926671446183177 0.9090556307643857 0.6161619579302622
0.020626352484207276 0.7918995319794542 0.7053747919280658
0.10226836057802867 0.9243525349629276 0.7088880272406265
0.30770827665461414 0.8022075447955835 0.6207282478740036
0.22792667144618317 0.9090556307643857 0.6161619579302622
0.22062635248420728 0.7918995319794542 0.7053747919280658
0.3022683605780287 0.9243525349629276 0.7088880272406265
0.5077082766546142 0.8022075447955835 0.6207282478740036
0.4279266714461832 0.9090556307643857 0.6161619579302622
0.4206263524842073 0.7918995319794542 0.7053747919280658
0.5022683605780287 0.9243525349629276 0.7088880272406265
0.7077082766546141 0.8022075447955835 0.6207282478740036
0.6279266714461832 0.9090556307643857 0.6161619579302622
0.6206263524842073 0.7918995319794542 0.7053747919280658
0.7022683605780288 0.9243525349629276 0.7088880272406265
0.9077082766546142 0.8022075447955835 0.6207282478740036
0.8279266714461833 0.9090556307643857 0.6161619579302622
0.8206263524842072 0.7918995319794542 0.7053747919280658
0.9022683605780287 0.9243525349629276 0.7088880272406265
0.10770827665461413 0.002207544795583486 0.8207282478740036
0.027926671446183177 0.1090556307643857 0.816161957930262
0.020626352484207276 -0.008100468020545867 0.9053747919280659
0.10226836057802867 0.12435253496292756 0.9088880272406265
0.30770827665461414 0.002207544795583486 0.8207282478740036
0.22792667144618317 0.1090556307643857 0.816161957930262
0.22062635248420728 -0.008100468020545867 0.9053747919280659
0.3022683605780287 0.12435253496292756 0.9088880272406265
0.5077082766546142 0.002207544795583486 0.8207282478740036
0.4279266714461832 0.1090556307643857 0.816161957930262
0.4206263524842073 -0.008100468020545867 0.9053747919280659
0.5022683605780287 0.12435253496292756 0.9088880272406265
0.7077082766546141 0.002207544795583486 0.8207282478740036
0.6279266714461832 0.1090556307643857 0.816161957930262
0.6206263524842073 -0.008100468020545867 0.9053747919280659
0.7022683605780288 0.12435253496292756 0.9088880272406265
0.9077082766546142 0.002207544795583486 0.8207282478740036
0.8279266714461833 0.1090556307643857 0.816161957930262
0.8206263524842072 -0.008100468020545867 0.9053747919280659
0.9022683605780287 0.12435253496292756 0.9088880272406265
0.10770827665461413 0.20220754479558348 0.8207282478740036
0.027926671446183177 0.3090556307643857 0.816161957930262
0.020626352484207276 0.19189953197945414 0.9053747919280659
0.10226836057802867 0.3243525349629276 0.9088880272406265
0.30770827665461414 0.20220754479558348 0.8207282478740036
0.22792667144618317 0.3090556307643857 0.816161957930262
0.22062635248420728 0.19189953197945414 0.9053747919280659
0.3022683605780287 0.3243525349629276 0.9088880272406265
0.5077082766546142 0.20220754479558348 0.8207282478740036
0.4279266714461832 0.3090556307643857 0.816161957930262
0.4206263524842073 0.19189953197945414 0.9053747919280659
0.5022683605780287 0.3243525349629276 0.9088880272406265
0.7077082766546141 0.20220754479558348 0.8207282478740036
0.6279266714461832 0.3090556307643857 0.816161957930262
0.6206263524842073 0.19189953197945414 0.9053747919280659
0.7022683605780288 0.3243525349629276 0.9088880272406265
0.9077082766546142 0.20220754479558348 0.8207282478740036
0.8279266714461833 0.3090556307643857 0.816161957930262
0.8206263524842072 0.19189953197945414 0.9053747919280659
0.9022683605780287 0.3243525349629276 0.9088880272406265
0.10770827665461413 0.4022075447955835 0.8207282478740036
0.027926671446183177 0.5090556307643856 0.816161957930262
0.020626352484207276 0.39189953197945415 0.9053747919280659
0.10226836057802867 0.5243525349629276 0.9088880272406265
0.30770827665461414 0.4022075447955835 0.8207282478740036
0.22792667144618317 0.5090556307643856 0.816161957930262
0.22062635248420728 0.39189953197945415 0.9053747919280659
0.3022683605780287 0.5243525349629276 0.9088880272406265
0.5077082766546142 0.4022075447955835 0.8207282478740036
0.4279266714461832 0.5090556307643856 0.816161957930262
0.4206263524842073 0.39189953197945415 0.9053747919280659
0.5022683605780287 0.5243525349629276 0.9088880272406265
0.7077082766546141 0.4022075447955835 0.8207282478740036
0.6279266714461832 0.5090556307643856 0.816161957930262
0.6206263524842073 0.39189953197945415 0.9053747919280659
0.7022683605780288 0.5243525349629276 0.9088880272406265
0.9077082766546142 0.4022075447955835 0.8207282478740036
0.8279266714461833 0.5090556307643856 0.816161957930262
0.8206263524842072 0.39189953197945415 0.9053747919280659
0.9022683605780287 0.5243525349629276 0.9088880272406265
0.10770827665461413 0.6022075447955836 0.8207282478740036
0.027926671446183177 0.7090556307643857 0.816161957930262
0.020626352484207276 0.5918995319794542 0.9053747919280659
0.10226836057802867 0.7243525349629276 0.9088880272406265
0.30770827665461414 0.6022075447955836 0.8207282478740036
0.22792667144618317 0.7090556307643857 0.816161957930262
0.22062635248420728 0.5918995319794542 0.9053747919280659
0.3022683605780287 0.7243525349629276 0.9088880272406265
0.5077082766546142 0.6022075447955836 0.8207282478740036
0.4279266714461832 0.7090556307643857 0.816161957930262
0.4206263524842073 0.5918995319794542 0.9053747919280659
0.5022683605780287 0.7243525349629276 0.9088880272406265
0.7077082766546141 0.6022075447955836 0.8207282478740036
0.6279266714461832 0.7090556307643857 0.816161957930262
0.6206263524842073 0.5918995319794542 0.9053747919280659
0.7022683605780288 0.7243525349629276 0.9088880272406265
0.9077082766546142 0.6022075447955836 0.8207282478740036
0.8279266714461833 0.7090556307643857 0.816161957930262
0.8206263524842072 0.5918995319794542 0.9053747919280659
0.9022683605780287 0.7243525349629276 0.9088880272406265
0.10770827665461413 0.8022075447955835 0.8207282478740036
0.027926671446183177 0.9090556307643857 0.816161957930262
0.020626352484207276 0.7918995319794542 0.9053747919280659
0.10226836057802867 0.9243525349629276 0.9088880272406265
0.30770827665461414 0.8022075447955835 0.8207282478740036
0.22792667144618317 0.9090556307643857 0.816161957930262
0.22062635248420728 0.7918995319794542 0.9053747919280659
0.3022683605780287 0.9243525349629276 0.9088880272406265
0.5077082766546142 0.8022075447955835 0.8207282478740036
0.4279266714461832 0.9090556307643857 0.816161957930262
0.4206263524842073 0.7918995319794542 0.9053747919280659
0.5022683605780287 0.9243525349629276 0.9088880272406265
0.7077082766546141 0.8022075447955835 0.8207282478740036
0.6279266714461832 0.9090556307643857 0.816161957930262
0.6206263524842073 0.7918995319794542 0.9053747919280659
0.7022683605780288 0.9243525349629276 0.9088880272406265
0.9077082766546142 0.8022075447955835 0.8207282478740036
0.8279266714461833 0.9090556307643857 0.816161957930262
0.8206263524842072 0.7918995319794542 0.9053747919280659
0.9022683605780287 0.9243525349629276 0.9088880272406265
