FCC BaO
5.61604
3.0 0.0 0.0
0.0 3.0 0.0
0.0 0.0 3.0
Ba O 
108 108 
Direct
-0.08276663659759027 0.09771387604110332 0.0846543356953395
0.04683682662062103 0.17172676358779737 0.21209638929728197
0.056054782889244176 0.04700142026478352 0.2283448880171316
0.19677448196406078 0.1539422749852615 -0.07313262019058075
0.25056669673574306 0.09771387604110332 0.0846543356953395
0.3801701599539543 0.17172676358779737 0.21209638929728197
0.38938811622257746 0.04700142026478352 0.2283448880171316
0.5301078152973941 0.1539422749852615 -0.07313262019058075
0.5839000300690764 0.09771387604110332 0.0846543356953395
0.7135034932872877 0.17172676358779737 0.21209638929728197
0.7227214495559108 0.04700142026478352 0.2283448880171316
0.8634411486307274 0.1539422749852615 -0.07313262019058075
-0.08276663659759027 0.43104720937443664 0.0846543356953395
0.04683682662062103 0.5050600969211306 0.21209638929728197
0.056054782889244176 0.3803347535981168 0.2283448880171316
0.19677448196406078 0.4872756083185948 -0.07313262019058075
0.25056669673574306 0.43104720937443664 0.0846543356953395
0.3801701599539543 0.5050600969211306 0.21209638929728197
0.38938811622257746 0.3803347535981168 0.2283448880171316
0.5301078152973941 0.4872756083185948 -0.07313262019058075
0.5839000300690764 0.43104720937443664 0.0846543356953395
0.7135034932872877 0.5050600969211306 0.21209638929728197
0.7227214495559108 0.3803347535981168 0.2283448880171316
0.8634411486307274 0.4872756083185948 -0.07313262019058075
-0.08276663659759027 0.76438054270777 0.0846543356953395
0.04683682662062103 0.838393430254464 0.21209638929728197
0.056054782889244176 0.7136680869314502 0.2283448880171316
0.19677448196406078 0.8206089416519281 -0.07313262019058075
0.25056669673574306 0.76438054270777 0.0846543356953395
0.3801701599539543 0.838393430254464 0.21209638929728197
0.38938811622257746 0.7136680869314502 0.2283448880171316
0.5301078152973941 0.8206089416519281 -0.07313262019058075
0.5839000300690764 0.76438054270777 0.0846543356953395
0.7135034932872877 0.838393430254464 0.21209638929728197
0.7227214495559108 0.7136680869314502 0.2283448880171316
0.8634411486307274 0.8206089416519281 -0.07313262019058075
-0.08276663659759027 0.09771387604110332 0.41798766902867285
0.04683682662062103 0.17172676358779737 0.5454297226306153
0.056054782889244176 0.04700142026478352 0.5616782213504649
0.19677448196406078 0.1539422749852615 0.26020071314275256
0.25056669673574306 0.09771387604110332 0.41798766902867285
0.3801701599539543 0.17172676358779737 0.5454297226306153
0.38938811622257746 0.04700142026478352 0.5616782213504649
0.5301078152973941 0.1539422749852615 0.26020071314275256
0.5839000300690764 0.09771387604110332 0.41798766902867285
0.7135034932872877 0.17172676358779737 0.5454297226306153
0.7227214495559108 0.04700142026478352 0.5616782213504649
0.8634411486307274 0.1539422749852615 0.26020071314275256
-0.08276663659759027 0.43104720937443664 0.41798766902867285
0.04683682662062103 0.5050600969211306 0.5454297226306153
0.056054782889244176 0.3803347535981168 0.5616782213504649
0.19677448196406078 0.4872756083185948 0.26020071314275256
0.25056669673574306 0.43104720937443664 0.41798766902867285
0.3801701599539543 0.5050600969211306 0.5454297226306153
0.38938811622257746 0.3803347535981168 0.5616782213504649
0.5301078152973941 0.4872756083185948 0.26020071314275256
0.5839000300690764 0.43104720937443664 0.41798766902867285
0.7135034932872877 0.5050600969211306 0.5454297226306153
0.7227214495559108 0.3803347535981168 0.5616782213504649
0.8634411486307274 0.4872756083185948 0.26020071314275256
-0.08276663659759027 0.76438054270777 0.41798766902867285
0.04683682662062103 0.838393430254464 0.5454297226306153
0.056054782889244176 0.7136680869314502 0.5616782213504649
0.19677448196406078 0.8206089416519281 0.26020071314275256
0.25056669673574306 0.76438054270777 0.41798766902867285
0.3801701599539543 0.838393430254464 0.5454297226306153
0.38938811622257746 0.7136680869314502 0.5616782213504649
0.5301078152973941 0.8206089416519281 0.26020071314275256
0.5839000300690764 0.76438054270777 0.41798766902867285
0.7135034932872877 0.838393430254464 0.5454297226306153
0.7227214495559108 0.7136680869314502 0.5616782213504649
0.8634411486307274 0.8206089416519281 0.26020071314275256
-0.08276663659759027 0.09771387604110332 0.7513210023620062
0.04683682662062103 0.17172676358779737 0.8787630559639485
0.056054782889244176 0.04700142026478352 0.8950115546837982
0.19677448196406078 0.1539422749852615 0.5935340464760859
0.25056669673574306 0.09771387604110332 0.7513210023620062
0.3801701599539543 0.17172676358779737 0.8787630559639485
0.38938811622257746 0.04700142026478352 0.8950115546837982
0.5301078152973941 0.1539422749852615 0.5935340464760859
0.5839000300690764 0.09771387604110332 0.7513210023620062
0.7135034932872877 0.17172676358779737 0.8787630559639485
0.7227214495559108 0.04700142026478352 0.8950115546837982
0.8634411486307274 0.1539422749852615 0.5935340464760859
-0.08276663659759027 0.43104720937443664 0.7513210023620062
0.04683682662062103 0.5050600969211306 0.8787630559639485
0.056054782889244176 0.3803347535981168 0.8950115546837982
0.19677448196406078 0.4872756083185948 0.5935340464760859
0.25056669673574306 0.43104720937443664 0.7513210023620062
0.3801701599539543 0.5050600969211306 0.8787630559639485
0.38938811622257746 0.3803347535981168 0.8950115546837982
0.5301078152973941 0.4872756083185948 0.5935340464760859
0.5839000300690764 0.43104720937443664 0.7513210023620062
0.7135034932872877 0.5050600969211306 0.8787630559639485
0.7227214495559108 0.3803347535981168 0.8950115546837982
0.8634411486307274 0.4872756083185948 0.5935340464760859
-0.08276663659759027 0.76438054270777 0.7513210023620062
0.04683682662062103 0.838393430254464 0.8787630559639485
0.056054782889244176 0.7136680869314502 0.8950115546837982
0.19677448196406078 0.8206089416519281 0.5935340464760859
0.25056669673574306 0.76438054270777 0.7513210023620062
0.3801701599539543 0.838393430254464 0.8787630559639485
0.38938811622257746 0.7136680869314502 0.8950115546837982
0.5301078152973941 0.8206089416519281 0.5935340464760859
0.5839000300690764 0.76438054270777 0.7513210023620062
0.7135034932872877 0.838393430254464 0.8787630559639485
0.7227214495559108 0.7136680869314502 0.8950115546837982
0.8634411486307274 0.8206089416519281 0.5935340464760859
0.23916280107838617 0.022375489685538326 0.003865402180873208
-0.01672759224132883 0.15118948777514218 0.08650327651252049
-0.017093369204730615 0.013633107449073398 0.3127988676690002
0.11328852698971612 0.14035833991883817 0.24362696911019383
0.5724961344117194 0.022375489685538326 0.003865402180873208
0.31660574109200446 0.15118948777514218 0.08650327651252049
0.31623996412860267 0.013633107449073398 0.3127988676690002
0.44662186032304946 0.14035833991883817 0.24362696911019383
0.9058294677450528 0.022375489685538326 0.003865402180873208
0.6499390744253378 0.15118948777514218 0.08650327651252049
0.649573297461936 0.013633107449073398 0.3127988676690002
0.7799551936563828 0.14035833991883817 0.24362696911019383
0.23916280107838617 0.35570882301887163 0.003865402180873208
-0.01672759224132883 0.48452282110847555 0.08650327651252049
-0.017093369204730615 0.34696644078240674 0.3127988676690002
0.11328852698971612 0.4736916732521715 0.24362696911019383
0.5724961344117194 0.35570882301887163 0.003865402180873208
0.31660574109200446 0.48452282110847555 0.08650327651252049
0.31623996412860267 0.34696644078240674 0.3127988676690002
0.44662186032304946 0.4736916732521715 0.24362696911019383
0.9058294677450528 0.35570882301887163 0.003865402180873208
0.6499390744253378 0.48452282110847555 0.08650327651252049
0.649573297461936 0.34696644078240674 0.3127988676690002
0.7799551936563828 0.4736916732521715 0.24362696911019383
0.23916280107838617 0.6890421563522049 0.003865402180873208
-0.01672759224132883 0.8178561544418088 0.08650327651252049
-0.017093369204730615 0.6802997741157399 0.3127988676690002
0.11328852698971612 0.8070250065855049 0.24362696911019383
0.5724961344117194 0.6890421563522049 0.003865402180873208
0.31660574109200446 0.8178561544418088 0.08650327651252049
0.31623996412860267 0.6802997741157399 0.3127988676690002
0.44662186032304946 0.8070250065855049 0.24362696911019383
0.9058294677450528 0.6890421563522049 0.003865402180873208
0.6499390744253378 0.8178561544418088 0.08650327651252049
0.649573297461936 0.6802997741157399 0.3127988676690002
0.7799551936563828 0.8070250065855049 0.24362696911019383
0.23916280107838617 0.022375489685538326 0.33719873551420654
-0.01672759224132883 0.15118948777514218 0.4198366098458538
-0.017093369204730615 0.013633107449073398 0.6461322010023336
0.11328852698971612 0.14035833991883817 0.5769603024435271
0.5724961344117194 0.022375489685538326 0.33719873551420654
0.31660574109200446 0.15118948777514218 0.4198366098458538
0.31623996412860267 0.013633107449073398 0.6461322010023336
0.44662186032304946 0.14035833991883817 0.5769603024435271
0.9058294677450528 0.022375489685538326 0.33719873551420654
0.6499390744253378 0.15118948777514218 0.4198366098458538
0.649573297461936 0.013633107449073398 0.6461322010023336
0.7799551936563828 0.14035833991883817 0.5769603024435271
0.23916280107838617 0.35570882301887163 0.33719873551420654
-0.01672759224132883 0.48452282110847555 0.4198366098458538
-0.017093369204730615 0.34696644078240674 0.6461322010023336
0.11328852698971612 0.4736916732521715 0.5769603024435271
0.5724961344117194 0.35570882301887163 0.33719873551420654
0.31660574109200446 0.48452282110847555 0.4198366098458538
0.31623996412860267 0.34696644078240674 0.6461322010023336
0.44662186032304946 0.4736916732521715 0.5769603024435271
0.9058294677450528 0.35570882301887163 0.33719873551420654
0.6499390744253378 0.48452282110847555 0.4198366098458538
0.649573297461936 0.34696644078240674 0.6461322010023336
0.7799551936563828 0.4736916732521715 0.5769603024435271
0.23916280107838617 0.6890421563522049 0.33719873551420654
-0.01672759224132883 0.8178561544418088 0.4198366098458538
-0.017093369204730615 0.6802997741157399 0.6461322010023336
0.11328852698971612 0.8070250065855049 0.5769603024435271
0.5724961344117194 0.6890421563522049 0.33719873551420654
0.31660574109200446 0.8178561544418088 0.4198366098458538
0.31623996412860267 0.6802997741157399 0.6461322010023336
0.44662186032304946 0.8070250065855049 0.5769603024435271
0.9058294677450528 0.6890421563522049 0.33719873551420654
0.6499390744253378 0.8178561544418088 0.4198366098458538
0.649573297461936 0.6802997741157399 0.6461322010023336
0.7799551936563828 0.8070250065855049 0.5769603024435271
0.23916280107838617 0.022375489685538326 0.6705320688475399
-0.01672759224132883 0.15118948777514218 0.7531699431791871
-0.017093369204730615 0.013633107449073398 0.9794655343356669
0.11328852698971612 0.14035833991883817 0.9102936357768604
0.5724961344117194 0.022375489685538326 0.6705320688475399
0.31660574109200446 0.15118948777514218 0.7531699431791871
0.31623996412860267 0.013633107449073398 0.9794655343356669
0.44662186032304946 0.14035833991883817 0.9102936357768604
0.9058294677450528 0.022375489685538326 0.6705320688475399
0.6499390744253378 0.15118948777514218 0.7531699431791871
0.649573297461936 0.013633107449073398 0.9794655343356669
0.7799551936563828 0.14035833991883817 0.9102936357768604
0.23916280107838617 0.35570882301887163 0.6705320688475399
-0.01672759224132883 0.48452282110847555 0.7531699431791871
-0.017093369204730615 0.34696644078240674 0.9794655343356669
0.11328852698971612 0.4736916732521715 0.9102936357768604
0.5724961344117194 0.35570882301887163 0.6705320688475399
0.31660574109200446 0.48452282110847555 0.7531699431791871
0.31623996412860267 0.34696644078240674 0.9794655343356669
0.44662186032304946 0.4736916732521715 0.9102936357768604
0.9058294677450528 0.35570882301887163 0.6705320688475399
0.6499390744253378 0.48452282110847555 0.7531699431791871
0.649573297461936 0.34696644078240674 0.9794655343356669
0.7799551936563828 0.4736916732521715 0.9102936357768604
0.23916280107838617 0.6890421563522049 0.6705320688475399
-0.01672759224132883 0.8178561544418088 0.7531699431791871
-0.017093369204730615 0.6802997741157399 0.9794655343356669
0.11328852698971612 0.8070250065855049 0.9102936357768604
0.5724961344117194 0.6890421563522049 0.6705320688475399
0.31660574109200446 0.8178561544418088 0.7531699431791871
0.31623996412860267 0.6802997741157399 0.9794655343356669
0.44662186032304946 0.8070250065855049 0.9102936357768604
0.9058294677450528 0.6890421563522049 0.6705320688475399
0.6499390744253378 0.8178561544418088 0.7531699431791871
0.649573297461936 0.6802997741157399 0.9794655343356669
0.7799551936563828 0.8070250065855049 0.9102936357768604
