FCC BaO
5.61604
3.0 0.0 0.0
0.0 3.0 0.0
0.0 0.0 3.0
Ba O 
108 108 
Direct
-0.06371849700946437 0.038752983226998224 0.03327276102112028
-0.10195791629422918 0.14962321596093925 0.10862489110881296
0.37975057287823866 0.2400772411822742 -0.026118897408108986
0.12184525193023821 0.20439077498373825 -0.011599874099500926
0.26961483632386896 0.038752983226998224 0.03327276102112028
0.23137541703910416 0.14962321596093925 0.10862489110881296
0.7130839062115719 0.2400772411822742 -0.026118897408108986
0.4551785852635715 0.20439077498373825 -0.011599874099500926
0.6029481696572022 0.038752983226998224 0.03327276102112028
0.5647087503724375 0.14962321596093925 0.10862489110881296
1.0464172395449052 0.2400772411822742 -0.026118897408108986
0.788511918596905 0.20439077498373825 -0.011599874099500926
-0.06371849700946437 0.37208631656033153 0.03327276102112028
-0.10195791629422918 0.48295654929427256 0.10862489110881296
0.37975057287823866 0.5734105745156075 -0.026118897408108986
0.12184525193023821 0.5377241083170716 -0.011599874099500926
0.26961483632386896 0.37208631656033153 0.03327276102112028
0.23137541703910416 0.48295654929427256 0.10862489110881296
0.7130839062115719 0.5734105745156075 -0.026118897408108986
0.4551785852635715 0.5377241083170716 -0.011599874099500926
0.6029481696572022 0.37208631656033153 0.03327276102112028
0.5647087503724375 0.48295654929427256 0.10862489110881296
1.0464172395449052 0.5734105745156075 -0.026118897408108986
0.788511918596905 0.5377241083170716 -0.011599874099500926
-0.06371849700946437 0.7054196498936648 0.03327276102112028
-0.10195791629422918 0.8162898826276059 0.10862489110881296
0.37975057287823866 0.9067439078489408 -0.026118897408108986
0.12184525193023821 0.8710574416504049 -0.011599874099500926
0.26961483632386896 0.7054196498936648 0.03327276102112028
0.23137541703910416 0.8162898826276059 0.10862489110881296
0.7130839062115719 0.9067439078489408 -0.026118897408108986
0.4551785852635715 0.8710574416504049 -0.011599874099500926
0.6029481696572022 0.7054196498936648 0.03327276102112028
0.5647087503724375 0.8162898826276059 0.10862489110881296
1.0464172395449052 0.9067439078489408 -0.026118897408108986
0.788511918596905 0.8710574416504049 -0.011599874099500926
-0.06371849700946437 0.038752983226998224 0.3666060943544536
-0.10195791629422918 0.14962321596093925 0.4419582244421463
0.37975057287823866 0.2400772411822742 0.30721443592522435
0.12184525193023821 0.20439077498373825 0.3217334592338324
0.26961483632386896 0.038752983226998224 0.3666060943544536
0.23137541703910416 0.14962321596093925 0.4419582244421463
0.7130839062115719 0.2400772411822742 0.30721443592522435
0.4551785852635715 0.20439077498373825 0.3217334592338324
0.6029481696572022 0.038752983226998224 0.3666060943544536
0.5647087503724375 0.14962321596093925 0.4419582244421463
1.0464172395449052 0.2400772411822742 0.30721443592522435
0.788511918596905 0.20439077498373825 0.3217334592338324
-0.06371849700946437 0.37208631656033153 0.3666060943544536
-0.10195791629422918 0.48295654929427256 0.4419582244421463
0.37975057287823866 0.5734105745156075 0.30721443592522435
0.12184525193023821 0.5377241083170716 0.3217334592338324
0.26961483632386896 0.37208631656033153 0.3666060943544536
0.23137541703910416 0.48295654929427256 0.4419582244421463
0.7130839062115719 0.5734105745156075 0.30721443592522435
0.4551785852635715 0.5377241083170716 0.3217334592338324
0.6029481696572022 0.37208631656033153 0.3666060943544536
0.5647087503724375 0.48295654929427256 0.4419582244421463
1.0464172395449052 0.5734105745156075 0.30721443592522435
0.788511918596905 0.5377241083170716 0.3217334592338324
-0.06371849700946437 0.7054196498936648 0.3666060943544536
-0.10195791629422918 0.8162898826276059 0.4419582244421463
0.37975057287823866 0.9067439078489408 0.30721443592522435
0.12184525193023821 0.8710574416504049 0.3217334592338324
0.26961483632386896 0.7054196498936648 0.3666060943544536
0.23137541703910416 0.8162898826276059 0.4419582244421463
0.7130839062115719 0.9067439078489408 0.30721443592522435
0.4551785852635715 0.8710574416504049 0.3217334592338324
0.6029481696572022 0.7054196498936648 0.3666060943544536
0.5647087503724375 0.8162898826276059 0.4419582244421463
1.0464172395449052 0.9067439078489408 0.30721443592522435
0.788511918596905 0.8710574416504049 0.3217334592338324
-0.06371849700946437 0.038752983226998224 0.6999394276877868
-0.10195791629422918 0.14962321596093925 0.7752915577754795
0.37975057287823866 0.2400772411822742 0.6405477692585576
0.12184525193023821 0.20439077498373825 0.6550667925671657
0.26961483632386896 0.038752983226998224 0.6999394276877868
0.23137541703910416 0.14962321596093925 0.7752915577754795
0.7130839062115719 0.2400772411822742 0.6405477692585576
0.4551785852635715 0.20439077498373825 0.6550667925671657
0.6029481696572022 0.038752983226998224 0.6999394276877868
0.5647087503724375 0.14962321596093925 0.7752915577754795
1.0464172395449052 0.2400772411822742 0.6405477692585576
0.788511918596905 0.20439077498373825 0.6550667925671657
-0.06371849700946437 0.37208631656033153 0.6999394276877868
-0.10195791629422918 0.48295654929427256 0.7752915577754795
0.37975057287823866 0.5734105745156075 0.6405477692585576
0.12184525193023821 0.5377241083170716 0.6550667925671657
0.26961483632386896 0.37208631656033153 0.6999394276877868
0.23137541703910416 0.48295654929427256 0.7752915577754795
0.7130839062115719 0.5734105745156075 0.6405477692585576
0.4551785852635715 0.5377241083170716 0.6550667925671657
0.6029481696572022 0.37208631656033153 0.6999394276877868
0.5647087503724375 0.48295654929427256 0.7752915577754795
1.0464172395449052 0.5734105745156075 0.6405477692585576
0.788511918596905 0.5377241083170716 0.6550667925671657
-0.06371849700946437 0.7054196498936648 0.6999394276877868
-0.10195791629422918 0.8162898826276059 0.7752915577754795
0.37975057287823866 0.9067439078489408 0.6405477692585576
0.12184525193023821 0.8710574416504049 0.6550667925671657
0.26961483632386896 0.7054196498936648 0.6999394276877868
0.23137541703910416 0.8162898826276059 0.7752915577754795
0.7130839062115719 0.9067439078489408 0.6405477692585576
0.4551785852635715 0.8710574416504049 0.6550667925671657
0.6029481696572022 0.7054196498936648 0.6999394276877868
0.5647087503724375 0.8162898826276059 0.7752915577754795
1.0464172395449052 0.9067439078489408 0.6405477692585576
0.788511918596905 0.8710574416504049 0.6550667925671657
0.04820993650865811 0.07489463307972745 -0.005177476060394909
-0.4098958190961314 0.2798240084053935 0.2970262996128803
-0.21386804313847096 -0.20845307626769916 0.24192353715995335
0.27422675631032367 0.17626322415529244 0.05339820236550961
0.38154326984199144 0.07489463307972745 -0.005177476060394909
-0.07656248576279807 0.2798240084053935 0.2970262996128803
0.11946529019486236 -0.20845307626769916 0.24192353715995335
0.6075600896436569 0.17626322415529244 0.05339820236550961
0.7148766031753248 0.07489463307972745 -0.005177476060394909
0.25677084757053525 0.2798240084053935 0.2970262996128803
0.45279862352819567 -0.20845307626769916 0.24192353715995335
0.9408934229769903 0.17626322415529244 0.05339820236550961
0.04820993650865811 0.4082279664130608 -0.005177476060394909
-0.4098958190961314 0.6131573417387268 0.2970262996128803
-0.21386804313847096 0.12488025706563417 0.24192353715995335
0.27422675631032367 0.5095965574886258 0.05339820236550961
0.38154326984199144 0.4082279664130608 -0.005177476060394909
-0.07656248576279807 0.6131573417387268 0.2970262996128803
0.11946529019486236 0.12488025706563417 0.24192353715995335
0.6075600896436569 0.5095965574886258 0.05339820236550961
0.7148766031753248 0.4082279664130608 -0.005177476060394909
0.25677084757053525 0.6131573417387268 0.2970262996128803
0.45279862352819567 0.12488025706563417 0.24192353715995335
0.9408934229769903 0.5095965574886258 0.05339820236550961
0.04820993650865811 0.7415612997463941 -0.005177476060394909
-0.4098958190961314 0.9464906750720601 0.2970262996128803
-0.21386804313847096 0.45821359039896753 0.24192353715995335
0.27422675631032367 0.8429298908219591 0.05339820236550961
0.38154326984199144 0.7415612997463941 -0.005177476060394909
-0.07656248576279807 0.9464906750720601 0.2970262996128803
0.11946529019486236 0.45821359039896753 0.24192353715995335
0.6075600896436569 0.8429298908219591 0.05339820236550961
0.7148766031753248 0.7415612997463941 -0.005177476060394909
0.25677084757053525 0.9464906750720601 0.2970262996128803
0.45279862352819567 0.45821359039896753 0.24192353715995335
0.9408934229769903 0.8429298908219591 0.05339820236550961
0.04820993650865811 0.07489463307972745 0.3281558572729384
-0.4098958190961314 0.2798240084053935 0.6303596329462136
-0.21386804313847096 -0.20845307626769916 0.5752568704932867
0.27422675631032367 0.17626322415529244 0.3867315356988429
0.38154326984199144 0.07489463307972745 0.3281558572729384
-0.07656248576279807 0.2798240084053935 0.6303596329462136
0.11946529019486236 -0.20845307626769916 0.5752568704932867
0.6075600896436569 0.17626322415529244 0.3867315356988429
0.7148766031753248 0.07489463307972745 0.3281558572729384
0.25677084757053525 0.2798240084053935 0.6303596329462136
0.45279862352819567 -0.20845307626769916 0.5752568704932867
0.9408934229769903 0.17626322415529244 0.3867315356988429
0.04820993650865811 0.4082279664130608 0.3281558572729384
-0.4098958190961314 0.6131573417387268 0.6303596329462136
-0.21386804313847096 0.12488025706563417 0.5752568704932867
0.27422675631032367 0.5095965574886258 0.3867315356988429
0.38154326984199144 0.4082279664130608 0.3281558572729384
-0.07656248576279807 0.6131573417387268 0.6303596329462136
0.11946529019486236 0.12488025706563417 0.5752568704932867
0.6075600896436569 0.5095965574886258 0.3867315356988429
0.7148766031753248 0.4082279664130608 0.3281558572729384
0.25677084757053525 0.6131573417387268 0.6303596329462136
0.45279862352819567 0.12488025706563417 0.5752568704932867
0.9408934229769903 0.5095965574886258 0.3867315356988429
0.04820993650865811 0.7415612997463941 0.3281558572729384
-0.4098958190961314 0.9464906750720601 0.6303596329462136
-0.21386804313847096 0.45821359039896753 0.5752568704932867
0.27422675631032367 0.8429298908219591 0.3867315356988429
0.38154326984199144 0.7415612997463941 0.3281558572729384
-0.07656248576279807 0.9464906750720601 0.6303596329462136
0.11946529019486236 0.45821359039896753 0.5752568704932867
0.6075600896436569 0.8429298908219591 0.3867315356988429
0.7148766031753248 0.7415612997463941 0.3281558572729384
0.25677084757053525 0.9464906750720601 0.6303596329462136
0.45279862352819567 0.45821359039896753 0.5752568704932867
0.9408934229769903 0.8429298908219591 0.3867315356988429
0.04820993650865811 0.07489463307972745 0.6614891906062716
-0.4098958190961314 0.2798240084053935 0.963692966279547
-0.21386804313847096 -0.20845307626769916 0.90859020382662
0.27422675631032367 0.17626322415529244 0.7200648690321763
0.38154326984199144 0.07489463307972745 0.6614891906062716
-0.07656248576279807 0.2798240084053935 0.963692966279547
0.11946529019486236 -0.20845307626769916 0.90859020382662
0.6075600896436569 0.17626322415529244 0.7200648690321763
0.7148766031753248 0.07489463307972745 0.6614891906062716
0.25677084757053525 0.2798240084053935 0.963692966279547
0.45279862352819567 -0.20845307626769916 0.90859020382662
0.9408934229769903 0.17626322415529244 0.7200648690321763
0.04820993650865811 0.4082279664130608 0.6614891906062716
-0.4098958190961314 0.6131573417387268 0.963692966279547
-0.21386804313847096 0.12488025706563417 0.90859020382662
0.27422675631032367 0.5095965574886258 0.7200648690321763
0.38154326984199144 0.4082279664130608 0.6614891906062716
-0.07656248576279807 0.6131573417387268 0.963692966279547
0.11946529019486236 0.12488025706563417 0.90859020382662
0.6075600896436569 0.5095965574886258 0.7200648690321763
0.7148766031753248 0.4082279664130608 0.6614891906062716
0.25677084757053525 0.6131573417387268 0.963692966279547
0.45279862352819567 0.12488025706563417 0.90859020382662
0.9408934229769903 0.5095965574886258 0.7200648690321763
0.04820993650865811 0.7415612997463941 0.6614891906062716
-0.4098958190961314 0.9464906750720601 0.963692966279547
-0.21386804313847096 0.45821359039896753 0.90859020382662
0.27422675631032367 0.8429298908219591 0.7200648690321763
0.38154326984199144 0.7415612997463941 0.6614891906062716
-0.07656248576279807 0.9464906750720601 0.963692966279547
0.11946529019486236 0.45821359039896753 0.90859020382662
0.6075600896436569 0.8429298908219591 0.7200648690321763
0.7148766031753248 0.7415612997463941 0.6614891906062716
0.25677084757053525 0.9464906750720601 0.963692966279547
0.45279862352819567 0.45821359039896753 0.90859020382662
0.9408934229769903 0.8429298908219591 0.7200648690321763
