FCC BaO
5.61604
3.0 0.0 0.0
0.0 3.0 0.0
0.0 0.0 3.0
Ba O 
108 108 
Direct
-0.19968193232477055 0.037999403979699566 0.12073144915298051
-0.04410320399519306 0.2690840439238189 0.24766625596689923
-0.030344557145163126 0.029752408868820125 0.07978128661946521
0.3917866114080675 0.2842687791299431 -0.25561814207644606
0.13365140100856276 0.037999403979699566 0.12073144915298051
0.28923012933814024 0.2690840439238189 0.24766625596689923
0.3029887761881702 0.029752408868820125 0.07978128661946521
0.7251199447414007 0.2842687791299431 -0.25561814207644606
0.4669847343418961 0.037999403979699566 0.12073144915298051
0.6225634626714736 0.2690840439238189 0.24766625596689923
0.6363221095215035 0.029752408868820125 0.07978128661946521
1.058453278074734 0.2842687791299431 -0.25561814207644606
-0.19968193232477055 0.3713327373130329 0.12073144915298051
-0.04410320399519306 0.6024173772571522 0.24766625596689923
-0.030344557145163126 0.36308574220215345 0.07978128661946521
0.3917866114080675 0.6176021124632763 -0.25561814207644606
0.13365140100856276 0.3713327373130329 0.12073144915298051
0.28923012933814024 0.6024173772571522 0.24766625596689923
0.3029887761881702 0.36308574220215345 0.07978128661946521
0.7251199447414007 0.6176021124632763 -0.25561814207644606
0.4669847343418961 0.3713327373130329 0.12073144915298051
0.6225634626714736 0.6024173772571522 0.24766625596689923
0.6363221095215035 0.36308574220215345 0.07978128661946521
1.058453278074734 0.6176021124632763 -0.25561814207644606
-0.19968193232477055 0.7046660706463662 0.12073144915298051
-0.04410320399519306 0.9357507105904856 0.24766625596689923
-0.030344557145163126 0.6964190755354867 0.07978128661946521
0.3917866114080675 0.9509354457966097 -0.25561814207644606
0.13365140100856276 0.7046660706463662 0.12073144915298051
0.28923012933814024 0.9357507105904856 0.24766625596689923
0.3029887761881702 0.6964190755354867 0.07978128661946521
0.7251199447414007 0.9509354457966097 -0.25561814207644606
0.4669847343418961 0.7046660706463662 0.12073144915298051
0.6225634626714736 0.9357507105904856 0.24766625596689923
0.6363221095215035 0.6964190755354867 0.07978128661946521
1.058453278074734 0.9509354457966097 -0.25561814207644606
-0.19968193232477055 0.037999403979699566 0.4540647824863138
-0.04410320399519306 0.2690840439238189 0.5809995893002325
-0.030344557145163126 0.029752408868820125 0.4131146199527985
0.3917866114080675 0.2842687791299431 0.07771519125688726
0.13365140100856276 0.037999403979699566 0.4540647824863138
0.28923012933814024 0.2690840439238189 0.5809995893002325
0.3029887761881702 0.029752408868820125 0.4131146199527985
0.7251199447414007 0.2842687791299431 0.07771519125688726
0.4669847343418961 0.037999403979699566 0.4540647824863138
0.6225634626714736 0.2690840439238189 0.5809995893002325
0.6363221095215035 0.029752408868820125 0.4131146199527985
1.058453278074734 0.2842687791299431 0.07771519125688726
-0.19968193232477055 0.3713327373130329 0.4540647824863138
-0.04410320399519306 0.6024173772571522 0.5809995893002325
-0.030344557145163126 0.36308574220215345 0.4131146199527985
0.3917866114080675 0.6176021124632763 0.07771519125688726
0.13365140100856276 0.3713327373130329 0.4540647824863138
0.28923012933814024 0.6024173772571522 0.5809995893002325
0.3029887761881702 0.36308574220215345 0.4131146199527985
0.7251199447414007 0.6176021124632763 0.07771519125688726
0.4669847343418961 0.3713327373130329 0.4540647824863138
0.6225634626714736 0.6024173772571522 0.5809995893002325
0.6363221095215035 0.36308574220215345 0.4131146199527985
1.058453278074734 0.6176021124632763 0.07771519125688726
-0.19968193232477055 0.7046660706463662 0.4540647824863138
-0.04410320399519306 0.9357507105904856 0.5809995893002325
-0.030344557145163126 0.6964190755354867 0.4131146199527985
0.3917866114080675 0.9509354457966097 0.07771519125688726
0.13365140100856276 0.7046660706463662 0.4540647824863138
0.28923012933814024 0.9357507105904856 0.5809995893002325
0.3029887761881702 0.6964190755354867 0.4131146199527985
0.7251199447414007 0.9509354457966097 0.07771519125688726
0.4669847343418961 0.7046660706463662 0.4540647824863138
0.6225634626714736 0.9357507105904856 0.5809995893002325
0.6363221095215035 0.6964190755354867 0.4131146199527985
1.058453278074734 0.9509354457966097 0.07771519125688726
-0.19968193232477055 0.037999403979699566 0.787398115819647
-0.04410320399519306 0.2690840439238189 0.9143329226335659
-0.030344557145163126 0.029752408868820125 0.7464479532861318
0.3917866114080675 0.2842687791299431 0.41104852459022057
0.13365140100856276 0.037999403979699566 0.787398115819647
0.28923012933814024 0.2690840439238189 0.9143329226335659
0.3029887761881702 0.029752408868820125 0.7464479532861318
0.7251199447414007 0.2842687791299431 0.41104852459022057
0.4669847343418961 0.037999403979699566 0.787398115819647
0.6225634626714736 0.2690840439238189 0.9143329226335659
0.6363221095215035 0.029752408868820125 0.7464479532861318
1.058453278074734 0.2842687791299431 0.41104852459022057
-0.19968193232477055 0.3713327373130329 0.787398115819647
-0.04410320399519306 0.6024173772571522 0.9143329226335659
-0.030344557145163126 0.36308574220215345 0.7464479532861318
0.3917866114080675 0.6176021124632763 0.41104852459022057
0.13365140100856276 0.3713327373130329 0.787398115819647
0.28923012933814024 0.6024173772571522 0.9143329226335659
0.3029887761881702 0.36308574220215345 0.7464479532861318
0.7251199447414007 0.6176021124632763 0.41104852459022057
0.4669847343418961 0.3713327373130329 0.787398115819647
0.6225634626714736 0.6024173772571522 0.9143329226335659
0.6363221095215035 0.36308574220215345 0.7464479532861318
1.058453278074734 0.6176021124632763 0.41104852459022057
-0.19968193232477055 0.7046660706463662 0.787398115819647
-0.04410320399519306 0.9357507105904856 0.9143329226335659
-0.030344557145163126 0.6964190755354867 0.7464479532861318
0.3917866114080675 0.9509354457966097 0.41104852459022057
0.13365140100856276 0.7046660706463662 0.787398115819647
0.28923012933814024 0.9357507105904856 0.9143329226335659
0.3029887761881702 0.6964190755354867 0.7464479532861318
0.7251199447414007 0.9509354457966097 0.41104852459022057
0.4669847343418961 0.7046660706463662 0.787398115819647
0.6225634626714736 0.9357507105904856 0.9143329226335659
0.6363221095215035 0.6964190755354867 0.7464479532861318
1.058453278074734 0.9509354457966097 0.41104852459022057
0.2263240818083419 0.17902210048032455 0.0866356582614316
0.02837163739081358 0.10665753363778627 -0.2508198442686061
-0.09610819057044684 0.09651203188301208 0.46769171241785557
0.11489388015905617 0.16215194340773936 0.020319026794568998
0.5596574151416752 0.17902210048032455 0.0866356582614316
0.3617049707241469 0.10665753363778627 -0.2508198442686061
0.23722514276288648 0.09651203188301208 0.46769171241785557
0.44822721349238953 0.16215194340773936 0.020319026794568998
0.8929907484750086 0.17902210048032455 0.0866356582614316
0.6950383040574801 0.10665753363778627 -0.2508198442686061
0.5705584760962198 0.09651203188301208 0.46769171241785557
0.7815605468257228 0.16215194340773936 0.020319026794568998
0.2263240818083419 0.5123554338136579 0.0866356582614316
0.02837163739081358 0.43999086697111955 -0.2508198442686061
-0.09610819057044684 0.4298453652163454 0.46769171241785557
0.11489388015905617 0.4954852767410727 0.020319026794568998
0.5596574151416752 0.5123554338136579 0.0866356582614316
0.3617049707241469 0.43999086697111955 -0.2508198442686061
0.23722514276288648 0.4298453652163454 0.46769171241785557
0.44822721349238953 0.4954852767410727 0.020319026794568998
0.8929907484750086 0.5123554338136579 0.0866356582614316
0.6950383040574801 0.43999086697111955 -0.2508198442686061
0.5705584760962198 0.4298453652163454 0.46769171241785557
0.7815605468257228 0.4954852767410727 0.020319026794568998
0.2263240818083419 0.8456887671469913 0.0866356582614316
0.02837163739081358 0.7733242003044529 -0.2508198442686061
-0.09610819057044684 0.7631786985496787 0.46769171241785557
0.11489388015905617 0.8288186100744059 0.020319026794568998
0.5596574151416752 0.8456887671469913 0.0866356582614316
0.3617049707241469 0.7733242003044529 -0.2508198442686061
0.23722514276288648 0.7631786985496787 0.46769171241785557
0.44822721349238953 0.8288186100744059 0.020319026794568998
0.8929907484750086 0.8456887671469913 0.0866356582614316
0.6950383040574801 0.7733242003044529 -0.2508198442686061
0.5705584760962198 0.7631786985496787 0.46769171241785557
0.7815605468257228 0.8288186100744059 0.020319026794568998
0.2263240818083419 0.17902210048032455 0.4199689915947649
0.02837163739081358 0.10665753363778627 0.08251348906472722
-0.09610819057044684 0.09651203188301208 0.8010250457511889
0.11489388015905617 0.16215194340773936 0.3536523601279023
0.5596574151416752 0.17902210048032455 0.4199689915947649
0.3617049707241469 0.10665753363778627 0.08251348906472722
0.23722514276288648 0.09651203188301208 0.8010250457511889
0.44822721349238953 0.16215194340773936 0.3536523601279023
0.8929907484750086 0.17902210048032455 0.4199689915947649
0.6950383040574801 0.10665753363778627 0.08251348906472722
0.5705584760962198 0.09651203188301208 0.8010250457511889
0.7815605468257228 0.16215194340773936 0.3536523601279023
0.2263240818083419 0.5123554338136579 0.4199689915947649
0.02837163739081358 0.43999086697111955 0.08251348906472722
-0.09610819057044684 0.4298453652163454 0.8010250457511889
0.11489388015905617 0.4954852767410727 0.3536523601279023
0.5596574151416752 0.5123554338136579 0.4199689915947649
0.3617049707241469 0.43999086697111955 0.08251348906472722
0.23722514276288648 0.4298453652163454 0.8010250457511889
0.44822721349238953 0.4954852767410727 0.3536523601279023
0.8929907484750086 0.5123554338136579 0.4199689915947649
0.6950383040574801 0.43999086697111955 0.08251348906472722
0.5705584760962198 0.4298453652163454 0.8010250457511889
0.7815605468257228 0.4954852767410727 0.3536523601279023
0.2263240818083419 0.8456887671469913 0.4199689915947649
0.02837163739081358 0.7733242003044529 0.08251348906472722
-0.09610819057044684 0.7631786985496787 0.8010250457511889
0.11489388015905617 0.8288186100744059 0.3536523601279023
0.5596574151416752 0.8456887671469913 0.4199689915947649
0.3617049707241469 0.7733242003044529 0.08251348906472722
0.23722514276288648 0.7631786985496787 0.8010250457511889
0.44822721349238953 0.8288186100744059 0.3536523601279023
0.8929907484750086 0.8456887671469913 0.4199689915947649
0.6950383040574801 0.7733242003044529 0.08251348906472722
0.5705584760962198 0.7631786985496787 0.8010250457511889
0.7815605468257228 0.8288186100744059 0.3536523601279023
0.2263240818083419 0.17902210048032455 0.7533023249280983
0.02837163739081358 0.10665753363778627 0.41584682239806053
-0.09610819057044684 0.09651203188301208 1.1343583790845222
0.11489388015905617 0.16215194340773936 0.6869856934612356
0.5596574151416752 0.17902210048032455 0.7533023249280983
0.3617049707241469 0.10665753363778627 0.41584682239806053
0.23722514276288648 0.09651203188301208 1.1343583790845222
0.44822721349238953 0.16215194340773936 0.6869856934612356
0.8929907484750086 0.17902210048032455 0.7533023249280983
0.6950383040574801 0.10665753363778627 0.41584682239806053
0.5705584760962198 0.09651203188301208 1.1343583790845222
0.7815605468257228 0.16215194340773936 0.6869856934612356
0.2263240818083419 0.5123554338136579 0.7533023249280983
0.02837163739081358 0.43999086697111955 0.41584682239806053
-0.09610819057044684 0.4298453652163454 1.1343583790845222
0.11489388015905617 0.4954852767410727 0.6869856934612356
0.5596574151416752 0.5123554338136579 0.7533023249280983
0.3617049707241469 0.43999086697111955 0.41584682239806053
0.23722514276288648 0.4298453652163454 1.1343583790845222
0.44822721349238953 0.4954852767410727 0.6869856934612356
0.8929907484750086 0.5123554338136579 0.7533023249280983
0.6950383040574801 0.43999086697111955 0.41584682239806053
0.5705584760962198 0.4298453652163454 1.1343583790845222
0.7815605468257228 0.4954852767410727 0.6869856934612356
0.2263240818083419 0.8456887671469913 0.7533023249280983
0.02837163739081358 0.7733242003044529 0.41584682239806053
-0.09610819057044684 0.7631786985496787 1.1343583790845222
0.11489388015905617 0.8288186100744059 0.6869856934612356
0.5596574151416752 0.8456887671469913 0.7533023249280983
0.3617049707241469 0.7733242003044529 0.41584682239806053
0.23722514276288648 0.7631786985496787 1.1343583790845222
0.44822721349238953 0.8288186100744059 0.6869856934612356
0.8929907484750086 0.8456887671469913 0.7533023249280983
0.6950383040574801 0.7733242003044529 0.41584682239806053
0.5705584760962198 0.7631786985496787 1.1343583790845222
0.7815605468257228 0.8288186100744059 0.6869856934612356
