FCC BaO
3.971
5.0 0.0 0.0
0.0 5.0 0.0
0.0 0.0 5.0
Ba O 
500 500 
Direct
0.019290986656005066 -0.017464718754326983 0.007853168931887413
-0.014536216714861853 0.12721490596206123 0.08155042729240597
0.09641491666906545 0.00882297205080127 0.11210471599735515
0.11173414440082395 0.07551211511818935 0.021550808406010744
0.21929098665600508 -0.017464718754326983 0.007853168931887413
0.18546378328513816 0.12721490596206123 0.08155042729240597
0.29641491666906544 0.00882297205080127 0.11210471599735515
0.311734144400824 0.07551211511818935 0.021550808406010744
0.41929098665600506 -0.017464718754326983 0.007853168931887413
0.3854637832851382 0.12721490596206123 0.08155042729240597
0.49641491666906545 0.00882297205080127 0.11210471599735515
0.511734144400824 0.07551211511818935 0.021550808406010744
0.6192909866560051 -0.017464718754326983 0.007853168931887413
0.5854637832851382 0.12721490596206123 0.08155042729240597
0.6964149166690654 0.00882297205080127 0.11210471599735515
0.711734144400824 0.07551211511818935 0.021550808406010744
0.8192909866560051 -0.017464718754326983 0.007853168931887413
0.7854637832851381 0.12721490596206123 0.08155042729240597
0.8964149166690656 0.00882297205080127 0.11210471599735515
0.911734144400824 0.07551211511818935 0.021550808406010744
0.019290986656005066 0.18253528124567303 0.007853168931887413
-0.014536216714861853 0.32721490596206126 0.08155042729240597
0.09641491666906545 0.20882297205080125 0.11210471599735515
0.11173414440082395 0.27551211511818935 0.021550808406010744
0.21929098665600508 0.18253528124567303 0.007853168931887413
0.18546378328513816 0.32721490596206126 0.08155042729240597
0.29641491666906544 0.20882297205080125 0.11210471599735515
0.311734144400824 0.27551211511818935 0.021550808406010744
0.41929098665600506 0.18253528124567303 0.007853168931887413
0.3854637832851382 0.32721490596206126 0.08155042729240597
0.49641491666906545 0.20882297205080125 0.11210471599735515
0.511734144400824 0.27551211511818935 0.021550808406010744
0.6192909866560051 0.18253528124567303 0.007853168931887413
0.5854637832851382 0.32721490596206126 0.08155042729240597
0.6964149166690654 0.20882297205080125 0.11210471599735515
0.711734144400824 0.27551211511818935 0.021550808406010744
0.8192909866560051 0.18253528124567303 0.007853168931887413
0.7854637832851381 0.32721490596206126 0.08155042729240597
0.8964149166690656 0.20882297205080125 0.11210471599735515
0.911734144400824 0.27551211511818935 0.021550808406010744
0.019290986656005066 0.38253528124567304 0.007853168931887413
-0.014536216714861853 0.5272149059620612 0.08155042729240597
0.09641491666906545 0.40882297205080126 0.11210471599735515
0.11173414440082395 0.47551211511818936 0.021550808406010744
0.21929098665600508 0.38253528124567304 0.007853168931887413
0.18546378328513816 0.5272149059620612 0.08155042729240597
0.29641491666906544 0.40882297205080126 0.11210471599735515
0.311734144400824 0.47551211511818936 0.021550808406010744
0.41929098665600506 0.38253528124567304 0.007853168931887413
0.3854637832851382 0.5272149059620612 0.08155042729240597
0.49641491666906545 0.40882297205080126 0.11210471599735515
0.511734144400824 0.47551211511818936 0.021550808406010744
0.6192909866560051 0.38253528124567304 0.007853168931887413
0.5854637832851382 0.5272149059620612 0.08155042729240597
0.6964149166690654 0.40882297205080126 0.11210471599735515
0.711734144400824 0.47551211511818936 0.021550808406010744
0.8192909866560051 0.38253528124567304 0.007853168931887413
0.7854637832851381 0.5272149059620612 0.08155042729240597
0.8964149166690656 0.40882297205080126 0.11210471599735515
0.911734144400824 0.47551211511818936 0.021550808406010744
0.019290986656005066 0.582535281245673 0.007853168931887413
-0.014536216714861853 0.7272149059620613 0.08155042729240597
0.09641491666906545 0.6088229720508013 0.11210471599735515
0.11173414440082395 0.6755121151181894 0.021550808406010744
0.21929098665600508 0.582535281245673 0.007853168931887413
0.18546378328513816 0.7272149059620613 0.08155042729240597
0.29641491666906544 0.6088229720508013 0.11210471599735515
0.311734144400824 0.6755121151181894 0.021550808406010744
0.41929098665600506 0.582535281245673 0.007853168931887413
0.3854637832851382 0.7272149059620613 0.08155042729240597
0.49641491666906545 0.6088229720508013 0.11210471599735515
0.511734144400824 0.6755121151181894 0.021550808406010744
0.6192909866560051 0.582535281245673 0.007853168931887413
0.5854637832851382 0.7272149059620613 0.08155042729240597
0.6964149166690654 0.6088229720508013 0.11210471599735515
0.711734144400824 0.6755121151181894 0.021550808406010744
0.8192909866560051 0.582535281245673 0.007853168931887413
0.7854637832851381 0.7272149059620613 0.08155042729240597
0.8964149166690656 0.6088229720508013 0.11210471599735515
0.911734144400824 0.6755121151181894 0.021550808406010744
0.019290986656005066 0.7825352812456731 0.007853168931887413
-0.014536216714861853 0.9272149059620614 0.08155042729240597
0.09641491666906545 0.8088229720508013 0.11210471599735515
0.11173414440082395 0.8755121151181893 0.021550808406010744
0.21929098665600508 0.7825352812456731 0.007853168931887413
0.18546378328513816 0.9272149059620614 0.08155042729240597
0.29641491666906544 0.8088229720508013 0.11210471599735515
0.311734144400824 0.8755121151181893 0.021550808406010744
0.41929098665600506 0.7825352812456731 0.007853168931887413
0.3854637832851382 0.9272149059620614 0.08155042729240597
0.49641491666906545 0.8088229720508013 0.11210471599735515
0.511734144400824 0.8755121151181893 0.021550808406010744
0.6192909866560051 0.7825352812456731 0.007853168931887413
0.5854637832851382 0.9272149059620614 0.08155042729240597
0.6964149166690654 0.8088229720508013 0.11210471599735515
0.711734144400824 0.8755121151181893 0.021550808406010744
0.8192909866560051 0.7825352812456731 0.007853168931887413
0.7854637832851381 0.9272149059620614 0.08155042729240597
0.8964149166690656 0.8088229720508013 0.11210471599735515
0.911734144400824 0.8755121151181893 0.021550808406010744
0.019290986656005066 -0.017464718754326983 0.20785316893188743
-0.014536216714861853 0.12721490596206123 0.281550427292406
0.09641491666906545 0.00882297205080127 0.3121047159973552
0.11173414440082395 0.07551211511818935 0.22155080840601077
0.21929098665600508 -0.017464718754326983 0.20785316893188743
0.18546378328513816 0.12721490596206123 0.281550427292406
0.29641491666906544 0.00882297205080127 0.3121047159973552
0.311734144400824 0.07551211511818935 0.22155080840601077
0.41929098665600506 -0.017464718754326983 0.20785316893188743
0.3854637832851382 0.12721490596206123 0.281550427292406
0.49641491666906545 0.00882297205080127 0.3121047159973552
0.511734144400824 0.07551211511818935 0.22155080840601077
0.6192909866560051 -0.017464718754326983 0.20785316893188743
0.5854637832851382 0.12721490596206123 0.281550427292406
0.6964149166690654 0.00882297205080127 0.3121047159973552
0.711734144400824 0.07551211511818935 0.22155080840601077
0.8192909866560051 -0.017464718754326983 0.20785316893188743
0.7854637832851381 0.12721490596206123 0.281550427292406
0.8964149166690656 0.00882297205080127 0.3121047159973552
0.911734144400824 0.07551211511818935 0.22155080840601077
0.019290986656005066 0.18253528124567303 0.20785316893188743
-0.014536216714861853 0.32721490596206126 0.281550427292406
0.09641491666906545 0.20882297205080125 0.3121047159973552
0.11173414440082395 0.27551211511818935 0.22155080840601077
0.21929098665600508 0.18253528124567303 0.20785316893188743
0.18546378328513816 0.32721490596206126 0.281550427292406
0.29641491666906544 0.20882297205080125 0.3121047159973552
0.311734144400824 0.27551211511818935 0.22155080840601077
0.41929098665600506 0.18253528124567303 0.20785316893188743
0.3854637832851382 0.32721490596206126 0.281550427292406
0.49641491666906545 0.20882297205080125 0.3121047159973552
0.511734144400824 0.27551211511818935 0.22155080840601077
0.6192909866560051 0.18253528124567303 0.20785316893188743
0.5854637832851382 0.32721490596206126 0.281550427292406
0.6964149166690654 0.20882297205080125 0.3121047159973552
0.711734144400824 0.27551211511818935 0.22155080840601077
0.8192909866560051 0.18253528124567303 0.20785316893188743
0.7854637832851381 0.32721490596206126 0.281550427292406
0.8964149166690656 0.20882297205080125 0.3121047159973552
0.911734144400824 0.27551211511818935 0.22155080840601077
0.019290986656005066 0.38253528124567304 0.20785316893188743
-0.014536216714861853 0.5272149059620612 0.281550427292406
0.09641491666906545 0.40882297205080126 0.3121047159973552
0.11173414440082395 0.47551211511818936 0.22155080840601077
0.21929098665600508 0.38253528124567304 0.20785316893188743
0.18546378328513816 0.5272149059620612 0.281550427292406
0.29641491666906544 0.40882297205080126 0.3121047159973552
0.311734144400824 0.47551211511818936 0.22155080840601077
0.41929098665600506 0.38253528124567304 0.20785316893188743
0.3854637832851382 0.5272149059620612 0.281550427292406
0.49641491666906545 0.40882297205080126 0.3121047159973552
0.511734144400824 0.47551211511818936 0.22155080840601077
0.6192909866560051 0.38253528124567304 0.20785316893188743
0.5854637832851382 0.5272149059620612 0.281550427292406
0.6964149166690654 0.40882297205080126 0.3121047159973552
0.711734144400824 0.47551211511818936 0.22155080840601077
0.8192909866560051 0.38253528124567304 0.20785316893188743
0.7854637832851381 0.5272149059620612 0.281550427292406
0.8964149166690656 0.40882297205080126 0.3121047159973552
0.911734144400824 0.47551211511818936 0.22155080840601077
0.019290986656005066 0.582535281245673 0.20785316893188743
-0.014536216714861853 0.7272149059620613 0.281550427292406
0.09641491666906545 0.6088229720508013 0.3121047159973552
0.11173414440082395 0.6755121151181894 0.22155080840601077
0.21929098665600508 0.582535281245673 0.20785316893188743
0.18546378328513816 0.7272149059620613 0.281550427292406
0.29641491666906544 0.6088229720508013 0.3121047159973552
0.311734144400824 0.6755121151181894 0.22155080840601077
0.41929098665600506 0.582535281245673 0.20785316893188743
0.3854637832851382 0.7272149059620613 0.281550427292406
0.49641491666906545 0.6088229720508013 0.3121047159973552
0.511734144400824 0.6755121151181894 0.22155080840601077
0.6192909866560051 0.582535281245673 0.20785316893188743
0.5854637832851382 0.7272149059620613 0.281550427292406
0.6964149166690654 0.6088229720508013 0.3121047159973552
0.711734144400824 0.6755121151181894 0.22155080840601077
0.8192909866560051 0.582535281245673 0.20785316893188743
0.7854637832851381 0.7272149059620613 0.281550427292406
0.8964149166690656 0.6088229720508013 0.3121047159973552
0.911734144400824 0.6755121151181894 0.22155080840601077
0.019290986656005066 0.7825352812456731 0.20785316893188743
-0.014536216714861853 0.9272149059620614 0.281550427292406
0.09641491666906545 0.8088229720508013 0.3121047159973552
0.11173414440082395 0.8755121151181893 0.22155080840601077
0.21929098665600508 0.7825352812456731 0.20785316893188743
0.18546378328513816 0.9272149059620614 0.281550427292406
0.29641491666906544 0.8088229720508013 0.3121047159973552
0.311734144400824 0.8755121151181893 0.22155080840601077
0.41929098665600506 0.7825352812456731 0.20785316893188743
0.3854637832851382 0.9272149059620614 0.281550427292406
0.49641491666906545 0.8088229720508013 0.3121047159973552
0.511734144400824 0.8755121151181893 0.22155080840601077
0.6192909866560051 0.7825352812456731 0.20785316893188743
0.5854637832851382 0.9272149059620614 0.281550427292406
0.6964149166690654 0.8088229720508013 0.3121047159973552
0.711734144400824 0.8755121151181893 0.22155080840601077
0.8192909866560051 0.7825352812456731 0.20785316893188743
0.7854637832851381 0.9272149059620614 0.281550427292406
0.8964149166690656 0.8088229720508013 0.3121047159973552
0.911734144400824 0.8755121151181893 0.22155080840601077
0.019290986656005066 -0.017464718754326983 0.4078531689318874
-0.014536216714861853 0.12721490596206123 0.48155042729240605
0.09641491666906545 0.00882297205080127 0.5121047159973552
0.11173414440082395 0.07551211511818935 0.4215508084060107
0.21929098665600508 -0.017464718754326983 0.4078531689318874
0.18546378328513816 0.12721490596206123 0.48155042729240605
0.29641491666906544 0.00882297205080127 0.5121047159973552
0.311734144400824 0.07551211511818935 0.4215508084060107
0.41929098665600506 -0.017464718754326983 0.4078531689318874
0.3854637832851382 0.12721490596206123 0.48155042729240605
0.49641491666906545 0.00882297205080127 0.5121047159973552
0.511734144400824 0.07551211511818935 0.4215508084060107
0.6192909866560051 -0.017464718754326983 0.4078531689318874
0.5854637832851382 0.12721490596206123 0.48155042729240605
0.6964149166690654 0.00882297205080127 0.5121047159973552
0.711734144400824 0.07551211511818935 0.4215508084060107
0.8192909866560051 -0.017464718754326983 0.4078531689318874
0.7854637832851381 0.12721490596206123 0.48155042729240605
0.8964149166690656 0.00882297205080127 0.5121047159973552
0.911734144400824 0.07551211511818935 0.4215508084060107
0.019290986656005066 0.18253528124567303 0.4078531689318874
-0.014536216714861853 0.32721490596206126 0.48155042729240605
0.09641491666906545 0.20882297205080125 0.5121047159973552
0.11173414440082395 0.27551211511818935 0.4215508084060107
0.21929098665600508 0.18253528124567303 0.4078531689318874
0.18546378328513816 0.32721490596206126 0.48155042729240605
0.29641491666906544 0.20882297205080125 0.5121047159973552
0.311734144400824 0.27551211511818935 0.4215508084060107
0.41929098665600506 0.18253528124567303 0.4078531689318874
0.3854637832851382 0.32721490596206126 0.48155042729240605
0.49641491666906545 0.20882297205080125 0.5121047159973552
0.511734144400824 0.27551211511818935 0.4215508084060107
0.6192909866560051 0.18253528124567303 0.4078531689318874
0.5854637832851382 0.32721490596206126 0.48155042729240605
0.6964149166690654 0.20882297205080125 0.5121047159973552
0.711734144400824 0.27551211511818935 0.4215508084060107
0.8192909866560051 0.18253528124567303 0.4078531689318874
0.7854637832851381 0.32721490596206126 0.48155042729240605
0.8964149166690656 0.20882297205080125 0.5121047159973552
0.911734144400824 0.27551211511818935 0.4215508084060107
0.019290986656005066 0.38253528124567304 0.4078531689318874
-0.014536216714861853 0.5272149059620612 0.48155042729240605
0.09641491666906545 0.40882297205080126 0.5121047159973552
0.11173414440082395 0.47551211511818936 0.4215508084060107
0.21929098665600508 0.38253528124567304 0.4078531689318874
0.18546378328513816 0.5272149059620612 0.48155042729240605
0.29641491666906544 0.40882297205080126 0.5121047159973552
0.311734144400824 0.47551211511818936 0.4215508084060107
0.41929098665600506 0.38253528124567304 0.4078531689318874
0.3854637832851382 0.5272149059620612 0.48155042729240605
0.49641491666906545 0.40882297205080126 0.5121047159973552
0.511734144400824 0.47551211511818936 0.4215508084060107
0.6192909866560051 0.38253528124567304 0.4078531689318874
0.5854637832851382 0.5272149059620612 0.48155042729240605
0.6964149166690654 0.40882297205080126 0.5121047159973552
0.711734144400824 0.47551211511818936 0.4215508084060107
0.8192909866560051 0.38253528124567304 0.4078531689318874
0.7854637832851381 0.5272149059620612 0.48155042729240605
0.8964149166690656 0.40882297205080126 0.5121047159973552
0.911734144400824 0.47551211511818936 0.4215508084060107
0.019290986656005066 0.582535281245673 0.4078531689318874
-0.014536216714861853 0.7272149059620613 0.48155042729240605
0.09641491666906545 0.6088229720508013 0.5121047159973552
0.11173414440082395 0.6755121151181894 0.4215508084060107
0.21929098665600508 0.582535281245673 0.4078531689318874
0.18546378328513816 0.7272149059620613 0.48155042729240605
0.29641491666906544 0.6088229720508013 0.5121047159973552
0.311734144400824 0.6755121151181894 0.4215508084060107
0.41929098665600506 0.582535281245673 0.4078531689318874
0.3854637832851382 0.7272149059620613 0.48155042729240605
0.49641491666906545 0.6088229720508013 0.5121047159973552
0.511734144400824 0.6755121151181894 0.4215508084060107
0.6192909866560051 0.582535281245673 0.4078531689318874
0.5854637832851382 0.7272149059620613 0.48155042729240605
0.6964149166690654 0.6088229720508013 0.5121047159973552
0.711734144400824 0.6755121151181894 0.4215508084060107
0.8192909866560051 0.582535281245673 0.4078531689318874
0.7854637832851381 0.7272149059620613 0.48155042729240605
0.8964149166690656 0.6088229720508013 0.5121047159973552
0.911734144400824 0.6755121151181894 0.4215508084060107
0.019290986656005066 0.7825352812456731 0.4078531689318874
-0.014536216714861853 0.9272149059620614 0.48155042729240605
0.09641491666906545 0.8088229720508013 0.5121047159973552
0.11173414440082395 0.8755121151181893 0.4215508084060107
0.21929098665600508 0.7825352812456731 0.4078531689318874
0.18546378328513816 0.9272149059620614 0.48155042729240605
0.29641491666906544 0.8088229720508013 0.5121047159973552
0.311734144400824 0.8755121151181893 0.4215508084060107
0.41929098665600506 0.7825352812456731 0.4078531689318874
0.3854637832851382 0.9272149059620614 0.48155042729240605
0.49641491666906545 0.8088229720508013 0.5121047159973552
0.511734144400824 0.8755121151181893 0.4215508084060107
0.6192909866560051 0.7825352812456731 0.4078531689318874
0.5854637832851382 0.9272149059620614 0.48155042729240605
0.6964149166690654 0.8088229720508013 0.5121047159973552
0.711734144400824 0.8755121151181893 0.4215508084060107
0.8192909866560051 0.7825352812456731 0.4078531689318874
0.7854637832851381 0.9272149059620614 0.48155042729240605
0.8964149166690656 0.8088229720508013 0.5121047159973552
0.911734144400824 0.8755121151181893 0.4215508084060107
0.019290986656005066 -0.017464718754326983 0.6078531689318875
-0.014536216714861853 0.12721490596206123 0.681550427292406
0.09641491666906545 0.00882297205080127 0.7121047159973553
0.11173414440082395 0.07551211511818935 0.6215508084060107
0.21929098665600508 -0.017464718754326983 0.6078531689318875
0.18546378328513816 0.12721490596206123 0.681550427292406
0.29641491666906544 0.00882297205080127 0.7121047159973553
0.311734144400824 0.07551211511818935 0.6215508084060107
0.41929098665600506 -0.017464718754326983 0.6078531689318875
0.3854637832851382 0.12721490596206123 0.681550427292406
0.49641491666906545 0.00882297205080127 0.7121047159973553
0.511734144400824 0.07551211511818935 0.6215508084060107
0.6192909866560051 -0.017464718754326983 0.6078531689318875
0.5854637832851382 0.12721490596206123 0.681550427292406
0.6964149166690654 0.00882297205080127 0.7121047159973553
0.711734144400824 0.07551211511818935 0.6215508084060107
0.8192909866560051 -0.017464718754326983 0.6078531689318875
0.7854637832851381 0.12721490596206123 0.681550427292406
0.8964149166690656 0.00882297205080127 0.7121047159973553
0.911734144400824 0.07551211511818935 0.6215508084060107
0.019290986656005066 0.18253528124567303 0.6078531689318875
-0.014536216714861853 0.32721490596206126 0.681550427292406
0.09641491666906545 0.20882297205080125 0.7121047159973553
0.11173414440082395 0.27551211511818935 0.6215508084060107
0.21929098665600508 0.18253528124567303 0.6078531689318875
0.18546378328513816 0.32721490596206126 0.681550427292406
0.29641491666906544 0.20882297205080125 0.7121047159973553
0.311734144400824 0.27551211511818935 0.6215508084060107
0.41929098665600506 0.18253528124567303 0.6078531689318875
0.3854637832851382 0.32721490596206126 0.681550427292406
0.49641491666906545 0.20882297205080125 0.7121047159973553
0.511734144400824 0.27551211511818935 0.6215508084060107
0.6192909866560051 0.18253528124567303 0.6078531689318875
0.5854637832851382 0.32721490596206126 0.681550427292406
0.6964149166690654 0.20882297205080125 0.7121047159973553
0.711734144400824 0.27551211511818935 0.6215508084060107
0.8192909866560051 0.18253528124567303 0.6078531689318875
0.7854637832851381 0.32721490596206126 0.681550427292406
0.8964149166690656 0.20882297205080125 0.7121047159973553
0.911734144400824 0.27551211511818935 0.6215508084060107
0.019290986656005066 0.38253528124567304 0.6078531689318875
-0.014536216714861853 0.5272149059620612 0.681550427292406
0.09641491666906545 0.40882297205080126 0.7121047159973553
0.11173414440082395 0.47551211511818936 0.6215508084060107
0.21929098665600508 0.38253528124567304 0.6078531689318875
0.18546378328513816 0.5272149059620612 0.681550427292406
0.29641491666906544 0.40882297205080126 0.7121047159973553
0.311734144400824 0.47551211511818936 0.6215508084060107
0.41929098665600506 0.38253528124567304 0.6078531689318875
0.3854637832851382 0.5272149059620612 0.681550427292406
0.49641491666906545 0.40882297205080126 0.7121047159973553
0.511734144400824 0.47551211511818936 0.6215508084060107
0.6192909866560051 0.38253528124567304 0.6078531689318875
0.5854637832851382 0.5272149059620612 0.681550427292406
0.6964149166690654 0.40882297205080126 0.7121047159973553
0.711734144400824 0.47551211511818936 0.6215508084060107
0.8192909866560051 0.38253528124567304 0.6078531689318875
0.7854637832851381 0.5272149059620612 0.681550427292406
0.8964149166690656 0.40882297205080126 0.7121047159973553
0.911734144400824 0.47551211511818936 0.6215508084060107
0.019290986656005066 0.582535281245673 0.6078531689318875
-0.014536216714861853 0.7272149059620613 0.681550427292406
0.09641491666906545 0.6088229720508013 0.7121047159973553
0.11173414440082395 0.6755121151181894 0.6215508084060107
0.21929098665600508 0.582535281245673 0.6078531689318875
0.18546378328513816 0.7272149059620613 0.681550427292406
0.29641491666906544 0.6088229720508013 0.7121047159973553
0.311734144400824 0.6755121151181894 0.6215508084060107
0.41929098665600506 0.582535281245673 0.6078531689318875
0.3854637832851382 0.7272149059620613 0.681550427292406
0.49641491666906545 0.6088229720508013 0.7121047159973553
0.511734144400824 0.6755121151181894 0.6215508084060107
0.6192909866560051 0.582535281245673 0.6078531689318875
0.5854637832851382 0.7272149059620613 0.681550427292406
0.6964149166690654 0.6088229720508013 0.7121047159973553
0.711734144400824 0.6755121151181894 0.6215508084060107
0.8192909866560051 0.582535281245673 0.6078531689318875
0.7854637832851381 0.7272149059620613 0.681550427292406
0.8964149166690656 0.6088229720508013 0.7121047159973553
0.911734144400824 0.6755121151181894 0.6215508084060107
0.019290986656005066 0.7825352812456731 0.6078531689318875
-0.014536216714861853 0.9272149059620614 0.681550427292406
0.09641491666906545 0.8088229720508013 0.7121047159973553
0.11173414440082395 0.8755121151181893 0.6215508084060107
0.21929098665600508 0.7825352812456731 0.6078531689318875
0.18546378328513816 0.9272149059620614 0.681550427292406
0.29641491666906544 0.8088229720508013 0.7121047159973553
0.311734144400824 0.8755121151181893 0.6215508084060107
0.41929098665600506 0.7825352812456731 0.6078531689318875
0.3854637832851382 0.9272149059620614 0.681550427292406
0.49641491666906545 0.8088229720508013 0.7121047159973553
0.511734144400824 0.8755121151181893 0.6215508084060107
0.6192909866560051 0.7825352812456731 0.6078531689318875
0.5854637832851382 0.9272149059620614 0.681550427292406
0.6964149166690654 0.8088229720508013 0.7121047159973553
0.711734144400824 0.8755121151181893 0.6215508084060107
0.8192909866560051 0.7825352812456731 0.6078531689318875
0.7854637832851381 0.9272149059620614 0.681550427292406
0.8964149166690656 0.8088229720508013 0.7121047159973553
0.911734144400824 0.8755121151181893 0.6215508084060107
0.019290986656005066 -0.017464718754326983 0.8078531689318874
-0.014536216714861853 0.12721490596206123 0.881550427292406
0.09641491666906545 0.00882297205080127 0.9121047159973552
0.11173414440082395 0.07551211511818935 0.8215508084060108
0.21929098665600508 -0.017464718754326983 0.8078531689318874
0.18546378328513816 0.12721490596206123 0.881550427292406
0.29641491666906544 0.00882297205080127 0.9121047159973552
0.311734144400824 0.07551211511818935 0.8215508084060108
0.41929098665600506 -0.017464718754326983 0.8078531689318874
0.3854637832851382 0.12721490596206123 0.881550427292406
0.49641491666906545 0.00882297205080127 0.9121047159973552
0.511734144400824 0.07551211511818935 0.8215508084060108
0.6192909866560051 -0.017464718754326983 0.8078531689318874
0.5854637832851382 0.12721490596206123 0.881550427292406
0.6964149166690654 0.00882297205080127 0.9121047159973552
0.711734144400824 0.07551211511818935 0.8215508084060108
0.8192909866560051 -0.017464718754326983 0.8078531689318874
0.7854637832851381 0.12721490596206123 0.881550427292406
0.8964149166690656 0.00882297205080127 0.9121047159973552
0.911734144400824 0.07551211511818935 0.8215508084060108
0.019290986656005066 0.18253528124567303 0.8078531689318874
-0.014536216714861853 0.32721490596206126 0.881550427292406
0.09641491666906545 0.20882297205080125 0.9121047159973552
0.11173414440082395 0.27551211511818935 0.8215508084060108
0.21929098665600508 0.18253528124567303 0.8078531689318874
0.18546378328513816 0.32721490596206126 0.881550427292406
0.29641491666906544 0.20882297205080125 0.9121047159973552
0.311734144400824 0.27551211511818935 0.8215508084060108
0.41929098665600506 0.18253528124567303 0.8078531689318874
0.3854637832851382 0.32721490596206126 0.881550427292406
0.49641491666906545 0.20882297205080125 0.9121047159973552
0.511734144400824 0.27551211511818935 0.8215508084060108
0.6192909866560051 0.18253528124567303 0.8078531689318874
0.5854637832851382 0.32721490596206126 0.881550427292406
0.6964149166690654 0.20882297205080125 0.9121047159973552
0.711734144400824 0.27551211511818935 0.8215508084060108
0.8192909866560051 0.18253528124567303 0.8078531689318874
0.7854637832851381 0.32721490596206126 0.881550427292406
0.8964149166690656 0.20882297205080125 0.9121047159973552
0.911734144400824 0.27551211511818935 0.8215508084060108
0.019290986656005066 0.38253528124567304 0.8078531689318874
-0.014536216714861853 0.5272149059620612 0.881550427292406
0.09641491666906545 0.40882297205080126 0.9121047159973552
0.11173414440082395 0.47551211511818936 0.8215508084060108
0.21929098665600508 0.38253528124567304 0.8078531689318874
0.18546378328513816 0.5272149059620612 0.881550427292406
0.29641491666906544 0.40882297205080126 0.9121047159973552
0.311734144400824 0.47551211511818936 0.8215508084060108
0.41929098665600506 0.38253528124567304 0.8078531689318874
0.3854637832851382 0.5272149059620612 0.881550427292406
0.49641491666906545 0.40882297205080126 0.9121047159973552
0.511734144400824 0.47551211511818936 0.8215508084060108
0.6192909866560051 0.38253528124567304 0.8078531689318874
0.5854637832851382 0.5272149059620612 0.881550427292406
0.6964149166690654 0.40882297205080126 0.9121047159973552
0.711734144400824 0.47551211511818936 0.8215508084060108
0.8192909866560051 0.38253528124567304 0.8078531689318874
0.7854637832851381 0.5272149059620612 0.881550427292406
0.8964149166690656 0.40882297205080126 0.9121047159973552
0.911734144400824 0.47551211511818936 0.8215508084060108
0.019290986656005066 0.582535281245673 0.8078531689318874
-0.014536216714861853 0.7272149059620613 0.881550427292406
0.09641491666906545 0.6088229720508013 0.9121047159973552
0.11173414440082395 0.6755121151181894 0.8215508084060108
0.21929098665600508 0.582535281245673 0.8078531689318874
0.18546378328513816 0.7272149059620613 0.881550427292406
0.29641491666906544 0.6088229720508013 0.9121047159973552
0.311734144400824 0.6755121151181894 0.8215508084060108
0.41929098665600506 0.582535281245673 0.8078531689318874
0.3854637832851382 0.7272149059620613 0.881550427292406
0.49641491666906545 0.6088229720508013 0.9121047159973552
0.511734144400824 0.6755121151181894 0.8215508084060108
0.6192909866560051 0.582535281245673 0.8078531689318874
0.5854637832851382 0.7272149059620613 0.881550427292406
0.6964149166690654 0.6088229720508013 0.9121047159973552
0.711734144400824 0.6755121151181894 0.8215508084060108
0.8192909866560051 0.582535281245673 0.8078531689318874
0.7854637832851381 0.7272149059620613 0.881550427292406
0.8964149166690656 0.6088229720508013 0.9121047159973552
0.911734144400824 0.6755121151181894 0.8215508084060108
0.019290986656005066 0.7825352812456731 0.8078531689318874
-0.014536216714861853 0.9272149059620614 0.881550427292406
0.09641491666906545 0.8088229720508013 0.9121047159973552
0.11173414440082395 0.8755121151181893 0.8215508084060108
0.21929098665600508 0.7825352812456731 0.8078531689318874
0.18546378328513816 0.9272149059620614 0.881550427292406
0.29641491666906544 0.8088229720508013 0.9121047159973552
0.311734144400824 0.8755121151181893 0.8215508084060108
0.41929098665600506 0.7825352812456731 0.8078531689318874
0.3854637832851382 0.9272149059620614 0.881550427292406
0.49641491666906545 0.8088229720508013 0.9121047159973552
0.511734144400824 0.8755121151181893 0.8215508084060108
0.6192909866560051 0.7825352812456731 0.8078531689318874
0.5854637832851382 0.9272149059620614 0.881550427292406
0.6964149166690654 0.8088229720508013 0.9121047159973552
0.711734144400824 0.8755121151181893 0.8215508084060108
0.8192909866560051 0.7825352812456731 0.8078531689318874
0.7854637832851381 0.9272149059620614 0.881550427292406
0.8964149166690656 0.8088229720508013 0.9121047159973552
0.911734144400824 0.8755121151181893 0.8215508084060108
0.0841747102383585 0.006907851476705919 -0.008726512956138101
0.017857608499828485 0.09053187236679852 0.019968322203511094
0.011574007918381205 -0.024744835000179526 0.11665054484196916
0.09086382060483071 0.09863751364516818 0.07796511520840586
0.2841747102383585 0.006907851476705919 -0.008726512956138101
0.2178576084998285 0.09053187236679852 0.019968322203511094
0.2115740079183812 -0.024744835000179526 0.11665054484196916
0.29086382060483074 0.09863751364516818 0.07796511520840586
0.4841747102383585 0.006907851476705919 -0.008726512956138101
0.41785760849982845 0.09053187236679852 0.019968322203511094
0.4115740079183812 -0.024744835000179526 0.11665054484196916
0.49086382060483075 0.09863751364516818 0.07796511520840586
0.6841747102383585 0.006907851476705919 -0.008726512956138101
0.6178576084998285 0.09053187236679852 0.019968322203511094
0.6115740079183812 -0.024744835000179526 0.11665054484196916
0.6908638206048308 0.09863751364516818 0.07796511520840586
0.8841747102383586 0.006907851476705919 -0.008726512956138101
0.8178576084998286 0.09053187236679852 0.019968322203511094
0.8115740079183813 -0.024744835000179526 0.11665054484196916
0.8908638206048307 0.09863751364516818 0.07796511520840586
0.0841747102383585 0.20690785147670596 -0.008726512956138101
0.017857608499828485 0.29053187236679856 0.019968322203511094
0.011574007918381205 0.1752551649998205 0.11665054484196916
0.09086382060483071 0.29863751364516816 0.07796511520840586
0.2841747102383585 0.20690785147670596 -0.008726512956138101
0.2178576084998285 0.29053187236679856 0.019968322203511094
0.2115740079183812 0.1752551649998205 0.11665054484196916
0.29086382060483074 0.29863751364516816 0.07796511520840586
0.4841747102383585 0.20690785147670596 -0.008726512956138101
0.41785760849982845 0.29053187236679856 0.019968322203511094
0.4115740079183812 0.1752551649998205 0.11665054484196916
0.49086382060483075 0.29863751364516816 0.07796511520840586
0.6841747102383585 0.20690785147670596 -0.008726512956138101
0.6178576084998285 0.29053187236679856 0.019968322203511094
0.6115740079183812 0.1752551649998205 0.11665054484196916
0.6908638206048308 0.29863751364516816 0.07796511520840586
0.8841747102383586 0.20690785147670596 -0.008726512956138101
0.8178576084998286 0.29053187236679856 0.019968322203511094
0.8115740079183813 0.1752551649998205 0.11665054484196916
0.8908638206048307 0.29863751364516816 0.07796511520840586
0.0841747102383585 0.40690785147670594 -0.008726512956138101
0.017857608499828485 0.49053187236679857 0.019968322203511094
0.011574007918381205 0.3752551649998205 0.11665054484196916
0.09086382060483071 0.4986375136451682 0.07796511520840586
0.2841747102383585 0.40690785147670594 -0.008726512956138101
0.2178576084998285 0.49053187236679857 0.019968322203511094
0.2115740079183812 0.3752551649998205 0.11665054484196916
0.29086382060483074 0.4986375136451682 0.07796511520840586
0.4841747102383585 0.40690785147670594 -0.008726512956138101
0.41785760849982845 0.49053187236679857 0.019968322203511094
0.4115740079183812 0.3752551649998205 0.11665054484196916
0.49086382060483075 0.4986375136451682 0.07796511520840586
0.6841747102383585 0.40690785147670594 -0.008726512956138101
0.6178576084998285 0.49053187236679857 0.019968322203511094
0.6115740079183812 0.3752551649998205 0.11665054484196916
0.6908638206048308 0.4986375136451682 0.07796511520840586
0.8841747102383586 0.40690785147670594 -0.008726512956138101
0.8178576084998286 0.49053187236679857 0.019968322203511094
0.8115740079183813 0.3752551649998205 0.11665054484196916
0.8908638206048307 0.4986375136451682 0.07796511520840586
0.0841747102383585 0.606907851476706 -0.008726512956138101
0.017857608499828485 0.6905318723667986 0.019968322203511094
0.011574007918381205 0.5752551649998205 0.11665054484196916
0.09086382060483071 0.6986375136451682 0.07796511520840586
0.2841747102383585 0.606907851476706 -0.008726512956138101
0.2178576084998285 0.6905318723667986 0.019968322203511094
0.2115740079183812 0.5752551649998205 0.11665054484196916
0.29086382060483074 0.6986375136451682 0.07796511520840586
0.4841747102383585 0.606907851476706 -0.008726512956138101
0.41785760849982845 0.6905318723667986 0.019968322203511094
0.4115740079183812 0.5752551649998205 0.11665054484196916
0.49086382060483075 0.6986375136451682 0.07796511520840586
0.6841747102383585 0.606907851476706 -0.008726512956138101
0.6178576084998285 0.6905318723667986 0.019968322203511094
0.6115740079183812 0.5752551649998205 0.11665054484196916
0.6908638206048308 0.6986375136451682 0.07796511520840586
0.8841747102383586 0.606907851476706 -0.008726512956138101
0.8178576084998286 0.6905318723667986 0.019968322203511094
0.8115740079183813 0.5752551649998205 0.11665054484196916
0.8908638206048307 0.6986375136451682 0.07796511520840586
0.0841747102383585 0.8069078514767059 -0.008726512956138101
0.017857608499828485 0.8905318723667985 0.019968322203511094
0.011574007918381205 0.7752551649998205 0.11665054484196916
0.09086382060483071 0.8986375136451681 0.07796511520840586
0.2841747102383585 0.8069078514767059 -0.008726512956138101
0.2178576084998285 0.8905318723667985 0.019968322203511094
0.2115740079183812 0.7752551649998205 0.11665054484196916
0.29086382060483074 0.8986375136451681 0.07796511520840586
0.4841747102383585 0.8069078514767059 -0.008726512956138101
0.41785760849982845 0.8905318723667985 0.019968322203511094
0.4115740079183812 0.7752551649998205 0.11665054484196916
0.49086382060483075 0.8986375136451681 0.07796511520840586
0.6841747102383585 0.8069078514767059 -0.008726512956138101
0.6178576084998285 0.8905318723667985 0.019968322203511094
0.6115740079183812 0.7752551649998205 0.11665054484196916
0.6908638206048308 0.8986375136451681 0.07796511520840586
0.8841747102383586 0.8069078514767059 -0.008726512956138101
0.8178576084998286 0.8905318723667985 0.019968322203511094
0.8115740079183813 0.7752551649998205 0.11665054484196916
0.8908638206048307 0.8986375136451681 0.07796511520840586
0.0841747102383585 0.006907851476705919 0.1912734870438619
0.017857608499828485 0.09053187236679852 0.21996832220351112
0.011574007918381205 -0.024744835000179526 0.3166505448419692
0.09086382060483071 0.09863751364516818 0.2779651152084059
0.2841747102383585 0.006907851476705919 0.1912734870438619
0.2178576084998285 0.09053187236679852 0.21996832220351112
0.2115740079183812 -0.024744835000179526 0.3166505448419692
0.29086382060483074 0.09863751364516818 0.2779651152084059
0.4841747102383585 0.006907851476705919 0.1912734870438619
0.41785760849982845 0.09053187236679852 0.21996832220351112
0.4115740079183812 -0.024744835000179526 0.3166505448419692
0.49086382060483075 0.09863751364516818 0.2779651152084059
0.6841747102383585 0.006907851476705919 0.1912734870438619
0.6178576084998285 0.09053187236679852 0.21996832220351112
0.6115740079183812 -0.024744835000179526 0.3166505448419692
0.6908638206048308 0.09863751364516818 0.2779651152084059
0.8841747102383586 0.006907851476705919 0.1912734870438619
0.8178576084998286 0.09053187236679852 0.21996832220351112
0.8115740079183813 -0.024744835000179526 0.3166505448419692
0.8908638206048307 0.09863751364516818 0.2779651152084059
0.0841747102383585 0.20690785147670596 0.1912734870438619
0.017857608499828485 0.29053187236679856 0.21996832220351112
0.011574007918381205 0.1752551649998205 0.3166505448419692
0.09086382060483071 0.29863751364516816 0.2779651152084059
0.2841747102383585 0.20690785147670596 0.1912734870438619
0.2178576084998285 0.29053187236679856 0.21996832220351112
0.2115740079183812 0.1752551649998205 0.3166505448419692
0.29086382060483074 0.29863751364516816 0.2779651152084059
0.4841747102383585 0.20690785147670596 0.1912734870438619
0.41785760849982845 0.29053187236679856 0.21996832220351112
0.4115740079183812 0.1752551649998205 0.3166505448419692
0.49086382060483075 0.29863751364516816 0.2779651152084059
0.6841747102383585 0.20690785147670596 0.1912734870438619
0.6178576084998285 0.29053187236679856 0.21996832220351112
0.6115740079183812 0.1752551649998205 0.3166505448419692
0.6908638206048308 0.29863751364516816 0.2779651152084059
0.8841747102383586 0.20690785147670596 0.1912734870438619
0.8178576084998286 0.29053187236679856 0.21996832220351112
0.8115740079183813 0.1752551649998205 0.3166505448419692
0.8908638206048307 0.29863751364516816 0.2779651152084059
0.0841747102383585 0.40690785147670594 0.1912734870438619
0.017857608499828485 0.49053187236679857 0.21996832220351112
0.011574007918381205 0.3752551649998205 0.3166505448419692
0.09086382060483071 0.4986375136451682 0.2779651152084059
0.2841747102383585 0.40690785147670594 0.1912734870438619
0.2178576084998285 0.49053187236679857 0.21996832220351112
0.2115740079183812 0.3752551649998205 0.3166505448419692
0.29086382060483074 0.4986375136451682 0.2779651152084059
0.4841747102383585 0.40690785147670594 0.1912734870438619
0.41785760849982845 0.49053187236679857 0.21996832220351112
0.4115740079183812 0.3752551649998205 0.3166505448419692
0.49086382060483075 0.4986375136451682 0.2779651152084059
0.6841747102383585 0.40690785147670594 0.1912734870438619
0.6178576084998285 0.49053187236679857 0.21996832220351112
0.6115740079183812 0.3752551649998205 0.3166505448419692
0.6908638206048308 0.4986375136451682 0.2779651152084059
0.8841747102383586 0.40690785147670594 0.1912734870438619
0.8178576084998286 0.49053187236679857 0.21996832220351112
0.8115740079183813 0.3752551649998205 0.3166505448419692
0.8908638206048307 0.4986375136451682 0.2779651152084059
0.0841747102383585 0.606907851476706 0.1912734870438619
0.017857608499828485 0.6905318723667986 0.21996832220351112
0.011574007918381205 0.5752551649998205 0.3166505448419692
0.09086382060483071 0.6986375136451682 0.2779651152084059
0.2841747102383585 0.606907851476706 0.1912734870438619
0.2178576084998285 0.6905318723667986 0.21996832220351112
0.2115740079183812 0.5752551649998205 0.3166505448419692
0.29086382060483074 0.6986375136451682 0.2779651152084059
0.4841747102383585 0.606907851476706 0.1912734870438619
0.41785760849982845 0.6905318723667986 0.21996832220351112
0.4115740079183812 0.5752551649998205 0.3166505448419692
0.49086382060483075 0.6986375136451682 0.2779651152084059
0.6841747102383585 0.606907851476706 0.1912734870438619
0.6178576084998285 0.6905318723667986 0.21996832220351112
0.6115740079183812 0.5752551649998205 0.3166505448419692
0.6908638206048308 0.6986375136451682 0.2779651152084059
0.8841747102383586 0.606907851476706 0.1912734870438619
0.8178576084998286 0.6905318723667986 0.21996832220351112
0.8115740079183813 0.5752551649998205 0.3166505448419692
0.8908638206048307 0.6986375136451682 0.2779651152084059
0.0841747102383585 0.8069078514767059 0.1912734870438619
0.017857608499828485 0.8905318723667985 0.21996832220351112
0.011574007918381205 0.7752551649998205 0.3166505448419692
0.09086382060483071 0.8986375136451681 0.2779651152084059
0.2841747102383585 0.8069078514767059 0.1912734870438619
0.2178576084998285 0.8905318723667985 0.21996832220351112
0.2115740079183812 0.7752551649998205 0.3166505448419692
0.29086382060483074 0.8986375136451681 0.2779651152084059
0.4841747102383585 0.8069078514767059 0.1912734870438619
0.41785760849982845 0.8905318723667985 0.21996832220351112
0.4115740079183812 0.7752551649998205 0.3166505448419692
0.49086382060483075 0.8986375136451681 0.2779651152084059
0.6841747102383585 0.8069078514767059 0.1912734870438619
0.6178576084998285 0.8905318723667985 0.21996832220351112
0.6115740079183812 0.7752551649998205 0.3166505448419692
0.6908638206048308 0.8986375136451681 0.2779651152084059
0.8841747102383586 0.8069078514767059 0.1912734870438619
0.8178576084998286 0.8905318723667985 0.21996832220351112
0.8115740079183813 0.7752551649998205 0.3166505448419692
0.8908638206048307 0.8986375136451681 0.2779651152084059
0.0841747102383585 0.006907851476705919 0.3912734870438619
0.017857608499828485 0.09053187236679852 0.4199683222035111
0.011574007918381205 -0.024744835000179526 0.5166505448419692
0.09086382060483071 0.09863751364516818 0.4779651152084059
0.2841747102383585 0.006907851476705919 0.3912734870438619
0.2178576084998285 0.09053187236679852 0.4199683222035111
0.2115740079183812 -0.024744835000179526 0.5166505448419692
0.29086382060483074 0.09863751364516818 0.4779651152084059
0.4841747102383585 0.006907851476705919 0.3912734870438619
0.41785760849982845 0.09053187236679852 0.4199683222035111
0.4115740079183812 -0.024744835000179526 0.5166505448419692
0.49086382060483075 0.09863751364516818 0.4779651152084059
0.6841747102383585 0.006907851476705919 0.3912734870438619
0.6178576084998285 0.09053187236679852 0.4199683222035111
0.6115740079183812 -0.024744835000179526 0.5166505448419692
0.6908638206048308 0.09863751364516818 0.4779651152084059
0.8841747102383586 0.006907851476705919 0.3912734870438619
0.8178576084998286 0.09053187236679852 0.4199683222035111
0.8115740079183813 -0.024744835000179526 0.5166505448419692
0.8908638206048307 0.09863751364516818 0.4779651152084059
0.0841747102383585 0.20690785147670596 0.3912734870438619
0.017857608499828485 0.29053187236679856 0.4199683222035111
0.011574007918381205 0.1752551649998205 0.5166505448419692
0.09086382060483071 0.29863751364516816 0.4779651152084059
0.2841747102383585 0.20690785147670596 0.3912734870438619
0.2178576084998285 0.29053187236679856 0.4199683222035111
0.2115740079183812 0.1752551649998205 0.5166505448419692
0.29086382060483074 0.29863751364516816 0.4779651152084059
0.4841747102383585 0.20690785147670596 0.3912734870438619
0.41785760849982845 0.29053187236679856 0.4199683222035111
0.4115740079183812 0.1752551649998205 0.5166505448419692
0.49086382060483075 0.29863751364516816 0.4779651152084059
0.6841747102383585 0.20690785147670596 0.3912734870438619
0.6178576084998285 0.29053187236679856 0.4199683222035111
0.6115740079183812 0.1752551649998205 0.5166505448419692
0.6908638206048308 0.29863751364516816 0.4779651152084059
0.8841747102383586 0.20690785147670596 0.3912734870438619
0.8178576084998286 0.29053187236679856 0.4199683222035111
0.8115740079183813 0.1752551649998205 0.5166505448419692
0.8908638206048307 0.29863751364516816 0.4779651152084059
0.0841747102383585 0.40690785147670594 0.3912734870438619
0.017857608499828485 0.49053187236679857 0.4199683222035111
0.011574007918381205 0.3752551649998205 0.5166505448419692
0.09086382060483071 0.4986375136451682 0.4779651152084059
0.2841747102383585 0.40690785147670594 0.3912734870438619
0.2178576084998285 0.49053187236679857 0.4199683222035111
0.2115740079183812 0.3752551649998205 0.5166505448419692
0.29086382060483074 0.4986375136451682 0.4779651152084059
0.4841747102383585 0.40690785147670594 0.3912734870438619
0.41785760849982845 0.49053187236679857 0.4199683222035111
0.4115740079183812 0.3752551649998205 0.5166505448419692
0.49086382060483075 0.4986375136451682 0.4779651152084059
0.6841747102383585 0.40690785147670594 0.3912734870438619
0.6178576084998285 0.49053187236679857 0.4199683222035111
0.6115740079183812 0.3752551649998205 0.5166505448419692
0.6908638206048308 0.4986375136451682 0.4779651152084059
0.8841747102383586 0.40690785147670594 0.3912734870438619
0.8178576084998286 0.49053187236679857 0.4199683222035111
0.8115740079183813 0.3752551649998205 0.5166505448419692
0.8908638206048307 0.4986375136451682 0.4779651152084059
0.0841747102383585 0.606907851476706 0.3912734870438619
0.017857608499828485 0.6905318723667986 0.4199683222035111
0.011574007918381205 0.5752551649998205 0.5166505448419692
0.09086382060483071 0.6986375136451682 0.4779651152084059
0.2841747102383585 0.606907851476706 0.3912734870438619
0.2178576084998285 0.6905318723667986 0.4199683222035111
0.2115740079183812 0.5752551649998205 0.5166505448419692
0.29086382060483074 0.6986375136451682 0.4779651152084059
0.4841747102383585 0.606907851476706 0.3912734870438619
0.41785760849982845 0.6905318723667986 0.4199683222035111
0.4115740079183812 0.5752551649998205 0.5166505448419692
0.49086382060483075 0.6986375136451682 0.4779651152084059
0.6841747102383585 0.606907851476706 0.3912734870438619
0.6178576084998285 0.6905318723667986 0.4199683222035111
0.6115740079183812 0.5752551649998205 0.5166505448419692
0.6908638206048308 0.6986375136451682 0.4779651152084059
0.8841747102383586 0.606907851476706 0.3912734870438619
0.8178576084998286 0.6905318723667986 0.4199683222035111
0.8115740079183813 0.5752551649998205 0.5166505448419692
0.8908638206048307 0.6986375136451682 0.4779651152084059
0.0841747102383585 0.8069078514767059 0.3912734870438619
0.017857608499828485 0.8905318723667985 0.4199683222035111
0.011574007918381205 0.7752551649998205 0.5166505448419692
0.09086382060483071 0.8986375136451681 0.4779651152084059
0.2841747102383585 0.8069078514767059 0.3912734870438619
0.2178576084998285 0.8905318723667985 0.4199683222035111
0.2115740079183812 0.7752551649998205 0.5166505448419692
0.29086382060483074 0.8986375136451681 0.4779651152084059
0.4841747102383585 0.8069078514767059 0.3912734870438619
0.41785760849982845 0.8905318723667985 0.4199683222035111
0.4115740079183812 0.7752551649998205 0.5166505448419692
0.49086382060483075 0.8986375136451681 0.4779651152084059
0.6841747102383585 0.8069078514767059 0.3912734870438619
0.6178576084998285 0.8905318723667985 0.4199683222035111
0.6115740079183812 0.7752551649998205 0.5166505448419692
0.6908638206048308 0.8986375136451681 0.4779651152084059
0.8841747102383586 0.8069078514767059 0.3912734870438619
0.8178576084998286 0.8905318723667985 0.4199683222035111
0.8115740079183813 0.7752551649998205 0.5166505448419692
0.8908638206048307 0.8986375136451681 0.4779651152084059
0.0841747102383585 0.006907851476705919 0.591273487043862
0.017857608499828485 0.09053187236679852 0.6199683222035111
0.011574007918381205 -0.024744835000179526 0.7166505448419692
0.09086382060483071 0.09863751364516818 0.6779651152084059
0.2841747102383585 0.006907851476705919 0.591273487043862
0.2178576084998285 0.09053187236679852 0.6199683222035111
0.2115740079183812 -0.024744835000179526 0.7166505448419692
0.29086382060483074 0.09863751364516818 0.6779651152084059
0.4841747102383585 0.006907851476705919 0.591273487043862
0.41785760849982845 0.09053187236679852 0.6199683222035111
0.4115740079183812 -0.024744835000179526 0.7166505448419692
0.49086382060483075 0.09863751364516818 0.6779651152084059
0.6841747102383585 0.006907851476705919 0.591273487043862
0.6178576084998285 0.09053187236679852 0.6199683222035111
0.6115740079183812 -0.024744835000179526 0.7166505448419692
0.6908638206048308 0.09863751364516818 0.6779651152084059
0.8841747102383586 0.006907851476705919 0.591273487043862
0.8178576084998286 0.09053187236679852 0.6199683222035111
0.8115740079183813 -0.024744835000179526 0.7166505448419692
0.8908638206048307 0.09863751364516818 0.6779651152084059
0.0841747102383585 0.20690785147670596 0.591273487043862
0.017857608499828485 0.29053187236679856 0.6199683222035111
0.011574007918381205 0.1752551649998205 0.7166505448419692
0.09086382060483071 0.29863751364516816 0.6779651152084059
0.2841747102383585 0.20690785147670596 0.591273487043862
0.2178576084998285 0.29053187236679856 0.6199683222035111
0.2115740079183812 0.1752551649998205 0.7166505448419692
0.29086382060483074 0.29863751364516816 0.6779651152084059
0.4841747102383585 0.20690785147670596 0.591273487043862
0.41785760849982845 0.29053187236679856 0.6199683222035111
0.4115740079183812 0.1752551649998205 0.7166505448419692
0.49086382060483075 0.29863751364516816 0.6779651152084059
0.6841747102383585 0.20690785147670596 0.591273487043862
0.6178576084998285 0.29053187236679856 0.6199683222035111
0.6115740079183812 0.1752551649998205 0.7166505448419692
0.6908638206048308 0.29863751364516816 0.6779651152084059
0.8841747102383586 0.20690785147670596 0.591273487043862
0.8178576084998286 0.29053187236679856 0.6199683222035111
0.8115740079183813 0.1752551649998205 0.7166505448419692
0.8908638206048307 0.29863751364516816 0.6779651152084059
0.0841747102383585 0.40690785147670594 0.591273487043862
0.017857608499828485 0.49053187236679857 0.6199683222035111
0.011574007918381205 0.3752551649998205 0.7166505448419692
0.09086382060483071 0.4986375136451682 0.6779651152084059
0.2841747102383585 0.40690785147670594 0.591273487043862
0.2178576084998285 0.49053187236679857 0.6199683222035111
0.2115740079183812 0.3752551649998205 0.7166505448419692
0.29086382060483074 0.4986375136451682 0.6779651152084059
0.4841747102383585 0.40690785147670594 0.591273487043862
0.41785760849982845 0.49053187236679857 0.6199683222035111
0.4115740079183812 0.3752551649998205 0.7166505448419692
0.49086382060483075 0.4986375136451682 0.6779651152084059
0.6841747102383585 0.40690785147670594 0.591273487043862
0.6178576084998285 0.49053187236679857 0.6199683222035111
0.6115740079183812 0.3752551649998205 0.7166505448419692
0.6908638206048308 0.4986375136451682 0.6779651152084059
0.8841747102383586 0.40690785147670594 0.591273487043862
0.8178576084998286 0.49053187236679857 0.6199683222035111
0.8115740079183813 0.3752551649998205 0.7166505448419692
0.8908638206048307 0.4986375136451682 0.6779651152084059
0.0841747102383585 0.606907851476706 0.591273487043862
0.017857608499828485 0.6905318723667986 0.6199683222035111
0.011574007918381205 0.5752551649998205 0.7166505448419692
0.09086382060483071 0.6986375136451682 0.6779651152084059
0.2841747102383585 0.606907851476706 0.591273487043862
0.2178576084998285 0.6905318723667986 0.6199683222035111
0.2115740079183812 0.5752551649998205 0.7166505448419692
0.29086382060483074 0.6986375136451682 0.6779651152084059
0.4841747102383585 0.606907851476706 0.591273487043862
0.41785760849982845 0.6905318723667986 0.6199683222035111
0.4115740079183812 0.5752551649998205 0.7166505448419692
0.49086382060483075 0.6986375136451682 0.6779651152084059
0.6841747102383585 0.606907851476706 0.591273487043862
0.6178576084998285 0.6905318723667986 0.6199683222035111
0.6115740079183812 0.5752551649998205 0.7166505448419692
0.6908638206048308 0.6986375136451682 0.6779651152084059
0.8841747102383586 0.606907851476706 0.591273487043862
0.8178576084998286 0.6905318723667986 0.6199683222035111
0.8115740079183813 0.5752551649998205 0.7166505448419692
0.8908638206048307 0.6986375136451682 0.6779651152084059
0.0841747102383585 0.8069078514767059 0.591273487043862
0.017857608499828485 0.8905318723667985 0.6199683222035111
0.011574007918381205 0.7752551649998205 0.7166505448419692
0.09086382060483071 0.8986375136451681 0.6779651152084059
0.2841747102383585 0.8069078514767059 0.591273487043862
0.2178576084998285 0.8905318723667985 0.6199683222035111
0.2115740079183812 0.7752551649998205 0.7166505448419692
0.29086382060483074 0.8986375136451681 0.6779651152084059
0.4841747102383585 0.8069078514767059 0.591273487043862
0.41785760849982845 0.8905318723667985 0.6199683222035111
0.4115740079183812 0.7752551649998205 0.7166505448419692
0.49086382060483075 0.8986375136451681 0.6779651152084059
0.6841747102383585 0.8069078514767059 0.591273487043862
0.6178576084998285 0.8905318723667985 0.6199683222035111
0.6115740079183812 0.7752551649998205 0.7166505448419692
0.6908638206048308 0.8986375136451681 0.6779651152084059
0.8841747102383586 0.8069078514767059 0.591273487043862
0.8178576084998286 0.8905318723667985 0.6199683222035111
0.8115740079183813 0.7752551649998205 0.7166505448419692
0.8908638206048307 0.8986375136451681 0.6779651152084059
0.0841747102383585 0.006907851476705919 0.791273487043862
0.017857608499828485 0.09053187236679852 0.8199683222035111
0.011574007918381205 -0.024744835000179526 0.9166505448419692
0.09086382060483071 0.09863751364516818 0.8779651152084059
0.2841747102383585 0.006907851476705919 0.791273487043862
0.2178576084998285 0.09053187236679852 0.8199683222035111
0.2115740079183812 -0.024744835000179526 0.9166505448419692
0.29086382060483074 0.09863751364516818 0.8779651152084059
0.4841747102383585 0.006907851476705919 0.791273487043862
0.41785760849982845 0.09053187236679852 0.8199683222035111
0.4115740079183812 -0.024744835000179526 0.9166505448419692
0.49086382060483075 0.09863751364516818 0.8779651152084059
0.6841747102383585 0.006907851476705919 0.791273487043862
0.6178576084998285 0.09053187236679852 0.8199683222035111
0.6115740079183812 -0.024744835000179526 0.9166505448419692
0.6908638206048308 0.09863751364516818 0.8779651152084059
0.8841747102383586 0.006907851476705919 0.791273487043862
0.8178576084998286 0.09053187236679852 0.8199683222035111
0.8115740079183813 -0.024744835000179526 0.9166505448419692
0.8908638206048307 0.09863751364516818 0.8779651152084059
0.0841747102383585 0.20690785147670596 0.791273487043862
0.017857608499828485 0.29053187236679856 0.8199683222035111
0.011574007918381205 0.1752551649998205 0.9166505448419692
0.09086382060483071 0.29863751364516816 0.8779651152084059
0.2841747102383585 0.20690785147670596 0.791273487043862
0.2178576084998285 0.29053187236679856 0.8199683222035111
0.2115740079183812 0.1752551649998205 0.9166505448419692
0.29086382060483074 0.29863751364516816 0.8779651152084059
0.4841747102383585 0.20690785147670596 0.791273487043862
0.41785760849982845 0.29053187236679856 0.8199683222035111
0.4115740079183812 0.1752551649998205 0.9166505448419692
0.49086382060483075 0.29863751364516816 0.8779651152084059
0.6841747102383585 0.20690785147670596 0.791273487043862
0.6178576084998285 0.29053187236679856 0.8199683222035111
0.6115740079183812 0.1752551649998205 0.9166505448419692
0.6908638206048308 0.29863751364516816 0.8779651152084059
0.8841747102383586 0.20690785147670596 0.791273487043862
0.8178576084998286 0.29053187236679856 0.8199683222035111
0.8115740079183813 0.1752551649998205 0.9166505448419692
0.8908638206048307 0.29863751364516816 0.8779651152084059
0.0841747102383585 0.40690785147670594 0.791273487043862
0.017857608499828485 0.49053187236679857 0.8199683222035111
0.011574007918381205 0.3752551649998205 0.9166505448419692
0.09086382060483071 0.4986375136451682 0.8779651152084059
0.2841747102383585 0.40690785147670594 0.791273487043862
0.2178576084998285 0.49053187236679857 0.8199683222035111
0.2115740079183812 0.3752551649998205 0.9166505448419692
0.29086382060483074 0.4986375136451682 0.8779651152084059
0.4841747102383585 0.40690785147670594 0.791273487043862
0.41785760849982845 0.49053187236679857 0.8199683222035111
0.4115740079183812 0.3752551649998205 0.9166505448419692
0.49086382060483075 0.4986375136451682 0.8779651152084059
0.6841747102383585 0.40690785147670594 0.791273487043862
0.6178576084998285 0.49053187236679857 0.8199683222035111
0.6115740079183812 0.3752551649998205 0.9166505448419692
0.6908638206048308 0.4986375136451682 0.8779651152084059
0.8841747102383586 0.40690785147670594 0.791273487043862
0.8178576084998286 0.49053187236679857 0.8199683222035111
0.8115740079183813 0.3752551649998205 0.9166505448419692
0.8908638206048307 0.4986375136451682 0.8779651152084059
0.0841747102383585 0.606907851476706 0.791273487043862
0.017857608499828485 0.6905318723667986 0.8199683222035111
0.011574007918381205 0.5752551649998205 0.9166505448419692
0.09086382060483071 0.6986375136451682 0.8779651152084059
0.2841747102383585 0.606907851476706 0.791273487043862
0.2178576084998285 0.6905318723667986 0.8199683222035111
0.2115740079183812 0.5752551649998205 0.9166505448419692
0.29086382060483074 0.6986375136451682 0.8779651152084059
0.4841747102383585 0.606907851476706 0.791273487043862
0.41785760849982845 0.6905318723667986 0.8199683222035111
0.4115740079183812 0.5752551649998205 0.9166505448419692
0.49086382060483075 0.6986375136451682 0.8779651152084059
0.6841747102383585 0.606907851476706 0.791273487043862
0.6178576084998285 0.6905318723667986 0.8199683222035111
0.6115740079183812 0.5752551649998205 0.9166505448419692
0.6908638206048308 0.6986375136451682 0.8779651152084059
0.8841747102383586 0.606907851476706 0.791273487043862
0.8178576084998286 0.6905318723667986 0.8199683222035111
0.8115740079183813 0.5752551649998205 0.9166505448419692
0.8908638206048307 0.6986375136451682 0.8779651152084059
0.0841747102383585 0.8069078514767059 0.791273487043862
0.017857608499828485 0.8905318723667985 0.8199683222035111
0.011574007918381205 0.7752551649998205 0.9166505448419692
0.09086382060483071 0.8986375136451681 0.8779651152084059
0.2841747102383585 0.8069078514767059 0.791273487043862
0.2178576084998285 0.8905318723667985 0.8199683222035111
0.2115740079183812 0.7752551649998205 0.9166505448419692
0.29086382060483074 0.8986375136451681 0.8779651152084059
0.4841747102383585 0.8069078514767059 0.791273487043862
0.41785760849982845 0.8905318723667985 0.8199683222035111
0.4115740079183812 0.7752551649998205 0.9166505448419692
0.49086382060483075 0.8986375136451681 0.8779651152084059
0.6841747102383585 0.8069078514767059 0.791273487043862
0.6178576084998285 0.8905318723667985 0.8199683222035111
0.6115740079183812 0.7752551649998205 0.9166505448419692
0.6908638206048308 0.8986375136451681 0.8779651152084059
0.8841747102383586 0.8069078514767059 0.791273487043862
0.8178576084998286 0.8905318723667985 0.8199683222035111
0.8115740079183813 0.7752551649998205 0.9166505448419692
0.8908638206048307 0.8986375136451681 0.8779651152084059
