FCC BaO
3.971
5.0 0.0 0.0
0.0 5.0 0.0
0.0 0.0 5.0
Ba O 
500 500 
Direct
-0.027210730102306842 0.018444482960397624 0.027573231231099504
-0.015806107245442857 0.12201218238213057 0.07064928592649831
0.07720802954513856 -0.028506692947955423 0.07945064672143994
0.08536020762629673 0.10661329580449692 0.02884410301469993
0.17278926989769317 0.018444482960397624 0.027573231231099504
0.18419389275455714 0.12201218238213057 0.07064928592649831
0.27720802954513857 -0.028506692947955423 0.07945064672143994
0.2853602076262967 0.10661329580449692 0.02884410301469993
0.3727892698976932 0.018444482960397624 0.027573231231099504
0.3841938927545572 0.12201218238213057 0.07064928592649831
0.4772080295451385 -0.028506692947955423 0.07945064672143994
0.4853602076262967 0.10661329580449692 0.02884410301469993
0.5727892698976932 0.018444482960397624 0.027573231231099504
0.5841938927545572 0.12201218238213057 0.07064928592649831
0.6772080295451386 -0.028506692947955423 0.07945064672143994
0.6853602076262968 0.10661329580449692 0.02884410301469993
0.7727892698976931 0.018444482960397624 0.027573231231099504
0.7841938927545572 0.12201218238213057 0.07064928592649831
0.8772080295451385 -0.028506692947955423 0.07945064672143994
0.8853602076262969 0.10661329580449692 0.02884410301469993
-0.027210730102306842 0.21844448296039765 0.027573231231099504
-0.015806107245442857 0.3220121823821306 0.07064928592649831
0.07720802954513856 0.17149330705204457 0.07945064672143994
0.08536020762629673 0.3066132958044969 0.02884410301469993
0.17278926989769317 0.21844448296039765 0.027573231231099504
0.18419389275455714 0.3220121823821306 0.07064928592649831
0.27720802954513857 0.17149330705204457 0.07945064672143994
0.2853602076262967 0.3066132958044969 0.02884410301469993
0.3727892698976932 0.21844448296039765 0.027573231231099504
0.3841938927545572 0.3220121823821306 0.07064928592649831
0.4772080295451385 0.17149330705204457 0.07945064672143994
0.4853602076262967 0.3066132958044969 0.02884410301469993
0.5727892698976932 0.21844448296039765 0.027573231231099504
0.5841938927545572 0.3220121823821306 0.07064928592649831
0.6772080295451386 0.17149330705204457 0.07945064672143994
0.6853602076262968 0.3066132958044969 0.02884410301469993
0.7727892698976931 0.21844448296039765 0.027573231231099504
0.7841938927545572 0.3220121823821306 0.07064928592649831
0.8772080295451385 0.17149330705204457 0.07945064672143994
0.8853602076262969 0.3066132958044969 0.02884410301469993
-0.027210730102306842 0.4184444829603976 0.027573231231099504
-0.015806107245442857 0.5220121823821305 0.07064928592649831
0.07720802954513856 0.3714933070520446 0.07945064672143994
0.08536020762629673 0.506613295804497 0.02884410301469993
0.17278926989769317 0.4184444829603976 0.027573231231099504
0.18419389275455714 0.5220121823821305 0.07064928592649831
0.27720802954513857 0.3714933070520446 0.07945064672143994
0.2853602076262967 0.506613295804497 0.02884410301469993
0.3727892698976932 0.4184444829603976 0.027573231231099504
0.3841938927545572 0.5220121823821305 0.07064928592649831
0.4772080295451385 0.3714933070520446 0.07945064672143994
0.4853602076262967 0.506613295804497 0.02884410301469993
0.5727892698976932 0.4184444829603976 0.027573231231099504
0.5841938927545572 0.5220121823821305 0.07064928592649831
0.6772080295451386 0.3714933070520446 0.07945064672143994
0.6853602076262968 0.506613295804497 0.02884410301469993
0.7727892698976931 0.4184444829603976 0.027573231231099504
0.7841938927545572 0.5220121823821305 0.07064928592649831
0.8772080295451385 0.3714933070520446 0.07945064672143994
0.8853602076262969 0.506613295804497 0.02884410301469993
-0.027210730102306842 0.6184444829603977 0.027573231231099504
-0.015806107245442857 0.7220121823821306 0.07064928592649831
0.07720802954513856 0.5714933070520446 0.07945064672143994
0.08536020762629673 0.7066132958044969 0.02884410301469993
0.17278926989769317 0.6184444829603977 0.027573231231099504
0.18419389275455714 0.7220121823821306 0.07064928592649831
0.27720802954513857 0.5714933070520446 0.07945064672143994
0.2853602076262967 0.7066132958044969 0.02884410301469993
0.3727892698976932 0.6184444829603977 0.027573231231099504
0.3841938927545572 0.7220121823821306 0.07064928592649831
0.4772080295451385 0.5714933070520446 0.07945064672143994
0.4853602076262967 0.7066132958044969 0.02884410301469993
0.5727892698976932 0.6184444829603977 0.027573231231099504
0.5841938927545572 0.7220121823821306 0.07064928592649831
0.6772080295451386 0.5714933070520446 0.07945064672143994
0.6853602076262968 0.7066132958044969 0.02884410301469993
0.7727892698976931 0.6184444829603977 0.027573231231099504
0.7841938927545572 0.7220121823821306 0.07064928592649831
0.8772080295451385 0.5714933070520446 0.07945064672143994
0.8853602076262969 0.7066132958044969 0.02884410301469993
-0.027210730102306842 0.8184444829603976 0.027573231231099504
-0.015806107245442857 0.9220121823821306 0.07064928592649831
0.07720802954513856 0.7714933070520447 0.07945064672143994
0.08536020762629673 0.906613295804497 0.02884410301469993
0.17278926989769317 0.8184444829603976 0.027573231231099504
0.18419389275455714 0.9220121823821306 0.07064928592649831
0.27720802954513857 0.7714933070520447 0.07945064672143994
0.2853602076262967 0.906613295804497 0.02884410301469993
0.3727892698976932 0.8184444829603976 0.027573231231099504
0.3841938927545572 0.9220121823821306 0.07064928592649831
0.4772080295451385 0.7714933070520447 0.07945064672143994
0.4853602076262967 0.906613295804497 0.02884410301469993
0.5727892698976932 0.8184444829603976 0.027573231231099504
0.5841938927545572 0.9220121823821306 0.07064928592649831
0.6772080295451386 0.7714933070520447 0.07945064672143994
0.6853602076262968 0.906613295804497 0.02884410301469993
0.7727892698976931 0.8184444829603976 0.027573231231099504
0.7841938927545572 0.9220121823821306 0.07064928592649831
0.8772080295451385 0.7714933070520447 0.07945064672143994
0.8853602076262969 0.906613295804497 0.02884410301469993
-0.027210730102306842 0.018444482960397624 0.22757323123109952
-0.015806107245442857 0.12201218238213057 0.27064928592649834
0.07720802954513856 -0.028506692947955423 0.27945064672143993
0.08536020762629673 0.10661329580449692 0.22884410301469993
0.17278926989769317 0.018444482960397624 0.22757323123109952
0.18419389275455714 0.12201218238213057 0.27064928592649834
0.27720802954513857 -0.028506692947955423 0.27945064672143993
0.2853602076262967 0.10661329580449692 0.22884410301469993
0.3727892698976932 0.018444482960397624 0.22757323123109952
0.3841938927545572 0.12201218238213057 0.27064928592649834
0.4772080295451385 -0.028506692947955423 0.27945064672143993
0.4853602076262967 0.10661329580449692 0.22884410301469993
0.5727892698976932 0.018444482960397624 0.22757323123109952
0.5841938927545572 0.12201218238213057 0.27064928592649834
0.6772080295451386 -0.028506692947955423 0.27945064672143993
0.6853602076262968 0.10661329580449692 0.22884410301469993
0.7727892698976931 0.018444482960397624 0.22757323123109952
0.7841938927545572 0.12201218238213057 0.27064928592649834
0.8772080295451385 -0.028506692947955423 0.27945064672143993
0.8853602076262969 0.10661329580449692 0.22884410301469993
-0.027210730102306842 0.21844448296039765 0.22757323123109952
-0.015806107245442857 0.3220121823821306 0.27064928592649834
0.07720802954513856 0.17149330705204457 0.27945064672143993
0.08536020762629673 0.3066132958044969 0.22884410301469993
0.17278926989769317 0.21844448296039765 0.22757323123109952
0.18419389275455714 0.3220121823821306 0.27064928592649834
0.27720802954513857 0.17149330705204457 0.27945064672143993
0.2853602076262967 0.3066132958044969 0.22884410301469993
0.3727892698976932 0.21844448296039765 0.22757323123109952
0.3841938927545572 0.3220121823821306 0.27064928592649834
0.4772080295451385 0.17149330705204457 0.27945064672143993
0.4853602076262967 0.3066132958044969 0.22884410301469993
0.5727892698976932 0.21844448296039765 0.22757323123109952
0.5841938927545572 0.3220121823821306 0.27064928592649834
0.6772080295451386 0.17149330705204457 0.27945064672143993
0.6853602076262968 0.3066132958044969 0.22884410301469993
0.7727892698976931 0.21844448296039765 0.22757323123109952
0.7841938927545572 0.3220121823821306 0.27064928592649834
0.8772080295451385 0.17149330705204457 0.27945064672143993
0.8853602076262969 0.3066132958044969 0.22884410301469993
-0.027210730102306842 0.4184444829603976 0.22757323123109952
-0.015806107245442857 0.5220121823821305 0.27064928592649834
0.07720802954513856 0.3714933070520446 0.27945064672143993
0.08536020762629673 0.506613295804497 0.22884410301469993
0.17278926989769317 0.4184444829603976 0.22757323123109952
0.18419389275455714 0.5220121823821305 0.27064928592649834
0.27720802954513857 0.3714933070520446 0.27945064672143993
0.2853602076262967 0.506613295804497 0.22884410301469993
0.3727892698976932 0.4184444829603976 0.22757323123109952
0.3841938927545572 0.5220121823821305 0.27064928592649834
0.4772080295451385 0.3714933070520446 0.27945064672143993
0.4853602076262967 0.506613295804497 0.22884410301469993
0.5727892698976932 0.4184444829603976 0.22757323123109952
0.5841938927545572 0.5220121823821305 0.27064928592649834
0.6772080295451386 0.3714933070520446 0.27945064672143993
0.6853602076262968 0.506613295804497 0.22884410301469993
0.7727892698976931 0.4184444829603976 0.22757323123109952
0.7841938927545572 0.5220121823821305 0.27064928592649834
0.8772080295451385 0.3714933070520446 0.27945064672143993
0.8853602076262969 0.506613295804497 0.22884410301469993
-0.027210730102306842 0.6184444829603977 0.22757323123109952
-0.015806107245442857 0.7220121823821306 0.27064928592649834
0.07720802954513856 0.5714933070520446 0.27945064672143993
0.08536020762629673 0.7066132958044969 0.22884410301469993
0.17278926989769317 0.6184444829603977 0.22757323123109952
0.18419389275455714 0.7220121823821306 0.27064928592649834
0.27720802954513857 0.5714933070520446 0.27945064672143993
0.2853602076262967 0.7066132958044969 0.22884410301469993
0.3727892698976932 0.6184444829603977 0.22757323123109952
0.3841938927545572 0.7220121823821306 0.27064928592649834
0.4772080295451385 0.5714933070520446 0.27945064672143993
0.4853602076262967 0.7066132958044969 0.22884410301469993
0.5727892698976932 0.6184444829603977 0.22757323123109952
0.5841938927545572 0.7220121823821306 0.27064928592649834
0.6772080295451386 0.5714933070520446 0.27945064672143993
0.6853602076262968 0.7066132958044969 0.22884410301469993
0.7727892698976931 0.6184444829603977 0.22757323123109952
0.7841938927545572 0.7220121823821306 0.27064928592649834
0.8772080295451385 0.5714933070520446 0.27945064672143993
0.8853602076262969 0.7066132958044969 0.22884410301469993
-0.027210730102306842 0.8184444829603976 0.22757323123109952
-0.015806107245442857 0.9220121823821306 0.27064928592649834
0.07720802954513856 0.7714933070520447 0.27945064672143993
0.08536020762629673 0.906613295804497 0.22884410301469993
0.17278926989769317 0.8184444829603976 0.22757323123109952
0.18419389275455714 0.9220121823821306 0.27064928592649834
0.27720802954513857 0.7714933070520447 0.27945064672143993
0.2853602076262967 0.906613295804497 0.22884410301469993
0.3727892698976932 0.8184444829603976 0.22757323123109952
0.3841938927545572 0.9220121823821306 0.27064928592649834
0.4772080295451385 0.7714933070520447 0.27945064672143993
0.4853602076262967 0.906613295804497 0.22884410301469993
0.5727892698976932 0.8184444829603976 0.22757323123109952
0.5841938927545572 0.9220121823821306 0.27064928592649834
0.6772080295451386 0.7714933070520447 0.27945064672143993
0.6853602076262968 0.906613295804497 0.22884410301469993
0.7727892698976931 0.8184444829603976 0.22757323123109952
0.7841938927545572 0.9220121823821306 0.27064928592649834
0.8772080295451385 0.7714933070520447 0.27945064672143993
0.8853602076262969 0.906613295804497 0.22884410301469993
-0.027210730102306842 0.018444482960397624 0.4275732312310996
-0.015806107245442857 0.12201218238213057 0.47064928592649835
0.07720802954513856 -0.028506692947955423 0.4794506467214399
0.08536020762629673 0.10661329580449692 0.42884410301469994
0.17278926989769317 0.018444482960397624 0.4275732312310996
0.18419389275455714 0.12201218238213057 0.47064928592649835
0.27720802954513857 -0.028506692947955423 0.4794506467214399
0.2853602076262967 0.10661329580449692 0.42884410301469994
0.3727892698976932 0.018444482960397624 0.4275732312310996
0.3841938927545572 0.12201218238213057 0.47064928592649835
0.4772080295451385 -0.028506692947955423 0.4794506467214399
0.4853602076262967 0.10661329580449692 0.42884410301469994
0.5727892698976932 0.018444482960397624 0.4275732312310996
0.5841938927545572 0.12201218238213057 0.47064928592649835
0.6772080295451386 -0.028506692947955423 0.4794506467214399
0.6853602076262968 0.10661329580449692 0.42884410301469994
0.7727892698976931 0.018444482960397624 0.4275732312310996
0.7841938927545572 0.12201218238213057 0.47064928592649835
0.8772080295451385 -0.028506692947955423 0.4794506467214399
0.8853602076262969 0.10661329580449692 0.42884410301469994
-0.027210730102306842 0.21844448296039765 0.4275732312310996
-0.015806107245442857 0.3220121823821306 0.47064928592649835
0.07720802954513856 0.17149330705204457 0.4794506467214399
0.08536020762629673 0.3066132958044969 0.42884410301469994
0.17278926989769317 0.21844448296039765 0.4275732312310996
0.18419389275455714 0.3220121823821306 0.47064928592649835
0.27720802954513857 0.17149330705204457 0.4794506467214399
0.2853602076262967 0.3066132958044969 0.42884410301469994
0.3727892698976932 0.21844448296039765 0.4275732312310996
0.3841938927545572 0.3220121823821306 0.47064928592649835
0.4772080295451385 0.17149330705204457 0.4794506467214399
0.4853602076262967 0.3066132958044969 0.42884410301469994
0.5727892698976932 0.21844448296039765 0.4275732312310996
0.5841938927545572 0.3220121823821306 0.47064928592649835
0.6772080295451386 0.17149330705204457 0.4794506467214399
0.6853602076262968 0.3066132958044969 0.42884410301469994
0.7727892698976931 0.21844448296039765 0.4275732312310996
0.7841938927545572 0.3220121823821306 0.47064928592649835
0.8772080295451385 0.17149330705204457 0.4794506467214399
0.8853602076262969 0.3066132958044969 0.42884410301469994
-0.027210730102306842 0.4184444829603976 0.4275732312310996
-0.015806107245442857 0.5220121823821305 0.47064928592649835
0.07720802954513856 0.3714933070520446 0.4794506467214399
0.08536020762629673 0.506613295804497 0.42884410301469994
0.17278926989769317 0.4184444829603976 0.4275732312310996
0.18419389275455714 0.5220121823821305 0.47064928592649835
0.27720802954513857 0.3714933070520446 0.4794506467214399
0.2853602076262967 0.506613295804497 0.42884410301469994
0.3727892698976932 0.4184444829603976 0.4275732312310996
0.3841938927545572 0.5220121823821305 0.47064928592649835
0.4772080295451385 0.3714933070520446 0.4794506467214399
0.4853602076262967 0.506613295804497 0.42884410301469994
0.5727892698976932 0.4184444829603976 0.4275732312310996
0.5841938927545572 0.5220121823821305 0.47064928592649835
0.6772080295451386 0.3714933070520446 0.4794506467214399
0.6853602076262968 0.506613295804497 0.42884410301469994
0.7727892698976931 0.4184444829603976 0.4275732312310996
0.7841938927545572 0.5220121823821305 0.47064928592649835
0.8772080295451385 0.3714933070520446 0.4794506467214399
0.8853602076262969 0.506613295804497 0.42884410301469994
-0.027210730102306842 0.6184444829603977 0.4275732312310996
-0.015806107245442857 0.7220121823821306 0.47064928592649835
0.07720802954513856 0.5714933070520446 0.4794506467214399
0.08536020762629673 0.7066132958044969 0.42884410301469994
0.17278926989769317 0.6184444829603977 0.4275732312310996
0.18419389275455714 0.7220121823821306 0.47064928592649835
0.27720802954513857 0.5714933070520446 0.4794506467214399
0.2853602076262967 0.7066132958044969 0.42884410301469994
0.3727892698976932 0.6184444829603977 0.4275732312310996
0.3841938927545572 0.7220121823821306 0.47064928592649835
0.4772080295451385 0.5714933070520446 0.4794506467214399
0.4853602076262967 0.7066132958044969 0.42884410301469994
0.5727892698976932 0.6184444829603977 0.4275732312310996
0.5841938927545572 0.7220121823821306 0.47064928592649835
0.6772080295451386 0.5714933070520446 0.4794506467214399
0.6853602076262968 0.7066132958044969 0.42884410301469994
0.7727892698976931 0.6184444829603977 0.4275732312310996
0.7841938927545572 0.7220121823821306 0.47064928592649835
0.8772080295451385 0.5714933070520446 0.4794506467214399
0.8853602076262969 0.7066132958044969 0.42884410301469994
-0.027210730102306842 0.8184444829603976 0.4275732312310996
-0.015806107245442857 0.9220121823821306 0.47064928592649835
0.07720802954513856 0.7714933070520447 0.4794506467214399
0.08536020762629673 0.906613295804497 0.42884410301469994
0.17278926989769317 0.8184444829603976 0.4275732312310996
0.18419389275455714 0.9220121823821306 0.47064928592649835
0.27720802954513857 0.7714933070520447 0.4794506467214399
0.2853602076262967 0.906613295804497 0.42884410301469994
0.3727892698976932 0.8184444829603976 0.4275732312310996
0.3841938927545572 0.9220121823821306 0.47064928592649835
0.4772080295451385 0.7714933070520447 0.4794506467214399
0.4853602076262967 0.906613295804497 0.42884410301469994
0.5727892698976932 0.8184444829603976 0.4275732312310996
0.5841938927545572 0.9220121823821306 0.47064928592649835
0.6772080295451386 0.7714933070520447 0.4794506467214399
0.6853602076262968 0.906613295804497 0.42884410301469994
0.7727892698976931 0.8184444829603976 0.4275732312310996
0.7841938927545572 0.9220121823821306 0.47064928592649835
0.8772080295451385 0.7714933070520447 0.4794506467214399
0.8853602076262969 0.906613295804497 0.42884410301469994
-0.027210730102306842 0.018444482960397624 0.6275732312310995
-0.015806107245442857 0.12201218238213057 0.6706492859264984
0.07720802954513856 -0.028506692947955423 0.67945064672144
0.08536020762629673 0.10661329580449692 0.6288441030147
0.17278926989769317 0.018444482960397624 0.6275732312310995
0.18419389275455714 0.12201218238213057 0.6706492859264984
0.27720802954513857 -0.028506692947955423 0.67945064672144
0.2853602076262967 0.10661329580449692 0.6288441030147
0.3727892698976932 0.018444482960397624 0.6275732312310995
0.3841938927545572 0.12201218238213057 0.6706492859264984
0.4772080295451385 -0.028506692947955423 0.67945064672144
0.4853602076262967 0.10661329580449692 0.6288441030147
0.5727892698976932 0.018444482960397624 0.6275732312310995
0.5841938927545572 0.12201218238213057 0.6706492859264984
0.6772080295451386 -0.028506692947955423 0.67945064672144
0.6853602076262968 0.10661329580449692 0.6288441030147
0.7727892698976931 0.018444482960397624 0.6275732312310995
0.7841938927545572 0.12201218238213057 0.6706492859264984
0.8772080295451385 -0.028506692947955423 0.67945064672144
0.8853602076262969 0.10661329580449692 0.6288441030147
-0.027210730102306842 0.21844448296039765 0.6275732312310995
-0.015806107245442857 0.3220121823821306 0.6706492859264984
0.07720802954513856 0.17149330705204457 0.67945064672144
0.08536020762629673 0.3066132958044969 0.6288441030147
0.17278926989769317 0.21844448296039765 0.6275732312310995
0.18419389275455714 0.3220121823821306 0.6706492859264984
0.27720802954513857 0.17149330705204457 0.67945064672144
0.2853602076262967 0.3066132958044969 0.6288441030147
0.3727892698976932 0.21844448296039765 0.6275732312310995
0.3841938927545572 0.3220121823821306 0.6706492859264984
0.4772080295451385 0.17149330705204457 0.67945064672144
0.4853602076262967 0.3066132958044969 0.6288441030147
0.5727892698976932 0.21844448296039765 0.6275732312310995
0.5841938927545572 0.3220121823821306 0.6706492859264984
0.6772080295451386 0.17149330705204457 0.67945064672144
0.6853602076262968 0.3066132958044969 0.6288441030147
0.7727892698976931 0.21844448296039765 0.6275732312310995
0.7841938927545572 0.3220121823821306 0.6706492859264984
0.8772080295451385 0.17149330705204457 0.67945064672144
0.8853602076262969 0.3066132958044969 0.6288441030147
-0.027210730102306842 0.4184444829603976 0.6275732312310995
-0.015806107245442857 0.5220121823821305 0.6706492859264984
0.07720802954513856 0.3714933070520446 0.67945064672144
0.08536020762629673 0.506613295804497 0.6288441030147
0.17278926989769317 0.4184444829603976 0.6275732312310995
0.18419389275455714 0.5220121823821305 0.6706492859264984
0.27720802954513857 0.3714933070520446 0.67945064672144
0.2853602076262967 0.506613295804497 0.6288441030147
0.3727892698976932 0.4184444829603976 0.6275732312310995
0.3841938927545572 0.5220121823821305 0.6706492859264984
0.4772080295451385 0.3714933070520446 0.67945064672144
0.4853602076262967 0.506613295804497 0.6288441030147
0.5727892698976932 0.4184444829603976 0.6275732312310995
0.5841938927545572 0.5220121823821305 0.6706492859264984
0.6772080295451386 0.3714933070520446 0.67945064672144
0.6853602076262968 0.506613295804497 0.6288441030147
0.7727892698976931 0.4184444829603976 0.6275732312310995
0.7841938927545572 0.5220121823821305 0.6706492859264984
0.8772080295451385 0.3714933070520446 0.67945064672144
0.8853602076262969 0.506613295804497 0.6288441030147
-0.027210730102306842 0.6184444829603977 0.6275732312310995
-0.015806107245442857 0.7220121823821306 0.6706492859264984
0.07720802954513856 0.5714933070520446 0.67945064672144
0.08536020762629673 0.7066132958044969 0.6288441030147
0.17278926989769317 0.6184444829603977 0.6275732312310995
0.18419389275455714 0.7220121823821306 0.6706492859264984
0.27720802954513857 0.5714933070520446 0.67945064672144
0.2853602076262967 0.7066132958044969 0.6288441030147
0.3727892698976932 0.6184444829603977 0.6275732312310995
0.3841938927545572 0.7220121823821306 0.6706492859264984
0.4772080295451385 0.5714933070520446 0.67945064672144
0.4853602076262967 0.7066132958044969 0.6288441030147
0.5727892698976932 0.6184444829603977 0.6275732312310995
0.5841938927545572 0.7220121823821306 0.6706492859264984
0.6772080295451386 0.5714933070520446 0.67945064672144
0.6853602076262968 0.7066132958044969 0.6288441030147
0.7727892698976931 0.6184444829603977 0.6275732312310995
0.7841938927545572 0.7220121823821306 0.6706492859264984
0.8772080295451385 0.5714933070520446 0.67945064672144
0.8853602076262969 0.7066132958044969 0.6288441030147
-0.027210730102306842 0.8184444829603976 0.6275732312310995
-0.015806107245442857 0.9220121823821306 0.6706492859264984
0.07720802954513856 0.7714933070520447 0.67945064672144
0.08536020762629673 0.906613295804497 0.6288441030147
0.17278926989769317 0.8184444829603976 0.6275732312310995
0.18419389275455714 0.9220121823821306 0.6706492859264984
0.27720802954513857 0.7714933070520447 0.67945064672144
0.2853602076262967 0.906613295804497 0.6288441030147
0.3727892698976932 0.8184444829603976 0.6275732312310995
0.3841938927545572 0.9220121823821306 0.6706492859264984
0.4772080295451385 0.7714933070520447 0.67945064672144
0.4853602076262967 0.906613295804497 0.6288441030147
0.5727892698976932 0.8184444829603976 0.6275732312310995
0.5841938927545572 0.9220121823821306 0.6706492859264984
0.6772080295451386 0.7714933070520447 0.67945064672144
0.6853602076262968 0.906613295804497 0.6288441030147
0.7727892698976931 0.8184444829603976 0.6275732312310995
0.7841938927545572 0.9220121823821306 0.6706492859264984
0.8772080295451385 0.7714933070520447 0.67945064672144
0.8853602076262969 0.906613295804497 0.6288441030147
-0.027210730102306842 0.018444482960397624 0.8275732312310995
-0.015806107245442857 0.12201218238213057 0.8706492859264984
0.07720802954513856 -0.028506692947955423 0.8794506467214399
0.08536020762629673 0.10661329580449692 0.8288441030146999
0.17278926989769317 0.018444482960397624 0.8275732312310995
0.18419389275455714 0.12201218238213057 0.8706492859264984
0.27720802954513857 -0.028506692947955423 0.8794506467214399
0.2853602076262967 0.10661329580449692 0.8288441030146999
0.3727892698976932 0.018444482960397624 0.8275732312310995
0.3841938927545572 0.12201218238213057 0.8706492859264984
0.4772080295451385 -0.028506692947955423 0.8794506467214399
0.4853602076262967 0.10661329580449692 0.8288441030146999
0.5727892698976932 0.018444482960397624 0.8275732312310995
0.5841938927545572 0.12201218238213057 0.8706492859264984
0.6772080295451386 -0.028506692947955423 0.8794506467214399
0.6853602076262968 0.10661329580449692 0.8288441030146999
0.7727892698976931 0.018444482960397624 0.8275732312310995
0.7841938927545572 0.12201218238213057 0.8706492859264984
0.8772080295451385 -0.028506692947955423 0.8794506467214399
0.8853602076262969 0.10661329580449692 0.8288441030146999
-0.027210730102306842 0.21844448296039765 0.8275732312310995
-0.015806107245442857 0.3220121823821306 0.8706492859264984
0.07720802954513856 0.17149330705204457 0.8794506467214399
0.08536020762629673 0.3066132958044969 0.8288441030146999
0.17278926989769317 0.21844448296039765 0.8275732312310995
0.18419389275455714 0.3220121823821306 0.8706492859264984
0.27720802954513857 0.17149330705204457 0.8794506467214399
0.2853602076262967 0.3066132958044969 0.8288441030146999
0.3727892698976932 0.21844448296039765 0.8275732312310995
0.3841938927545572 0.3220121823821306 0.8706492859264984
0.4772080295451385 0.17149330705204457 0.8794506467214399
0.4853602076262967 0.3066132958044969 0.8288441030146999
0.5727892698976932 0.21844448296039765 0.8275732312310995
0.5841938927545572 0.3220121823821306 0.8706492859264984
0.6772080295451386 0.17149330705204457 0.8794506467214399
0.6853602076262968 0.3066132958044969 0.8288441030146999
0.7727892698976931 0.21844448296039765 0.8275732312310995
0.7841938927545572 0.3220121823821306 0.8706492859264984
0.8772080295451385 0.17149330705204457 0.8794506467214399
0.8853602076262969 0.3066132958044969 0.8288441030146999
-0.027210730102306842 0.4184444829603976 0.8275732312310995
-0.015806107245442857 0.5220121823821305 0.8706492859264984
0.07720802954513856 0.3714933070520446 0.8794506467214399
0.08536020762629673 0.506613295804497 0.8288441030146999
0.17278926989769317 0.4184444829603976 0.8275732312310995
0.18419389275455714 0.5220121823821305 0.8706492859264984
0.27720802954513857 0.3714933070520446 0.8794506467214399
0.2853602076262967 0.506613295804497 0.8288441030146999
0.3727892698976932 0.4184444829603976 0.8275732312310995
0.3841938927545572 0.5220121823821305 0.8706492859264984
0.4772080295451385 0.3714933070520446 0.8794506467214399
0.4853602076262967 0.506613295804497 0.8288441030146999
0.5727892698976932 0.4184444829603976 0.8275732312310995
0.5841938927545572 0.5220121823821305 0.8706492859264984
0.6772080295451386 0.3714933070520446 0.8794506467214399
0.6853602076262968 0.506613295804497 0.8288441030146999
0.7727892698976931 0.4184444829603976 0.8275732312310995
0.7841938927545572 0.5220121823821305 0.8706492859264984
0.8772080295451385 0.3714933070520446 0.8794506467214399
0.8853602076262969 0.506613295804497 0.8288441030146999
-0.027210730102306842 0.6184444829603977 0.8275732312310995
-0.015806107245442857 0.7220121823821306 0.8706492859264984
0.07720802954513856 0.5714933070520446 0.8794506467214399
0.08536020762629673 0.7066132958044969 0.8288441030146999
0.17278926989769317 0.6184444829603977 0.8275732312310995
0.18419389275455714 0.7220121823821306 0.8706492859264984
0.27720802954513857 0.5714933070520446 0.8794506467214399
0.2853602076262967 0.7066132958044969 0.8288441030146999
0.3727892698976932 0.6184444829603977 0.8275732312310995
0.3841938927545572 0.7220121823821306 0.8706492859264984
0.4772080295451385 0.5714933070520446 0.8794506467214399
0.4853602076262967 0.7066132958044969 0.8288441030146999
0.5727892698976932 0.6184444829603977 0.8275732312310995
0.5841938927545572 0.7220121823821306 0.8706492859264984
0.6772080295451386 0.5714933070520446 0.8794506467214399
0.6853602076262968 0.7066132958044969 0.8288441030146999
0.7727892698976931 0.6184444829603977 0.8275732312310995
0.7841938927545572 0.7220121823821306 0.8706492859264984
0.8772080295451385 0.5714933070520446 0.8794506467214399
0.8853602076262969 0.7066132958044969 0.8288441030146999
-0.027210730102306842 0.8184444829603976 0.8275732312310995
-0.015806107245442857 0.9220121823821306 0.8706492859264984
0.07720802954513856 0.7714933070520447 0.8794506467214399
0.08536020762629673 0.906613295804497 0.8288441030146999
0.17278926989769317 0.8184444829603976 0.8275732312310995
0.18419389275455714 0.9220121823821306 0.8706492859264984
0.27720802954513857 0.7714933070520447 0.8794506467214399
0.2853602076262967 0.906613295804497 0.8288441030146999
0.3727892698976932 0.8184444829603976 0.8275732312310995
0.3841938927545572 0.9220121823821306 0.8706492859264984
0.4772080295451385 0.7714933070520447 0.8794506467214399
0.4853602076262967 0.906613295804497 0.8288441030146999
0.5727892698976932 0.8184444829603976 0.8275732312310995
0.5841938927545572 0.9220121823821306 0.8706492859264984
0.6772080295451386 0.7714933070520447 0.8794506467214399
0.6853602076262968 0.906613295804497 0.8288441030146999
0.7727892698976931 0.8184444829603976 0.8275732312310995
0.7841938927545572 0.9220121823821306 0.8706492859264984
0.8772080295451385 0.7714933070520447 0.8794506467214399
0.8853602076262969 0.906613295804497 0.8288441030146999
0.10189822520038226 0.015882698349401057 -0.024308763006053308
0.019290341929801655 0.09887520273134452 -0.022576382711917573
-0.02252307355039112 -0.017141955263842917 0.10255660692878227
0.08583612817456573 0.11683737140829734 0.11070983321798059
0.3018982252003823 0.015882698349401057 -0.024308763006053308
0.21929034192980168 0.09887520273134452 -0.022576382711917573
0.17747692644960888 -0.017141955263842917 0.10255660692878227
0.2858361281745658 0.11683737140829734 0.11070983321798059
0.5018982252003823 0.015882698349401057 -0.024308763006053308
0.41929034192980164 0.09887520273134452 -0.022576382711917573
0.3774769264496089 -0.017141955263842917 0.10255660692878227
0.4858361281745658 0.11683737140829734 0.11070983321798059
0.7018982252003823 0.015882698349401057 -0.024308763006053308
0.6192903419298017 0.09887520273134452 -0.022576382711917573
0.5774769264496089 -0.017141955263842917 0.10255660692878227
0.6858361281745657 0.11683737140829734 0.11070983321798059
0.9018982252003824 0.015882698349401057 -0.024308763006053308
0.8192903419298017 0.09887520273134452 -0.022576382711917573
0.777476926449609 -0.017141955263842917 0.10255660692878227
0.8858361281745657 0.11683737140829734 0.11070983321798059
0.10189822520038226 0.21588269834940108 -0.024308763006053308
0.019290341929801655 0.29887520273134455 -0.022576382711917573
-0.02252307355039112 0.18285804473615708 0.10255660692878227
0.08583612817456573 0.3168373714082973 0.11070983321798059
0.3018982252003823 0.21588269834940108 -0.024308763006053308
0.21929034192980168 0.29887520273134455 -0.022576382711917573
0.17747692644960888 0.18285804473615708 0.10255660692878227
0.2858361281745658 0.3168373714082973 0.11070983321798059
0.5018982252003823 0.21588269834940108 -0.024308763006053308
0.41929034192980164 0.29887520273134455 -0.022576382711917573
0.3774769264496089 0.18285804473615708 0.10255660692878227
0.4858361281745658 0.3168373714082973 0.11070983321798059
0.7018982252003823 0.21588269834940108 -0.024308763006053308
0.6192903419298017 0.29887520273134455 -0.022576382711917573
0.5774769264496089 0.18285804473615708 0.10255660692878227
0.6858361281745657 0.3168373714082973 0.11070983321798059
0.9018982252003824 0.21588269834940108 -0.024308763006053308
0.8192903419298017 0.29887520273134455 -0.022576382711917573
0.777476926449609 0.18285804473615708 0.10255660692878227
0.8858361281745657 0.3168373714082973 0.11070983321798059
0.10189822520038226 0.41588269834940106 -0.024308763006053308
0.019290341929801655 0.49887520273134456 -0.022576382711917573
-0.02252307355039112 0.38285804473615714 0.10255660692878227
0.08583612817456573 0.5168373714082973 0.11070983321798059
0.3018982252003823 0.41588269834940106 -0.024308763006053308
0.21929034192980168 0.49887520273134456 -0.022576382711917573
0.17747692644960888 0.38285804473615714 0.10255660692878227
0.2858361281745658 0.5168373714082973 0.11070983321798059
0.5018982252003823 0.41588269834940106 -0.024308763006053308
0.41929034192980164 0.49887520273134456 -0.022576382711917573
0.3774769264496089 0.38285804473615714 0.10255660692878227
0.4858361281745658 0.5168373714082973 0.11070983321798059
0.7018982252003823 0.41588269834940106 -0.024308763006053308
0.6192903419298017 0.49887520273134456 -0.022576382711917573
0.5774769264496089 0.38285804473615714 0.10255660692878227
0.6858361281745657 0.5168373714082973 0.11070983321798059
0.9018982252003824 0.41588269834940106 -0.024308763006053308
0.8192903419298017 0.49887520273134456 -0.022576382711917573
0.777476926449609 0.38285804473615714 0.10255660692878227
0.8858361281745657 0.5168373714082973 0.11070983321798059
0.10189822520038226 0.615882698349401 -0.024308763006053308
0.019290341929801655 0.6988752027313446 -0.022576382711917573
-0.02252307355039112 0.5828580447361571 0.10255660692878227
0.08583612817456573 0.7168373714082974 0.11070983321798059
0.3018982252003823 0.615882698349401 -0.024308763006053308
0.21929034192980168 0.6988752027313446 -0.022576382711917573
0.17747692644960888 0.5828580447361571 0.10255660692878227
0.2858361281745658 0.7168373714082974 0.11070983321798059
0.5018982252003823 0.615882698349401 -0.024308763006053308
0.41929034192980164 0.6988752027313446 -0.022576382711917573
0.3774769264496089 0.5828580447361571 0.10255660692878227
0.4858361281745658 0.7168373714082974 0.11070983321798059
0.7018982252003823 0.615882698349401 -0.024308763006053308
0.6192903419298017 0.6988752027313446 -0.022576382711917573
0.5774769264496089 0.5828580447361571 0.10255660692878227
0.6858361281745657 0.7168373714082974 0.11070983321798059
0.9018982252003824 0.615882698349401 -0.024308763006053308
0.8192903419298017 0.6988752027313446 -0.022576382711917573
0.777476926449609 0.5828580447361571 0.10255660692878227
0.8858361281745657 0.7168373714082974 0.11070983321798059
0.10189822520038226 0.8158826983494012 -0.024308763006053308
0.019290341929801655 0.8988752027313446 -0.022576382711917573
-0.02252307355039112 0.782858044736157 0.10255660692878227
0.08583612817456573 0.9168373714082974 0.11070983321798059
0.3018982252003823 0.8158826983494012 -0.024308763006053308
0.21929034192980168 0.8988752027313446 -0.022576382711917573
0.17747692644960888 0.782858044736157 0.10255660692878227
0.2858361281745658 0.9168373714082974 0.11070983321798059
0.5018982252003823 0.8158826983494012 -0.024308763006053308
0.41929034192980164 0.8988752027313446 -0.022576382711917573
0.3774769264496089 0.782858044736157 0.10255660692878227
0.4858361281745658 0.9168373714082974 0.11070983321798059
0.7018982252003823 0.8158826983494012 -0.024308763006053308
0.6192903419298017 0.8988752027313446 -0.022576382711917573
0.5774769264496089 0.782858044736157 0.10255660692878227
0.6858361281745657 0.9168373714082974 0.11070983321798059
0.9018982252003824 0.8158826983494012 -0.024308763006053308
0.8192903419298017 0.8988752027313446 -0.022576382711917573
0.777476926449609 0.782858044736157 0.10255660692878227
0.8858361281745657 0.9168373714082974 0.11070983321798059
0.10189822520038226 0.015882698349401057 0.1756912369939467
0.019290341929801655 0.09887520273134452 0.17742361728808242
-0.02252307355039112 -0.017141955263842917 0.3025566069287823
0.08583612817456573 0.11683737140829734 0.3107098332179806
0.3018982252003823 0.015882698349401057 0.1756912369939467
0.21929034192980168 0.09887520273134452 0.17742361728808242
0.17747692644960888 -0.017141955263842917 0.3025566069287823
0.2858361281745658 0.11683737140829734 0.3107098332179806
0.5018982252003823 0.015882698349401057 0.1756912369939467
0.41929034192980164 0.09887520273134452 0.17742361728808242
0.3774769264496089 -0.017141955263842917 0.3025566069287823
0.4858361281745658 0.11683737140829734 0.3107098332179806
0.7018982252003823 0.015882698349401057 0.1756912369939467
0.6192903419298017 0.09887520273134452 0.17742361728808242
0.5774769264496089 -0.017141955263842917 0.3025566069287823
0.6858361281745657 0.11683737140829734 0.3107098332179806
0.9018982252003824 0.015882698349401057 0.1756912369939467
0.8192903419298017 0.09887520273134452 0.17742361728808242
0.777476926449609 -0.017141955263842917 0.3025566069287823
0.8858361281745657 0.11683737140829734 0.3107098332179806
0.10189822520038226 0.21588269834940108 0.1756912369939467
0.019290341929801655 0.29887520273134455 0.17742361728808242
-0.02252307355039112 0.18285804473615708 0.3025566069287823
0.08583612817456573 0.3168373714082973 0.3107098332179806
0.3018982252003823 0.21588269834940108 0.1756912369939467
0.21929034192980168 0.29887520273134455 0.17742361728808242
0.17747692644960888 0.18285804473615708 0.3025566069287823
0.2858361281745658 0.3168373714082973 0.3107098332179806
0.5018982252003823 0.21588269834940108 0.1756912369939467
0.41929034192980164 0.29887520273134455 0.17742361728808242
0.3774769264496089 0.18285804473615708 0.3025566069287823
0.4858361281745658 0.3168373714082973 0.3107098332179806
0.7018982252003823 0.21588269834940108 0.1756912369939467
0.6192903419298017 0.29887520273134455 0.17742361728808242
0.5774769264496089 0.18285804473615708 0.3025566069287823
0.6858361281745657 0.3168373714082973 0.3107098332179806
0.9018982252003824 0.21588269834940108 0.1756912369939467
0.8192903419298017 0.29887520273134455 0.17742361728808242
0.777476926449609 0.18285804473615708 0.3025566069287823
0.8858361281745657 0.3168373714082973 0.3107098332179806
0.10189822520038226 0.41588269834940106 0.1756912369939467
0.019290341929801655 0.49887520273134456 0.17742361728808242
-0.02252307355039112 0.38285804473615714 0.3025566069287823
0.08583612817456573 0.5168373714082973 0.3107098332179806
0.3018982252003823 0.41588269834940106 0.1756912369939467
0.21929034192980168 0.49887520273134456 0.17742361728808242
0.17747692644960888 0.38285804473615714 0.3025566069287823
0.2858361281745658 0.5168373714082973 0.3107098332179806
0.5018982252003823 0.41588269834940106 0.1756912369939467
0.41929034192980164 0.49887520273134456 0.17742361728808242
0.3774769264496089 0.38285804473615714 0.3025566069287823
0.4858361281745658 0.5168373714082973 0.3107098332179806
0.7018982252003823 0.41588269834940106 0.1756912369939467
0.6192903419298017 0.49887520273134456 0.17742361728808242
0.5774769264496089 0.38285804473615714 0.3025566069287823
0.6858361281745657 0.5168373714082973 0.3107098332179806
0.9018982252003824 0.41588269834940106 0.1756912369939467
0.8192903419298017 0.49887520273134456 0.17742361728808242
0.777476926449609 0.38285804473615714 0.3025566069287823
0.8858361281745657 0.5168373714082973 0.3107098332179806
0.10189822520038226 0.615882698349401 0.1756912369939467
0.019290341929801655 0.6988752027313446 0.17742361728808242
-0.02252307355039112 0.5828580447361571 0.3025566069287823
0.08583612817456573 0.7168373714082974 0.3107098332179806
0.3018982252003823 0.615882698349401 0.1756912369939467
0.21929034192980168 0.6988752027313446 0.17742361728808242
0.17747692644960888 0.5828580447361571 0.3025566069287823
0.2858361281745658 0.7168373714082974 0.3107098332179806
0.5018982252003823 0.615882698349401 0.1756912369939467
0.41929034192980164 0.6988752027313446 0.17742361728808242
0.3774769264496089 0.5828580447361571 0.3025566069287823
0.4858361281745658 0.7168373714082974 0.3107098332179806
0.7018982252003823 0.615882698349401 0.1756912369939467
0.6192903419298017 0.6988752027313446 0.17742361728808242
0.5774769264496089 0.5828580447361571 0.3025566069287823
0.6858361281745657 0.7168373714082974 0.3107098332179806
0.9018982252003824 0.615882698349401 0.1756912369939467
0.8192903419298017 0.6988752027313446 0.17742361728808242
0.777476926449609 0.5828580447361571 0.3025566069287823
0.8858361281745657 0.7168373714082974 0.3107098332179806
0.10189822520038226 0.8158826983494012 0.1756912369939467
0.019290341929801655 0.8988752027313446 0.17742361728808242
-0.02252307355039112 0.782858044736157 0.3025566069287823
0.08583612817456573 0.9168373714082974 0.3107098332179806
0.3018982252003823 0.8158826983494012 0.1756912369939467
0.21929034192980168 0.8988752027313446 0.17742361728808242
0.17747692644960888 0.782858044736157 0.3025566069287823
0.2858361281745658 0.9168373714082974 0.3107098332179806
0.5018982252003823 0.8158826983494012 0.1756912369939467
0.41929034192980164 0.8988752027313446 0.17742361728808242
0.3774769264496089 0.782858044736157 0.3025566069287823
0.4858361281745658 0.9168373714082974 0.3107098332179806
0.7018982252003823 0.8158826983494012 0.1756912369939467
0.6192903419298017 0.8988752027313446 0.17742361728808242
0.5774769264496089 0.782858044736157 0.3025566069287823
0.6858361281745657 0.9168373714082974 0.3107098332179806
0.9018982252003824 0.8158826983494012 0.1756912369939467
0.8192903419298017 0.8988752027313446 0.17742361728808242
0.777476926449609 0.782858044736157 0.3025566069287823
0.8858361281745657 0.9168373714082974 0.3107098332179806
0.10189822520038226 0.015882698349401057 0.3756912369939467
0.019290341929801655 0.09887520273134452 0.3774236172880825
-0.02252307355039112 -0.017141955263842917 0.5025566069287823
0.08583612817456573 0.11683737140829734 0.5107098332179806
0.3018982252003823 0.015882698349401057 0.3756912369939467
0.21929034192980168 0.09887520273134452 0.3774236172880825
0.17747692644960888 -0.017141955263842917 0.5025566069287823
0.2858361281745658 0.11683737140829734 0.5107098332179806
0.5018982252003823 0.015882698349401057 0.3756912369939467
0.41929034192980164 0.09887520273134452 0.3774236172880825
0.3774769264496089 -0.017141955263842917 0.5025566069287823
0.4858361281745658 0.11683737140829734 0.5107098332179806
0.7018982252003823 0.015882698349401057 0.3756912369939467
0.6192903419298017 0.09887520273134452 0.3774236172880825
0.5774769264496089 -0.017141955263842917 0.5025566069287823
0.6858361281745657 0.11683737140829734 0.5107098332179806
0.9018982252003824 0.015882698349401057 0.3756912369939467
0.8192903419298017 0.09887520273134452 0.3774236172880825
0.777476926449609 -0.017141955263842917 0.5025566069287823
0.8858361281745657 0.11683737140829734 0.5107098332179806
0.10189822520038226 0.21588269834940108 0.3756912369939467
0.019290341929801655 0.29887520273134455 0.3774236172880825
-0.02252307355039112 0.18285804473615708 0.5025566069287823
0.08583612817456573 0.3168373714082973 0.5107098332179806
0.3018982252003823 0.21588269834940108 0.3756912369939467
0.21929034192980168 0.29887520273134455 0.3774236172880825
0.17747692644960888 0.18285804473615708 0.5025566069287823
0.2858361281745658 0.3168373714082973 0.5107098332179806
0.5018982252003823 0.21588269834940108 0.3756912369939467
0.41929034192980164 0.29887520273134455 0.3774236172880825
0.3774769264496089 0.18285804473615708 0.5025566069287823
0.4858361281745658 0.3168373714082973 0.5107098332179806
0.7018982252003823 0.21588269834940108 0.3756912369939467
0.6192903419298017 0.29887520273134455 0.3774236172880825
0.5774769264496089 0.18285804473615708 0.5025566069287823
0.6858361281745657 0.3168373714082973 0.5107098332179806
0.9018982252003824 0.21588269834940108 0.3756912369939467
0.8192903419298017 0.29887520273134455 0.3774236172880825
0.777476926449609 0.18285804473615708 0.5025566069287823
0.8858361281745657 0.3168373714082973 0.5107098332179806
0.10189822520038226 0.41588269834940106 0.3756912369939467
0.019290341929801655 0.49887520273134456 0.3774236172880825
-0.02252307355039112 0.38285804473615714 0.5025566069287823
0.08583612817456573 0.5168373714082973 0.5107098332179806
0.3018982252003823 0.41588269834940106 0.3756912369939467
0.21929034192980168 0.49887520273134456 0.3774236172880825
0.17747692644960888 0.38285804473615714 0.5025566069287823
0.2858361281745658 0.5168373714082973 0.5107098332179806
0.5018982252003823 0.41588269834940106 0.3756912369939467
0.41929034192980164 0.49887520273134456 0.3774236172880825
0.3774769264496089 0.38285804473615714 0.5025566069287823
0.4858361281745658 0.5168373714082973 0.5107098332179806
0.7018982252003823 0.41588269834940106 0.3756912369939467
0.6192903419298017 0.49887520273134456 0.3774236172880825
0.5774769264496089 0.38285804473615714 0.5025566069287823
0.6858361281745657 0.5168373714082973 0.5107098332179806
0.9018982252003824 0.41588269834940106 0.3756912369939467
0.8192903419298017 0.49887520273134456 0.3774236172880825
0.777476926449609 0.38285804473615714 0.5025566069287823
0.8858361281745657 0.5168373714082973 0.5107098332179806
0.10189822520038226 0.615882698349401 0.3756912369939467
0.019290341929801655 0.6988752027313446 0.3774236172880825
-0.02252307355039112 0.5828580447361571 0.5025566069287823
0.08583612817456573 0.7168373714082974 0.5107098332179806
0.3018982252003823 0.615882698349401 0.3756912369939467
0.21929034192980168 0.6988752027313446 0.3774236172880825
0.17747692644960888 0.5828580447361571 0.5025566069287823
0.2858361281745658 0.7168373714082974 0.5107098332179806
0.5018982252003823 0.615882698349401 0.3756912369939467
0.41929034192980164 0.6988752027313446 0.3774236172880825
0.3774769264496089 0.5828580447361571 0.5025566069287823
0.4858361281745658 0.7168373714082974 0.5107098332179806
0.7018982252003823 0.615882698349401 0.3756912369939467
0.6192903419298017 0.6988752027313446 0.3774236172880825
0.5774769264496089 0.5828580447361571 0.5025566069287823
0.6858361281745657 0.7168373714082974 0.5107098332179806
0.9018982252003824 0.615882698349401 0.3756912369939467
0.8192903419298017 0.6988752027313446 0.3774236172880825
0.777476926449609 0.5828580447361571 0.5025566069287823
0.8858361281745657 0.7168373714082974 0.5107098332179806
0.10189822520038226 0.8158826983494012 0.3756912369939467
0.019290341929801655 0.8988752027313446 0.3774236172880825
-0.02252307355039112 0.782858044736157 0.5025566069287823
0.08583612817456573 0.9168373714082974 0.5107098332179806
0.3018982252003823 0.8158826983494012 0.3756912369939467
0.21929034192980168 0.8988752027313446 0.3774236172880825
0.17747692644960888 0.782858044736157 0.5025566069287823
0.2858361281745658 0.9168373714082974 0.5107098332179806
0.5018982252003823 0.8158826983494012 0.3756912369939467
0.41929034192980164 0.8988752027313446 0.3774236172880825
0.3774769264496089 0.782858044736157 0.5025566069287823
0.4858361281745658 0.9168373714082974 0.5107098332179806
0.7018982252003823 0.8158826983494012 0.3756912369939467
0.6192903419298017 0.8988752027313446 0.3774236172880825
0.5774769264496089 0.782858044736157 0.5025566069287823
0.6858361281745657 0.9168373714082974 0.5107098332179806
0.9018982252003824 0.8158826983494012 0.3756912369939467
0.8192903419298017 0.8988752027313446 0.3774236172880825
0.777476926449609 0.782858044736157 0.5025566069287823
0.8858361281745657 0.9168373714082974 0.5107098332179806
0.10189822520038226 0.015882698349401057 0.5756912369939468
0.019290341929801655 0.09887520273134452 0.5774236172880824
-0.02252307355039112 -0.017141955263842917 0.7025566069287823
0.08583612817456573 0.11683737140829734 0.7107098332179806
0.3018982252003823 0.015882698349401057 0.5756912369939468
0.21929034192980168 0.09887520273134452 0.5774236172880824
0.17747692644960888 -0.017141955263842917 0.7025566069287823
0.2858361281745658 0.11683737140829734 0.7107098332179806
0.5018982252003823 0.015882698349401057 0.5756912369939468
0.41929034192980164 0.09887520273134452 0.5774236172880824
0.3774769264496089 -0.017141955263842917 0.7025566069287823
0.4858361281745658 0.11683737140829734 0.7107098332179806
0.7018982252003823 0.015882698349401057 0.5756912369939468
0.6192903419298017 0.09887520273134452 0.5774236172880824
0.5774769264496089 -0.017141955263842917 0.7025566069287823
0.6858361281745657 0.11683737140829734 0.7107098332179806
0.9018982252003824 0.015882698349401057 0.5756912369939468
0.8192903419298017 0.09887520273134452 0.5774236172880824
0.777476926449609 -0.017141955263842917 0.7025566069287823
0.8858361281745657 0.11683737140829734 0.7107098332179806
0.10189822520038226 0.21588269834940108 0.5756912369939468
0.019290341929801655 0.29887520273134455 0.5774236172880824
-0.02252307355039112 0.18285804473615708 0.7025566069287823
0.08583612817456573 0.3168373714082973 0.7107098332179806
0.3018982252003823 0.21588269834940108 0.5756912369939468
0.21929034192980168 0.29887520273134455 0.5774236172880824
0.17747692644960888 0.18285804473615708 0.7025566069287823
0.2858361281745658 0.3168373714082973 0.7107098332179806
0.5018982252003823 0.21588269834940108 0.5756912369939468
0.41929034192980164 0.29887520273134455 0.5774236172880824
0.3774769264496089 0.18285804473615708 0.7025566069287823
0.4858361281745658 0.3168373714082973 0.7107098332179806
0.7018982252003823 0.21588269834940108 0.5756912369939468
0.6192903419298017 0.29887520273134455 0.5774236172880824
0.5774769264496089 0.18285804473615708 0.7025566069287823
0.6858361281745657 0.3168373714082973 0.7107098332179806
0.9018982252003824 0.21588269834940108 0.5756912369939468
0.8192903419298017 0.29887520273134455 0.5774236172880824
0.777476926449609 0.18285804473615708 0.7025566069287823
0.8858361281745657 0.3168373714082973 0.7107098332179806
0.10189822520038226 0.41588269834940106 0.5756912369939468
0.019290341929801655 0.49887520273134456 0.5774236172880824
-0.02252307355039112 0.38285804473615714 0.7025566069287823
0.08583612817456573 0.5168373714082973 0.7107098332179806
0.3018982252003823 0.41588269834940106 0.5756912369939468
0.21929034192980168 0.49887520273134456 0.5774236172880824
0.17747692644960888 0.38285804473615714 0.7025566069287823
0.2858361281745658 0.5168373714082973 0.7107098332179806
0.5018982252003823 0.41588269834940106 0.5756912369939468
0.41929034192980164 0.49887520273134456 0.5774236172880824
0.3774769264496089 0.38285804473615714 0.7025566069287823
0.4858361281745658 0.5168373714082973 0.7107098332179806
0.7018982252003823 0.41588269834940106 0.5756912369939468
0.6192903419298017 0.49887520273134456 0.5774236172880824
0.5774769264496089 0.38285804473615714 0.7025566069287823
0.6858361281745657 0.5168373714082973 0.7107098332179806
0.9018982252003824 0.41588269834940106 0.5756912369939468
0.8192903419298017 0.49887520273134456 0.5774236172880824
0.777476926449609 0.38285804473615714 0.7025566069287823
0.8858361281745657 0.5168373714082973 0.7107098332179806
0.10189822520038226 0.615882698349401 0.5756912369939468
0.019290341929801655 0.6988752027313446 0.5774236172880824
-0.02252307355039112 0.5828580447361571 0.7025566069287823
0.08583612817456573 0.7168373714082974 0.7107098332179806
0.3018982252003823 0.615882698349401 0.5756912369939468
0.21929034192980168 0.6988752027313446 0.5774236172880824
0.17747692644960888 0.5828580447361571 0.7025566069287823
0.2858361281745658 0.7168373714082974 0.7107098332179806
0.5018982252003823 0.615882698349401 0.5756912369939468
0.41929034192980164 0.6988752027313446 0.5774236172880824
0.3774769264496089 0.5828580447361571 0.7025566069287823
0.4858361281745658 0.7168373714082974 0.7107098332179806
0.7018982252003823 0.615882698349401 0.5756912369939468
0.6192903419298017 0.6988752027313446 0.5774236172880824
0.5774769264496089 0.5828580447361571 0.7025566069287823
0.6858361281745657 0.7168373714082974 0.7107098332179806
0.9018982252003824 0.615882698349401 0.5756912369939468
0.8192903419298017 0.6988752027313446 0.5774236172880824
0.777476926449609 0.5828580447361571 0.7025566069287823
0.8858361281745657 0.7168373714082974 0.7107098332179806
0.10189822520038226 0.8158826983494012 0.5756912369939468
0.019290341929801655 0.8988752027313446 0.5774236172880824
-0.02252307355039112 0.782858044736157 0.7025566069287823
0.08583612817456573 0.9168373714082974 0.7107098332179806
0.3018982252003823 0.8158826983494012 0.5756912369939468
0.21929034192980168 0.8988752027313446 0.5774236172880824
0.17747692644960888 0.782858044736157 0.7025566069287823
0.2858361281745658 0.9168373714082974 0.7107098332179806
0.5018982252003823 0.8158826983494012 0.5756912369939468
0.41929034192980164 0.8988752027313446 0.5774236172880824
0.3774769264496089 0.782858044736157 0.7025566069287823
0.4858361281745658 0.9168373714082974 0.7107098332179806
0.7018982252003823 0.8158826983494012 0.5756912369939468
0.6192903419298017 0.8988752027313446 0.5774236172880824
0.5774769264496089 0.782858044736157 0.7025566069287823
0.6858361281745657 0.9168373714082974 0.7107098332179806
0.9018982252003824 0.8158826983494012 0.5756912369939468
0.8192903419298017 0.8988752027313446 0.5774236172880824
0.777476926449609 0.782858044736157 0.7025566069287823
0.8858361281745657 0.9168373714082974 0.7107098332179806
0.10189822520038226 0.015882698349401057 0.7756912369939468
0.019290341929801655 0.09887520273134452 0.7774236172880825
-0.02252307355039112 -0.017141955263842917 0.9025566069287824
0.08583612817456573 0.11683737140829734 0.9107098332179806
0.3018982252003823 0.015882698349401057 0.7756912369939468
0.21929034192980168 0.09887520273134452 0.7774236172880825
0.17747692644960888 -0.017141955263842917 0.9025566069287824
0.2858361281745658 0.11683737140829734 0.9107098332179806
0.5018982252003823 0.015882698349401057 0.7756912369939468
0.41929034192980164 0.09887520273134452 0.7774236172880825
0.3774769264496089 -0.017141955263842917 0.9025566069287824
0.4858361281745658 0.11683737140829734 0.9107098332179806
0.7018982252003823 0.015882698349401057 0.7756912369939468
0.6192903419298017 0.09887520273134452 0.7774236172880825
0.5774769264496089 -0.017141955263842917 0.9025566069287824
0.6858361281745657 0.11683737140829734 0.9107098332179806
0.9018982252003824 0.015882698349401057 0.7756912369939468
0.8192903419298017 0.09887520273134452 0.7774236172880825
0.777476926449609 -0.017141955263842917 0.9025566069287824
0.8858361281745657 0.11683737140829734 0.9107098332179806
0.10189822520038226 0.21588269834940108 0.7756912369939468
0.019290341929801655 0.29887520273134455 0.7774236172880825
-0.02252307355039112 0.18285804473615708 0.9025566069287824
0.08583612817456573 0.3168373714082973 0.9107098332179806
0.3018982252003823 0.21588269834940108 0.7756912369939468
0.21929034192980168 0.29887520273134455 0.7774236172880825
0.17747692644960888 0.18285804473615708 0.9025566069287824
0.2858361281745658 0.3168373714082973 0.9107098332179806
0.5018982252003823 0.21588269834940108 0.7756912369939468
0.41929034192980164 0.29887520273134455 0.7774236172880825
0.3774769264496089 0.18285804473615708 0.9025566069287824
0.4858361281745658 0.3168373714082973 0.9107098332179806
0.7018982252003823 0.21588269834940108 0.7756912369939468
0.6192903419298017 0.29887520273134455 0.7774236172880825
0.5774769264496089 0.18285804473615708 0.9025566069287824
0.6858361281745657 0.3168373714082973 0.9107098332179806
0.9018982252003824 0.21588269834940108 0.7756912369939468
0.8192903419298017 0.29887520273134455 0.7774236172880825
0.777476926449609 0.18285804473615708 0.9025566069287824
0.8858361281745657 0.3168373714082973 0.9107098332179806
0.10189822520038226 0.41588269834940106 0.7756912369939468
0.019290341929801655 0.49887520273134456 0.7774236172880825
-0.02252307355039112 0.38285804473615714 0.9025566069287824
0.08583612817456573 0.5168373714082973 0.9107098332179806
0.3018982252003823 0.41588269834940106 0.7756912369939468
0.21929034192980168 0.49887520273134456 0.7774236172880825
0.17747692644960888 0.38285804473615714 0.9025566069287824
0.2858361281745658 0.5168373714082973 0.9107098332179806
0.5018982252003823 0.41588269834940106 0.7756912369939468
0.41929034192980164 0.49887520273134456 0.7774236172880825
0.3774769264496089 0.38285804473615714 0.9025566069287824
0.4858361281745658 0.5168373714082973 0.9107098332179806
0.7018982252003823 0.41588269834940106 0.7756912369939468
0.6192903419298017 0.49887520273134456 0.7774236172880825
0.5774769264496089 0.38285804473615714 0.9025566069287824
0.6858361281745657 0.5168373714082973 0.9107098332179806
0.9018982252003824 0.41588269834940106 0.7756912369939468
0.8192903419298017 0.49887520273134456 0.7774236172880825
0.777476926449609 0.38285804473615714 0.9025566069287824
0.8858361281745657 0.5168373714082973 0.9107098332179806
0.10189822520038226 0.615882698349401 0.7756912369939468
0.019290341929801655 0.6988752027313446 0.7774236172880825
-0.02252307355039112 0.5828580447361571 0.9025566069287824
0.08583612817456573 0.7168373714082974 0.9107098332179806
0.3018982252003823 0.615882698349401 0.7756912369939468
0.21929034192980168 0.6988752027313446 0.7774236172880825
0.17747692644960888 0.5828580447361571 0.9025566069287824
0.2858361281745658 0.7168373714082974 0.9107098332179806
0.5018982252003823 0.615882698349401 0.7756912369939468
0.41929034192980164 0.6988752027313446 0.7774236172880825
0.3774769264496089 0.5828580447361571 0.9025566069287824
0.4858361281745658 0.7168373714082974 0.9107098332179806
0.7018982252003823 0.615882698349401 0.7756912369939468
0.6192903419298017 0.6988752027313446 0.7774236172880825
0.5774769264496089 0.5828580447361571 0.9025566069287824
0.6858361281745657 0.7168373714082974 0.9107098332179806
0.9018982252003824 0.615882698349401 0.7756912369939468
0.8192903419298017 0.6988752027313446 0.7774236172880825
0.777476926449609 0.5828580447361571 0.9025566069287824
0.8858361281745657 0.7168373714082974 0.9107098332179806
0.10189822520038226 0.8158826983494012 0.7756912369939468
0.019290341929801655 0.8988752027313446 0.7774236172880825
-0.02252307355039112 0.782858044736157 0.9025566069287824
0.08583612817456573 0.9168373714082974 0.9107098332179806
0.3018982252003823 0.8158826983494012 0.7756912369939468
0.21929034192980168 0.8988752027313446 0.7774236172880825
0.17747692644960888 0.782858044736157 0.9025566069287824
0.2858361281745658 0.9168373714082974 0.9107098332179806
0.5018982252003823 0.8158826983494012 0.7756912369939468
0.41929034192980164 0.8988752027313446 0.7774236172880825
0.3774769264496089 0.782858044736157 0.9025566069287824
0.4858361281745658 0.9168373714082974 0.9107098332179806
0.7018982252003823 0.8158826983494012 0.7756912369939468
0.6192903419298017 0.8988752027313446 0.7774236172880825
0.5774769264496089 0.782858044736157 0.9025566069287824
0.6858361281745657 0.9168373714082974 0.9107098332179806
0.9018982252003824 0.8158826983494012 0.7756912369939468
0.8192903419298017 0.8988752027313446 0.7774236172880825
0.777476926449609 0.782858044736157 0.9025566069287824
0.8858361281745657 0.9168373714082974 0.9107098332179806
