FCC BaO
3.971
5.0 0.0 0.0
0.0 5.0 0.0
0.0 0.0 5.0
Ba O 
500 500 
Direct
0.005904797508767331 0.016341559246246116 -0.005933850557124441
-0.025895683030892104 0.08192702862731487 0.07704759062846701
0.1065022103383952 -0.0009197358205924688 0.1096701840432402
0.09246863575697883 0.08170322957785303 0.01610851515868815
0.20590479750876733 0.016341559246246116 -0.005933850557124441
0.1741043169691079 0.08192702862731487 0.07704759062846701
0.3065022103383952 -0.0009197358205924688 0.1096701840432402
0.29246863575697885 0.08170322957785303 0.01610851515868815
0.40590479750876735 0.016341559246246116 -0.005933850557124441
0.3741043169691079 0.08192702862731487 0.07704759062846701
0.5065022103383953 -0.0009197358205924688 0.1096701840432402
0.49246863575697886 0.08170322957785303 0.01610851515868815
0.6059047975087674 0.016341559246246116 -0.005933850557124441
0.5741043169691079 0.08192702862731487 0.07704759062846701
0.7065022103383952 -0.0009197358205924688 0.1096701840432402
0.6924686357569789 0.08170322957785303 0.01610851515868815
0.8059047975087673 0.016341559246246116 -0.005933850557124441
0.774104316969108 0.08192702862731487 0.07704759062846701
0.9065022103383953 -0.0009197358205924688 0.1096701840432402
0.8924686357569789 0.08170322957785303 0.01610851515868815
0.005904797508767331 0.2163415592462461 -0.005933850557124441
-0.025895683030892104 0.2819270286273149 0.07704759062846701
0.1065022103383952 0.19908026417940755 0.1096701840432402
0.09246863575697883 0.28170322957785304 0.01610851515868815
0.20590479750876733 0.2163415592462461 -0.005933850557124441
0.1741043169691079 0.2819270286273149 0.07704759062846701
0.3065022103383952 0.19908026417940755 0.1096701840432402
0.29246863575697885 0.28170322957785304 0.01610851515868815
0.40590479750876735 0.2163415592462461 -0.005933850557124441
0.3741043169691079 0.2819270286273149 0.07704759062846701
0.5065022103383953 0.19908026417940755 0.1096701840432402
0.49246863575697886 0.28170322957785304 0.01610851515868815
0.6059047975087674 0.2163415592462461 -0.005933850557124441
0.5741043169691079 0.2819270286273149 0.07704759062846701
0.7065022103383952 0.19908026417940755 0.1096701840432402
0.6924686357569789 0.28170322957785304 0.01610851515868815
0.8059047975087673 0.2163415592462461 -0.005933850557124441
0.774104316969108 0.2819270286273149 0.07704759062846701
0.9065022103383953 0.19908026417940755 0.1096701840432402
0.8924686357569789 0.28170322957785304 0.01610851515868815
0.005904797508767331 0.4163415592462461 -0.005933850557124441
-0.025895683030892104 0.4819270286273149 0.07704759062846701
0.1065022103383952 0.39908026417940756 0.1096701840432402
0.09246863575697883 0.481703229577853 0.01610851515868815
0.20590479750876733 0.4163415592462461 -0.005933850557124441
0.1741043169691079 0.4819270286273149 0.07704759062846701
0.3065022103383952 0.39908026417940756 0.1096701840432402
0.29246863575697885 0.481703229577853 0.01610851515868815
0.40590479750876735 0.4163415592462461 -0.005933850557124441
0.3741043169691079 0.4819270286273149 0.07704759062846701
0.5065022103383953 0.39908026417940756 0.1096701840432402
0.49246863575697886 0.481703229577853 0.01610851515868815
0.6059047975087674 0.4163415592462461 -0.005933850557124441
0.5741043169691079 0.4819270286273149 0.07704759062846701
0.7065022103383952 0.39908026417940756 0.1096701840432402
0.6924686357569789 0.481703229577853 0.01610851515868815
0.8059047975087673 0.4163415592462461 -0.005933850557124441
0.774104316969108 0.4819270286273149 0.07704759062846701
0.9065022103383953 0.39908026417940756 0.1096701840432402
0.8924686357569789 0.481703229577853 0.01610851515868815
0.005904797508767331 0.6163415592462461 -0.005933850557124441
-0.025895683030892104 0.6819270286273149 0.07704759062846701
0.1065022103383952 0.5990802641794075 0.1096701840432402
0.09246863575697883 0.681703229577853 0.01610851515868815
0.20590479750876733 0.6163415592462461 -0.005933850557124441
0.1741043169691079 0.6819270286273149 0.07704759062846701
0.3065022103383952 0.5990802641794075 0.1096701840432402
0.29246863575697885 0.681703229577853 0.01610851515868815
0.40590479750876735 0.6163415592462461 -0.005933850557124441
0.3741043169691079 0.6819270286273149 0.07704759062846701
0.5065022103383953 0.5990802641794075 0.1096701840432402
0.49246863575697886 0.681703229577853 0.01610851515868815
0.6059047975087674 0.6163415592462461 -0.005933850557124441
0.5741043169691079 0.6819270286273149 0.07704759062846701
0.7065022103383952 0.5990802641794075 0.1096701840432402
0.6924686357569789 0.681703229577853 0.01610851515868815
0.8059047975087673 0.6163415592462461 -0.005933850557124441
0.774104316969108 0.6819270286273149 0.07704759062846701
0.9065022103383953 0.5990802641794075 0.1096701840432402
0.8924686357569789 0.681703229577853 0.01610851515868815
0.005904797508767331 0.8163415592462462 -0.005933850557124441
-0.025895683030892104 0.8819270286273149 0.07704759062846701
0.1065022103383952 0.7990802641794076 0.1096701840432402
0.09246863575697883 0.8817032295778531 0.01610851515868815
0.20590479750876733 0.8163415592462462 -0.005933850557124441
0.1741043169691079 0.8819270286273149 0.07704759062846701
0.3065022103383952 0.7990802641794076 0.1096701840432402
0.29246863575697885 0.8817032295778531 0.01610851515868815
0.40590479750876735 0.8163415592462462 -0.005933850557124441
0.3741043169691079 0.8819270286273149 0.07704759062846701
0.5065022103383953 0.7990802641794076 0.1096701840432402
0.49246863575697886 0.8817032295778531 0.01610851515868815
0.6059047975087674 0.8163415592462462 -0.005933850557124441
0.5741043169691079 0.8819270286273149 0.07704759062846701
0.7065022103383952 0.7990802641794076 0.1096701840432402
0.6924686357569789 0.8817032295778531 0.01610851515868815
0.8059047975087673 0.8163415592462462 -0.005933850557124441
0.774104316969108 0.8819270286273149 0.07704759062846701
0.9065022103383953 0.7990802641794076 0.1096701840432402
0.8924686357569789 0.8817032295778531 0.01610851515868815
0.005904797508767331 0.016341559246246116 0.1940661494428756
-0.025895683030892104 0.08192702862731487 0.277047590628467
0.1065022103383952 -0.0009197358205924688 0.3096701840432402
0.09246863575697883 0.08170322957785303 0.21610851515868817
0.20590479750876733 0.016341559246246116 0.1940661494428756
0.1741043169691079 0.08192702862731487 0.277047590628467
0.3065022103383952 -0.0009197358205924688 0.3096701840432402
0.29246863575697885 0.08170322957785303 0.21610851515868817
0.40590479750876735 0.016341559246246116 0.1940661494428756
0.3741043169691079 0.08192702862731487 0.277047590628467
0.5065022103383953 -0.0009197358205924688 0.3096701840432402
0.49246863575697886 0.08170322957785303 0.21610851515868817
0.6059047975087674 0.016341559246246116 0.1940661494428756
0.5741043169691079 0.08192702862731487 0.277047590628467
0.7065022103383952 -0.0009197358205924688 0.3096701840432402
0.6924686357569789 0.08170322957785303 0.21610851515868817
0.8059047975087673 0.016341559246246116 0.1940661494428756
0.774104316969108 0.08192702862731487 0.277047590628467
0.9065022103383953 -0.0009197358205924688 0.3096701840432402
0.8924686357569789 0.08170322957785303 0.21610851515868817
0.005904797508767331 0.2163415592462461 0.1940661494428756
-0.025895683030892104 0.2819270286273149 0.277047590628467
0.1065022103383952 0.19908026417940755 0.3096701840432402
0.09246863575697883 0.28170322957785304 0.21610851515868817
0.20590479750876733 0.2163415592462461 0.1940661494428756
0.1741043169691079 0.2819270286273149 0.277047590628467
0.3065022103383952 0.19908026417940755 0.3096701840432402
0.29246863575697885 0.28170322957785304 0.21610851515868817
0.40590479750876735 0.2163415592462461 0.1940661494428756
0.3741043169691079 0.2819270286273149 0.277047590628467
0.5065022103383953 0.19908026417940755 0.3096701840432402
0.49246863575697886 0.28170322957785304 0.21610851515868817
0.6059047975087674 0.2163415592462461 0.1940661494428756
0.5741043169691079 0.2819270286273149 0.277047590628467
0.7065022103383952 0.19908026417940755 0.3096701840432402
0.6924686357569789 0.28170322957785304 0.21610851515868817
0.8059047975087673 0.2163415592462461 0.1940661494428756
0.774104316969108 0.2819270286273149 0.277047590628467
0.9065022103383953 0.19908026417940755 0.3096701840432402
0.8924686357569789 0.28170322957785304 0.21610851515868817
0.005904797508767331 0.4163415592462461 0.1940661494428756
-0.025895683030892104 0.4819270286273149 0.277047590628467
0.1065022103383952 0.39908026417940756 0.3096701840432402
0.09246863575697883 0.481703229577853 0.21610851515868817
0.20590479750876733 0.4163415592462461 0.1940661494428756
0.1741043169691079 0.4819270286273149 0.277047590628467
0.3065022103383952 0.39908026417940756 0.3096701840432402
0.29246863575697885 0.481703229577853 0.21610851515868817
0.40590479750876735 0.4163415592462461 0.1940661494428756
0.3741043169691079 0.4819270286273149 0.277047590628467
0.5065022103383953 0.39908026417940756 0.3096701840432402
0.49246863575697886 0.481703229577853 0.21610851515868817
0.6059047975087674 0.4163415592462461 0.1940661494428756
0.5741043169691079 0.4819270286273149 0.277047590628467
0.7065022103383952 0.39908026417940756 0.3096701840432402
0.6924686357569789 0.481703229577853 0.21610851515868817
0.8059047975087673 0.4163415592462461 0.1940661494428756
0.774104316969108 0.4819270286273149 0.277047590628467
0.9065022103383953 0.39908026417940756 0.3096701840432402
0.8924686357569789 0.481703229577853 0.21610851515868817
0.005904797508767331 0.6163415592462461 0.1940661494428756
-0.025895683030892104 0.6819270286273149 0.277047590628467
0.1065022103383952 0.5990802641794075 0.3096701840432402
0.09246863575697883 0.681703229577853 0.21610851515868817
0.20590479750876733 0.6163415592462461 0.1940661494428756
0.1741043169691079 0.6819270286273149 0.277047590628467
0.3065022103383952 0.5990802641794075 0.3096701840432402
0.29246863575697885 0.681703229577853 0.21610851515868817
0.40590479750876735 0.6163415592462461 0.1940661494428756
0.3741043169691079 0.6819270286273149 0.277047590628467
0.5065022103383953 0.5990802641794075 0.3096701840432402
0.49246863575697886 0.681703229577853 0.21610851515868817
0.6059047975087674 0.6163415592462461 0.1940661494428756
0.5741043169691079 0.6819270286273149 0.277047590628467
0.7065022103383952 0.5990802641794075 0.3096701840432402
0.6924686357569789 0.681703229577853 0.21610851515868817
0.8059047975087673 0.6163415592462461 0.1940661494428756
0.774104316969108 0.6819270286273149 0.277047590628467
0.9065022103383953 0.5990802641794075 0.3096701840432402
0.8924686357569789 0.681703229577853 0.21610851515868817
0.005904797508767331 0.8163415592462462 0.1940661494428756
-0.025895683030892104 0.8819270286273149 0.277047590628467
0.1065022103383952 0.7990802641794076 0.3096701840432402
0.09246863575697883 0.8817032295778531 0.21610851515868817
0.20590479750876733 0.8163415592462462 0.1940661494428756
0.1741043169691079 0.8819270286273149 0.277047590628467
0.3065022103383952 0.7990802641794076 0.3096701840432402
0.29246863575697885 0.8817032295778531 0.21610851515868817
0.40590479750876735 0.8163415592462462 0.1940661494428756
0.3741043169691079 0.8819270286273149 0.277047590628467
0.5065022103383953 0.7990802641794076 0.3096701840432402
0.49246863575697886 0.8817032295778531 0.21610851515868817
0.6059047975087674 0.8163415592462462 0.1940661494428756
0.5741043169691079 0.8819270286273149 0.277047590628467
0.7065022103383952 0.7990802641794076 0.3096701840432402
0.6924686357569789 0.8817032295778531 0.21610851515868817
0.8059047975087673 0.8163415592462462 0.1940661494428756
0.774104316969108 0.8819270286273149 0.277047590628467
0.9065022103383953 0.7990802641794076 0.3096701840432402
0.8924686357569789 0.8817032295778531 0.21610851515868817
0.005904797508767331 0.016341559246246116 0.3940661494428756
-0.025895683030892104 0.08192702862731487 0.477047590628467
0.1065022103383952 -0.0009197358205924688 0.5096701840432403
0.09246863575697883 0.08170322957785303 0.4161085151586882
0.20590479750876733 0.016341559246246116 0.3940661494428756
0.1741043169691079 0.08192702862731487 0.477047590628467
0.3065022103383952 -0.0009197358205924688 0.5096701840432403
0.29246863575697885 0.08170322957785303 0.4161085151586882
0.40590479750876735 0.016341559246246116 0.3940661494428756
0.3741043169691079 0.08192702862731487 0.477047590628467
0.5065022103383953 -0.0009197358205924688 0.5096701840432403
0.49246863575697886 0.08170322957785303 0.4161085151586882
0.6059047975087674 0.016341559246246116 0.3940661494428756
0.5741043169691079 0.08192702862731487 0.477047590628467
0.7065022103383952 -0.0009197358205924688 0.5096701840432403
0.6924686357569789 0.08170322957785303 0.4161085151586882
0.8059047975087673 0.016341559246246116 0.3940661494428756
0.774104316969108 0.08192702862731487 0.477047590628467
0.9065022103383953 -0.0009197358205924688 0.5096701840432403
0.8924686357569789 0.08170322957785303 0.4161085151586882
0.005904797508767331 0.2163415592462461 0.3940661494428756
-0.025895683030892104 0.2819270286273149 0.477047590628467
0.1065022103383952 0.19908026417940755 0.5096701840432403
0.09246863575697883 0.28170322957785304 0.4161085151586882
0.20590479750876733 0.2163415592462461 0.3940661494428756
0.1741043169691079 0.2819270286273149 0.477047590628467
0.3065022103383952 0.19908026417940755 0.5096701840432403
0.29246863575697885 0.28170322957785304 0.4161085151586882
0.40590479750876735 0.2163415592462461 0.3940661494428756
0.3741043169691079 0.2819270286273149 0.477047590628467
0.5065022103383953 0.19908026417940755 0.5096701840432403
0.49246863575697886 0.28170322957785304 0.4161085151586882
0.6059047975087674 0.2163415592462461 0.3940661494428756
0.5741043169691079 0.2819270286273149 0.477047590628467
0.7065022103383952 0.19908026417940755 0.5096701840432403
0.6924686357569789 0.28170322957785304 0.4161085151586882
0.8059047975087673 0.2163415592462461 0.3940661494428756
0.774104316969108 0.2819270286273149 0.477047590628467
0.9065022103383953 0.19908026417940755 0.5096701840432403
0.8924686357569789 0.28170322957785304 0.4161085151586882
0.005904797508767331 0.4163415592462461 0.3940661494428756
-0.025895683030892104 0.4819270286273149 0.477047590628467
0.1065022103383952 0.39908026417940756 0.5096701840432403
0.09246863575697883 0.481703229577853 0.4161085151586882
0.20590479750876733 0.4163415592462461 0.3940661494428756
0.1741043169691079 0.4819270286273149 0.477047590628467
0.3065022103383952 0.39908026417940756 0.5096701840432403
0.29246863575697885 0.481703229577853 0.4161085151586882
0.40590479750876735 0.4163415592462461 0.3940661494428756
0.3741043169691079 0.4819270286273149 0.477047590628467
0.5065022103383953 0.39908026417940756 0.5096701840432403
0.49246863575697886 0.481703229577853 0.4161085151586882
0.6059047975087674 0.4163415592462461 0.3940661494428756
0.5741043169691079 0.4819270286273149 0.477047590628467
0.7065022103383952 0.39908026417940756 0.5096701840432403
0.6924686357569789 0.481703229577853 0.4161085151586882
0.8059047975087673 0.4163415592462461 0.3940661494428756
0.774104316969108 0.4819270286273149 0.477047590628467
0.9065022103383953 0.39908026417940756 0.5096701840432403
0.8924686357569789 0.481703229577853 0.4161085151586882
0.005904797508767331 0.6163415592462461 0.3940661494428756
-0.025895683030892104 0.6819270286273149 0.477047590628467
0.1065022103383952 0.5990802641794075 0.5096701840432403
0.09246863575697883 0.681703229577853 0.4161085151586882
0.20590479750876733 0.6163415592462461 0.3940661494428756
0.1741043169691079 0.6819270286273149 0.477047590628467
0.3065022103383952 0.5990802641794075 0.5096701840432403
0.29246863575697885 0.681703229577853 0.4161085151586882
0.40590479750876735 0.6163415592462461 0.3940661494428756
0.3741043169691079 0.6819270286273149 0.477047590628467
0.5065022103383953 0.5990802641794075 0.5096701840432403
0.49246863575697886 0.681703229577853 0.4161085151586882
0.6059047975087674 0.6163415592462461 0.3940661494428756
0.5741043169691079 0.6819270286273149 0.477047590628467
0.7065022103383952 0.5990802641794075 0.5096701840432403
0.6924686357569789 0.681703229577853 0.4161085151586882
0.8059047975087673 0.6163415592462461 0.3940661494428756
0.774104316969108 0.6819270286273149 0.477047590628467
0.9065022103383953 0.5990802641794075 0.5096701840432403
0.8924686357569789 0.681703229577853 0.4161085151586882
0.005904797508767331 0.8163415592462462 0.3940661494428756
-0.025895683030892104 0.8819270286273149 0.477047590628467
0.1065022103383952 0.7990802641794076 0.5096701840432403
0.09246863575697883 0.8817032295778531 0.4161085151586882
0.20590479750876733 0.8163415592462462 0.3940661494428756
0.1741043169691079 0.8819270286273149 0.477047590628467
0.3065022103383952 0.7990802641794076 0.5096701840432403
0.29246863575697885 0.8817032295778531 0.4161085151586882
0.40590479750876735 0.8163415592462462 0.3940661494428756
0.3741043169691079 0.8819270286273149 0.477047590628467
0.5065022103383953 0.7990802641794076 0.5096701840432403
0.49246863575697886 0.8817032295778531 0.4161085151586882
0.6059047975087674 0.8163415592462462 0.3940661494428756
0.5741043169691079 0.8819270286273149 0.477047590628467
0.7065022103383952 0.7990802641794076 0.5096701840432403
0.6924686357569789 0.8817032295778531 0.4161085151586882
0.8059047975087673 0.8163415592462462 0.3940661494428756
0.774104316969108 0.8819270286273149 0.477047590628467
0.9065022103383953 0.7990802641794076 0.5096701840432403
0.8924686357569789 0.8817032295778531 0.4161085151586882
0.005904797508767331 0.016341559246246116 0.5940661494428755
-0.025895683030892104 0.08192702862731487 0.677047590628467
0.1065022103383952 -0.0009197358205924688 0.7096701840432402
0.09246863575697883 0.08170322957785303 0.6161085151586883
0.20590479750876733 0.016341559246246116 0.5940661494428755
0.1741043169691079 0.08192702862731487 0.677047590628467
0.3065022103383952 -0.0009197358205924688 0.7096701840432402
0.29246863575697885 0.08170322957785303 0.6161085151586883
0.40590479750876735 0.016341559246246116 0.5940661494428755
0.3741043169691079 0.08192702862731487 0.677047590628467
0.5065022103383953 -0.0009197358205924688 0.7096701840432402
0.49246863575697886 0.08170322957785303 0.6161085151586883
0.6059047975087674 0.016341559246246116 0.5940661494428755
0.5741043169691079 0.08192702862731487 0.677047590628467
0.7065022103383952 -0.0009197358205924688 0.7096701840432402
0.6924686357569789 0.08170322957785303 0.6161085151586883
0.8059047975087673 0.016341559246246116 0.5940661494428755
0.774104316969108 0.08192702862731487 0.677047590628467
0.9065022103383953 -0.0009197358205924688 0.7096701840432402
0.8924686357569789 0.08170322957785303 0.6161085151586883
0.005904797508767331 0.2163415592462461 0.5940661494428755
-0.025895683030892104 0.2819270286273149 0.677047590628467
0.1065022103383952 0.19908026417940755 0.7096701840432402
0.09246863575697883 0.28170322957785304 0.6161085151586883
0.20590479750876733 0.2163415592462461 0.5940661494428755
0.1741043169691079 0.2819270286273149 0.677047590628467
0.3065022103383952 0.19908026417940755 0.7096701840432402
0.29246863575697885 0.28170322957785304 0.6161085151586883
0.40590479750876735 0.2163415592462461 0.5940661494428755
0.3741043169691079 0.2819270286273149 0.677047590628467
0.5065022103383953 0.19908026417940755 0.7096701840432402
0.49246863575697886 0.28170322957785304 0.6161085151586883
0.6059047975087674 0.2163415592462461 0.5940661494428755
0.5741043169691079 0.2819270286273149 0.677047590628467
0.7065022103383952 0.19908026417940755 0.7096701840432402
0.6924686357569789 0.28170322957785304 0.6161085151586883
0.8059047975087673 0.2163415592462461 0.5940661494428755
0.774104316969108 0.2819270286273149 0.677047590628467
0.9065022103383953 0.19908026417940755 0.7096701840432402
0.8924686357569789 0.28170322957785304 0.6161085151586883
0.005904797508767331 0.4163415592462461 0.5940661494428755
-0.025895683030892104 0.4819270286273149 0.677047590628467
0.1065022103383952 0.39908026417940756 0.7096701840432402
0.09246863575697883 0.481703229577853 0.6161085151586883
0.20590479750876733 0.4163415592462461 0.5940661494428755
0.1741043169691079 0.4819270286273149 0.677047590628467
0.3065022103383952 0.39908026417940756 0.7096701840432402
0.29246863575697885 0.481703229577853 0.6161085151586883
0.40590479750876735 0.4163415592462461 0.5940661494428755
0.3741043169691079 0.4819270286273149 0.677047590628467
0.5065022103383953 0.39908026417940756 0.7096701840432402
0.49246863575697886 0.481703229577853 0.6161085151586883
0.6059047975087674 0.4163415592462461 0.5940661494428755
0.5741043169691079 0.4819270286273149 0.677047590628467
0.7065022103383952 0.39908026417940756 0.7096701840432402
0.6924686357569789 0.481703229577853 0.6161085151586883
0.8059047975087673 0.4163415592462461 0.5940661494428755
0.774104316969108 0.4819270286273149 0.677047590628467
0.9065022103383953 0.39908026417940756 0.7096701840432402
0.8924686357569789 0.481703229577853 0.6161085151586883
0.005904797508767331 0.6163415592462461 0.5940661494428755
-0.025895683030892104 0.6819270286273149 0.677047590628467
0.1065022103383952 0.5990802641794075 0.7096701840432402
0.09246863575697883 0.681703229577853 0.6161085151586883
0.20590479750876733 0.6163415592462461 0.5940661494428755
0.1741043169691079 0.6819270286273149 0.677047590628467
0.3065022103383952 0.5990802641794075 0.7096701840432402
0.29246863575697885 0.681703229577853 0.6161085151586883
0.40590479750876735 0.6163415592462461 0.5940661494428755
0.3741043169691079 0.6819270286273149 0.677047590628467
0.5065022103383953 0.5990802641794075 0.7096701840432402
0.49246863575697886 0.681703229577853 0.6161085151586883
0.6059047975087674 0.6163415592462461 0.5940661494428755
0.5741043169691079 0.6819270286273149 0.677047590628467
0.7065022103383952 0.5990802641794075 0.7096701840432402
0.6924686357569789 0.681703229577853 0.6161085151586883
0.8059047975087673 0.6163415592462461 0.5940661494428755
0.774104316969108 0.6819270286273149 0.677047590628467
0.9065022103383953 0.5990802641794075 0.7096701840432402
0.8924686357569789 0.681703229577853 0.6161085151586883
0.005904797508767331 0.8163415592462462 0.5940661494428755
-0.025895683030892104 0.8819270286273149 0.677047590628467
0.1065022103383952 0.7990802641794076 0.7096701840432402
0.09246863575697883 0.8817032295778531 0.6161085151586883
0.20590479750876733 0.8163415592462462 0.5940661494428755
0.1741043169691079 0.8819270286273149 0.677047590628467
0.3065022103383952 0.7990802641794076 0.7096701840432402
0.29246863575697885 0.8817032295778531 0.6161085151586883
0.40590479750876735 0.8163415592462462 0.5940661494428755
0.3741043169691079 0.8819270286273149 0.677047590628467
0.5065022103383953 0.7990802641794076 0.7096701840432402
0.49246863575697886 0.8817032295778531 0.6161085151586883
0.6059047975087674 0.8163415592462462 0.5940661494428755
0.5741043169691079 0.8819270286273149 0.677047590628467
0.7065022103383952 0.7990802641794076 0.7096701840432402
0.6924686357569789 0.8817032295778531 0.6161085151586883
0.8059047975087673 0.8163415592462462 0.5940661494428755
0.774104316969108 0.8819270286273149 0.677047590628467
0.9065022103383953 0.7990802641794076 0.7096701840432402
0.8924686357569789 0.8817032295778531 0.6161085151586883
0.005904797508767331 0.016341559246246116 0.7940661494428756
-0.025895683030892104 0.08192702862731487 0.877047590628467
0.1065022103383952 -0.0009197358205924688 0.9096701840432403
0.09246863575697883 0.08170322957785303 0.8161085151586882
0.20590479750876733 0.016341559246246116 0.7940661494428756
0.1741043169691079 0.08192702862731487 0.877047590628467
0.3065022103383952 -0.0009197358205924688 0.9096701840432403
0.29246863575697885 0.08170322957785303 0.8161085151586882
0.40590479750876735 0.016341559246246116 0.7940661494428756
0.3741043169691079 0.08192702862731487 0.877047590628467
0.5065022103383953 -0.0009197358205924688 0.9096701840432403
0.49246863575697886 0.08170322957785303 0.8161085151586882
0.6059047975087674 0.016341559246246116 0.7940661494428756
0.5741043169691079 0.08192702862731487 0.877047590628467
0.7065022103383952 -0.0009197358205924688 0.9096701840432403
0.6924686357569789 0.08170322957785303 0.8161085151586882
0.8059047975087673 0.016341559246246116 0.7940661494428756
0.774104316969108 0.08192702862731487 0.877047590628467
0.9065022103383953 -0.0009197358205924688 0.9096701840432403
0.8924686357569789 0.08170322957785303 0.8161085151586882
0.005904797508767331 0.2163415592462461 0.7940661494428756
-0.025895683030892104 0.2819270286273149 0.877047590628467
0.1065022103383952 0.19908026417940755 0.9096701840432403
0.09246863575697883 0.28170322957785304 0.8161085151586882
0.20590479750876733 0.2163415592462461 0.7940661494428756
0.1741043169691079 0.2819270286273149 0.877047590628467
0.3065022103383952 0.19908026417940755 0.9096701840432403
0.29246863575697885 0.28170322957785304 0.8161085151586882
0.40590479750876735 0.2163415592462461 0.7940661494428756
0.3741043169691079 0.2819270286273149 0.877047590628467
0.5065022103383953 0.19908026417940755 0.9096701840432403
0.49246863575697886 0.28170322957785304 0.8161085151586882
0.6059047975087674 0.2163415592462461 0.7940661494428756
0.5741043169691079 0.2819270286273149 0.877047590628467
0.7065022103383952 0.19908026417940755 0.9096701840432403
0.6924686357569789 0.28170322957785304 0.8161085151586882
0.8059047975087673 0.2163415592462461 0.7940661494428756
0.774104316969108 0.2819270286273149 0.877047590628467
0.9065022103383953 0.19908026417940755 0.9096701840432403
0.8924686357569789 0.28170322957785304 0.8161085151586882
0.005904797508767331 0.4163415592462461 0.7940661494428756
-0.025895683030892104 0.4819270286273149 0.877047590628467
0.1065022103383952 0.39908026417940756 0.9096701840432403
0.09246863575697883 0.481703229577853 0.8161085151586882
0.20590479750876733 0.4163415592462461 0.7940661494428756
0.1741043169691079 0.4819270286273149 0.877047590628467
0.3065022103383952 0.39908026417940756 0.9096701840432403
0.29246863575697885 0.481703229577853 0.8161085151586882
0.40590479750876735 0.4163415592462461 0.7940661494428756
0.3741043169691079 0.4819270286273149 0.877047590628467
0.5065022103383953 0.39908026417940756 0.9096701840432403
0.49246863575697886 0.481703229577853 0.8161085151586882
0.6059047975087674 0.4163415592462461 0.7940661494428756
0.5741043169691079 0.4819270286273149 0.877047590628467
0.7065022103383952 0.39908026417940756 0.9096701840432403
0.6924686357569789 0.481703229577853 0.8161085151586882
0.8059047975087673 0.4163415592462461 0.7940661494428756
0.774104316969108 0.4819270286273149 0.877047590628467
0.9065022103383953 0.39908026417940756 0.9096701840432403
0.8924686357569789 0.481703229577853 0.8161085151586882
0.005904797508767331 0.6163415592462461 0.7940661494428756
-0.025895683030892104 0.6819270286273149 0.877047590628467
0.1065022103383952 0.5990802641794075 0.9096701840432403
0.09246863575697883 0.681703229577853 0.8161085151586882
0.20590479750876733 0.6163415592462461 0.7940661494428756
0.1741043169691079 0.6819270286273149 0.877047590628467
0.3065022103383952 0.5990802641794075 0.9096701840432403
0.29246863575697885 0.681703229577853 0.8161085151586882
0.40590479750876735 0.6163415592462461 0.7940661494428756
0.3741043169691079 0.6819270286273149 0.877047590628467
0.5065022103383953 0.5990802641794075 0.9096701840432403
0.49246863575697886 0.681703229577853 0.8161085151586882
0.6059047975087674 0.6163415592462461 0.7940661494428756
0.5741043169691079 0.6819270286273149 0.877047590628467
0.7065022103383952 0.5990802641794075 0.9096701840432403
0.6924686357569789 0.681703229577853 0.8161085151586882
0.8059047975087673 0.6163415592462461 0.7940661494428756
0.774104316969108 0.6819270286273149 0.877047590628467
0.9065022103383953 0.5990802641794075 0.9096701840432403
0.8924686357569789 0.681703229577853 0.8161085151586882
0.005904797508767331 0.8163415592462462 0.7940661494428756
-0.025895683030892104 0.8819270286273149 0.877047590628467
0.1065022103383952 0.7990802641794076 0.9096701840432403
0.09246863575697883 0.8817032295778531 0.8161085151586882
0.20590479750876733 0.8163415592462462 0.7940661494428756
0.1741043169691079 0.8819270286273149 0.877047590628467
0.3065022103383952 0.7990802641794076 0.9096701840432403
0.29246863575697885 0.8817032295778531 0.8161085151586882
0.40590479750876735 0.8163415592462462 0.7940661494428756
0.3741043169691079 0.8819270286273149 0.877047590628467
0.5065022103383953 0.7990802641794076 0.9096701840432403
0.49246863575697886 0.8817032295778531 0.8161085151586882
0.6059047975087674 0.8163415592462462 0.7940661494428756
0.5741043169691079 0.8819270286273149 0.877047590628467
0.7065022103383952 0.7990802641794076 0.9096701840432403
0.6924686357569789 0.8817032295778531 0.8161085151586882
0.8059047975087673 0.8163415592462462 0.7940661494428756
0.774104316969108 0.8819270286273149 0.877047590628467
0.9065022103383953 0.7990802641794076 0.9096701840432403
0.8924686357569789 0.8817032295778531 0.8161085151586882
0.07052644289678665 -0.025060039158875325 -0.02997130084300983
-0.024583106577652836 0.07608483519129802 0.005244332468792019
0.004585519114275623 0.019619124829741277 0.08895466823582947
0.09592802523588648 0.0964814639649845 0.11102696174302423
0.2705264428967867 -0.025060039158875325 -0.02997130084300983
0.17541689342234718 0.07608483519129802 0.005244332468792019
0.20458551911427564 0.019619124829741277 0.08895466823582947
0.29592802523588646 0.0964814639649845 0.11102696174302423
0.47052644289678663 -0.025060039158875325 -0.02997130084300983
0.3754168934223472 0.07608483519129802 0.005244332468792019
0.40458551911427565 0.019619124829741277 0.08895466823582947
0.4959280252358865 0.0964814639649845 0.11102696174302423
0.6705264428967866 -0.025060039158875325 -0.02997130084300983
0.5754168934223473 0.07608483519129802 0.005244332468792019
0.6045855191142757 0.019619124829741277 0.08895466823582947
0.6959280252358866 0.0964814639649845 0.11102696174302423
0.8705264428967867 -0.025060039158875325 -0.02997130084300983
0.7754168934223472 0.07608483519129802 0.005244332468792019
0.8045855191142757 0.019619124829741277 0.08895466823582947
0.8959280252358864 0.0964814639649845 0.11102696174302423
0.07052644289678665 0.17493996084112468 -0.02997130084300983
-0.024583106577652836 0.27608483519129806 0.005244332468792019
0.004585519114275623 0.21961912482974127 0.08895466823582947
0.09592802523588648 0.2964814639649845 0.11102696174302423
0.2705264428967867 0.17493996084112468 -0.02997130084300983
0.17541689342234718 0.27608483519129806 0.005244332468792019
0.20458551911427564 0.21961912482974127 0.08895466823582947
0.29592802523588646 0.2964814639649845 0.11102696174302423
0.47052644289678663 0.17493996084112468 -0.02997130084300983
0.3754168934223472 0.27608483519129806 0.005244332468792019
0.40458551911427565 0.21961912482974127 0.08895466823582947
0.4959280252358865 0.2964814639649845 0.11102696174302423
0.6705264428967866 0.17493996084112468 -0.02997130084300983
0.5754168934223473 0.27608483519129806 0.005244332468792019
0.6045855191142757 0.21961912482974127 0.08895466823582947
0.6959280252358866 0.2964814639649845 0.11102696174302423
0.8705264428967867 0.17493996084112468 -0.02997130084300983
0.7754168934223472 0.27608483519129806 0.005244332468792019
0.8045855191142757 0.21961912482974127 0.08895466823582947
0.8959280252358864 0.2964814639649845 0.11102696174302423
0.07052644289678665 0.3749399608411247 -0.02997130084300983
-0.024583106577652836 0.476084835191298 0.005244332468792019
0.004585519114275623 0.4196191248297413 0.08895466823582947
0.09592802523588648 0.4964814639649845 0.11102696174302423
0.2705264428967867 0.3749399608411247 -0.02997130084300983
0.17541689342234718 0.476084835191298 0.005244332468792019
0.20458551911427564 0.4196191248297413 0.08895466823582947
0.29592802523588646 0.4964814639649845 0.11102696174302423
0.47052644289678663 0.3749399608411247 -0.02997130084300983
0.3754168934223472 0.476084835191298 0.005244332468792019
0.40458551911427565 0.4196191248297413 0.08895466823582947
0.4959280252358865 0.4964814639649845 0.11102696174302423
0.6705264428967866 0.3749399608411247 -0.02997130084300983
0.5754168934223473 0.476084835191298 0.005244332468792019
0.6045855191142757 0.4196191248297413 0.08895466823582947
0.6959280252358866 0.4964814639649845 0.11102696174302423
0.8705264428967867 0.3749399608411247 -0.02997130084300983
0.7754168934223472 0.476084835191298 0.005244332468792019
0.8045855191142757 0.4196191248297413 0.08895466823582947
0.8959280252358864 0.4964814639649845 0.11102696174302423
0.07052644289678665 0.5749399608411248 -0.02997130084300983
-0.024583106577652836 0.676084835191298 0.005244332468792019
0.004585519114275623 0.6196191248297414 0.08895466823582947
0.09592802523588648 0.6964814639649846 0.11102696174302423
0.2705264428967867 0.5749399608411248 -0.02997130084300983
0.17541689342234718 0.676084835191298 0.005244332468792019
0.20458551911427564 0.6196191248297414 0.08895466823582947
0.29592802523588646 0.6964814639649846 0.11102696174302423
0.47052644289678663 0.5749399608411248 -0.02997130084300983
0.3754168934223472 0.676084835191298 0.005244332468792019
0.40458551911427565 0.6196191248297414 0.08895466823582947
0.4959280252358865 0.6964814639649846 0.11102696174302423
0.6705264428967866 0.5749399608411248 -0.02997130084300983
0.5754168934223473 0.676084835191298 0.005244332468792019
0.6045855191142757 0.6196191248297414 0.08895466823582947
0.6959280252358866 0.6964814639649846 0.11102696174302423
0.8705264428967867 0.5749399608411248 -0.02997130084300983
0.7754168934223472 0.676084835191298 0.005244332468792019
0.8045855191142757 0.6196191248297414 0.08895466823582947
0.8959280252358864 0.6964814639649846 0.11102696174302423
0.07052644289678665 0.7749399608411247 -0.02997130084300983
-0.024583106577652836 0.876084835191298 0.005244332468792019
0.004585519114275623 0.8196191248297414 0.08895466823582947
0.09592802523588648 0.8964814639649845 0.11102696174302423
0.2705264428967867 0.7749399608411247 -0.02997130084300983
0.17541689342234718 0.876084835191298 0.005244332468792019
0.20458551911427564 0.8196191248297414 0.08895466823582947
0.29592802523588646 0.8964814639649845 0.11102696174302423
0.47052644289678663 0.7749399608411247 -0.02997130084300983
0.3754168934223472 0.876084835191298 0.005244332468792019
0.40458551911427565 0.8196191248297414 0.08895466823582947
0.4959280252358865 0.8964814639649845 0.11102696174302423
0.6705264428967866 0.7749399608411247 -0.02997130084300983
0.5754168934223473 0.876084835191298 0.005244332468792019
0.6045855191142757 0.8196191248297414 0.08895466823582947
0.6959280252358866 0.8964814639649845 0.11102696174302423
0.8705264428967867 0.7749399608411247 -0.02997130084300983
0.7754168934223472 0.876084835191298 0.005244332468792019
0.8045855191142757 0.8196191248297414 0.08895466823582947
0.8959280252358864 0.8964814639649845 0.11102696174302423
0.07052644289678665 -0.025060039158875325 0.17002869915699018
-0.024583106577652836 0.07608483519129802 0.20524433246879203
0.004585519114275623 0.019619124829741277 0.28895466823582944
0.09592802523588648 0.0964814639649845 0.31102696174302424
0.2705264428967867 -0.025060039158875325 0.17002869915699018
0.17541689342234718 0.07608483519129802 0.20524433246879203
0.20458551911427564 0.019619124829741277 0.28895466823582944
0.29592802523588646 0.0964814639649845 0.31102696174302424
0.47052644289678663 -0.025060039158875325 0.17002869915699018
0.3754168934223472 0.07608483519129802 0.20524433246879203
0.40458551911427565 0.019619124829741277 0.28895466823582944
0.4959280252358865 0.0964814639649845 0.31102696174302424
0.6705264428967866 -0.025060039158875325 0.17002869915699018
0.5754168934223473 0.07608483519129802 0.20524433246879203
0.6045855191142757 0.019619124829741277 0.28895466823582944
0.6959280252358866 0.0964814639649845 0.31102696174302424
0.8705264428967867 -0.025060039158875325 0.17002869915699018
0.7754168934223472 0.07608483519129802 0.20524433246879203
0.8045855191142757 0.019619124829741277 0.28895466823582944
0.8959280252358864 0.0964814639649845 0.31102696174302424
0.07052644289678665 0.17493996084112468 0.17002869915699018
-0.024583106577652836 0.27608483519129806 0.20524433246879203
0.004585519114275623 0.21961912482974127 0.28895466823582944
0.09592802523588648 0.2964814639649845 0.31102696174302424
0.2705264428967867 0.17493996084112468 0.17002869915699018
0.17541689342234718 0.27608483519129806 0.20524433246879203
0.20458551911427564 0.21961912482974127 0.28895466823582944
0.29592802523588646 0.2964814639649845 0.31102696174302424
0.47052644289678663 0.17493996084112468 0.17002869915699018
0.3754168934223472 0.27608483519129806 0.20524433246879203
0.40458551911427565 0.21961912482974127 0.28895466823582944
0.4959280252358865 0.2964814639649845 0.31102696174302424
0.6705264428967866 0.17493996084112468 0.17002869915699018
0.5754168934223473 0.27608483519129806 0.20524433246879203
0.6045855191142757 0.21961912482974127 0.28895466823582944
0.6959280252358866 0.2964814639649845 0.31102696174302424
0.8705264428967867 0.17493996084112468 0.17002869915699018
0.7754168934223472 0.27608483519129806 0.20524433246879203
0.8045855191142757 0.21961912482974127 0.28895466823582944
0.8959280252358864 0.2964814639649845 0.31102696174302424
0.07052644289678665 0.3749399608411247 0.17002869915699018
-0.024583106577652836 0.476084835191298 0.20524433246879203
0.004585519114275623 0.4196191248297413 0.28895466823582944
0.09592802523588648 0.4964814639649845 0.31102696174302424
0.2705264428967867 0.3749399608411247 0.17002869915699018
0.17541689342234718 0.476084835191298 0.20524433246879203
0.20458551911427564 0.4196191248297413 0.28895466823582944
0.29592802523588646 0.4964814639649845 0.31102696174302424
0.47052644289678663 0.3749399608411247 0.17002869915699018
0.3754168934223472 0.476084835191298 0.20524433246879203
0.40458551911427565 0.4196191248297413 0.28895466823582944
0.4959280252358865 0.4964814639649845 0.31102696174302424
0.6705264428967866 0.3749399608411247 0.17002869915699018
0.5754168934223473 0.476084835191298 0.20524433246879203
0.6045855191142757 0.4196191248297413 0.28895466823582944
0.6959280252358866 0.4964814639649845 0.31102696174302424
0.8705264428967867 0.3749399608411247 0.17002869915699018
0.7754168934223472 0.476084835191298 0.20524433246879203
0.8045855191142757 0.4196191248297413 0.28895466823582944
0.8959280252358864 0.4964814639649845 0.31102696174302424
0.07052644289678665 0.5749399608411248 0.17002869915699018
-0.024583106577652836 0.676084835191298 0.20524433246879203
0.004585519114275623 0.6196191248297414 0.28895466823582944
0.09592802523588648 0.6964814639649846 0.31102696174302424
0.2705264428967867 0.5749399608411248 0.17002869915699018
0.17541689342234718 0.676084835191298 0.20524433246879203
0.20458551911427564 0.6196191248297414 0.28895466823582944
0.29592802523588646 0.6964814639649846 0.31102696174302424
0.47052644289678663 0.5749399608411248 0.17002869915699018
0.3754168934223472 0.676084835191298 0.20524433246879203
0.40458551911427565 0.6196191248297414 0.28895466823582944
0.4959280252358865 0.6964814639649846 0.31102696174302424
0.6705264428967866 0.5749399608411248 0.17002869915699018
0.5754168934223473 0.676084835191298 0.20524433246879203
0.6045855191142757 0.6196191248297414 0.28895466823582944
0.6959280252358866 0.6964814639649846 0.31102696174302424
0.8705264428967867 0.5749399608411248 0.17002869915699018
0.7754168934223472 0.676084835191298 0.20524433246879203
0.8045855191142757 0.6196191248297414 0.28895466823582944
0.8959280252358864 0.6964814639649846 0.31102696174302424
0.07052644289678665 0.7749399608411247 0.17002869915699018
-0.024583106577652836 0.876084835191298 0.20524433246879203
0.004585519114275623 0.8196191248297414 0.28895466823582944
0.09592802523588648 0.8964814639649845 0.31102696174302424
0.2705264428967867 0.7749399608411247 0.17002869915699018
0.17541689342234718 0.876084835191298 0.20524433246879203
0.20458551911427564 0.8196191248297414 0.28895466823582944
0.29592802523588646 0.8964814639649845 0.31102696174302424
0.47052644289678663 0.7749399608411247 0.17002869915699018
0.3754168934223472 0.876084835191298 0.20524433246879203
0.40458551911427565 0.8196191248297414 0.28895466823582944
0.4959280252358865 0.8964814639649845 0.31102696174302424
0.6705264428967866 0.7749399608411247 0.17002869915699018
0.5754168934223473 0.876084835191298 0.20524433246879203
0.6045855191142757 0.8196191248297414 0.28895466823582944
0.6959280252358866 0.8964814639649845 0.31102696174302424
0.8705264428967867 0.7749399608411247 0.17002869915699018
0.7754168934223472 0.876084835191298 0.20524433246879203
0.8045855191142757 0.8196191248297414 0.28895466823582944
0.8959280252358864 0.8964814639649845 0.31102696174302424
0.07052644289678665 -0.025060039158875325 0.3700286991569902
-0.024583106577652836 0.07608483519129802 0.40524433246879205
0.004585519114275623 0.019619124829741277 0.48895466823582945
0.09592802523588648 0.0964814639649845 0.5110269617430243
0.2705264428967867 -0.025060039158875325 0.3700286991569902
0.17541689342234718 0.07608483519129802 0.40524433246879205
0.20458551911427564 0.019619124829741277 0.48895466823582945
0.29592802523588646 0.0964814639649845 0.5110269617430243
0.47052644289678663 -0.025060039158875325 0.3700286991569902
0.3754168934223472 0.07608483519129802 0.40524433246879205
0.40458551911427565 0.019619124829741277 0.48895466823582945
0.4959280252358865 0.0964814639649845 0.5110269617430243
0.6705264428967866 -0.025060039158875325 0.3700286991569902
0.5754168934223473 0.07608483519129802 0.40524433246879205
0.6045855191142757 0.019619124829741277 0.48895466823582945
0.6959280252358866 0.0964814639649845 0.5110269617430243
0.8705264428967867 -0.025060039158875325 0.3700286991569902
0.7754168934223472 0.07608483519129802 0.40524433246879205
0.8045855191142757 0.019619124829741277 0.48895466823582945
0.8959280252358864 0.0964814639649845 0.5110269617430243
0.07052644289678665 0.17493996084112468 0.3700286991569902
-0.024583106577652836 0.27608483519129806 0.40524433246879205
0.004585519114275623 0.21961912482974127 0.48895466823582945
0.09592802523588648 0.2964814639649845 0.5110269617430243
0.2705264428967867 0.17493996084112468 0.3700286991569902
0.17541689342234718 0.27608483519129806 0.40524433246879205
0.20458551911427564 0.21961912482974127 0.48895466823582945
0.29592802523588646 0.2964814639649845 0.5110269617430243
0.47052644289678663 0.17493996084112468 0.3700286991569902
0.3754168934223472 0.27608483519129806 0.40524433246879205
0.40458551911427565 0.21961912482974127 0.48895466823582945
0.4959280252358865 0.2964814639649845 0.5110269617430243
0.6705264428967866 0.17493996084112468 0.3700286991569902
0.5754168934223473 0.27608483519129806 0.40524433246879205
0.6045855191142757 0.21961912482974127 0.48895466823582945
0.6959280252358866 0.2964814639649845 0.5110269617430243
0.8705264428967867 0.17493996084112468 0.3700286991569902
0.7754168934223472 0.27608483519129806 0.40524433246879205
0.8045855191142757 0.21961912482974127 0.48895466823582945
0.8959280252358864 0.2964814639649845 0.5110269617430243
0.07052644289678665 0.3749399608411247 0.3700286991569902
-0.024583106577652836 0.476084835191298 0.40524433246879205
0.004585519114275623 0.4196191248297413 0.48895466823582945
0.09592802523588648 0.4964814639649845 0.5110269617430243
0.2705264428967867 0.3749399608411247 0.3700286991569902
0.17541689342234718 0.476084835191298 0.40524433246879205
0.20458551911427564 0.4196191248297413 0.48895466823582945
0.29592802523588646 0.4964814639649845 0.5110269617430243
0.47052644289678663 0.3749399608411247 0.3700286991569902
0.3754168934223472 0.476084835191298 0.40524433246879205
0.40458551911427565 0.4196191248297413 0.48895466823582945
0.4959280252358865 0.4964814639649845 0.5110269617430243
0.6705264428967866 0.3749399608411247 0.3700286991569902
0.5754168934223473 0.476084835191298 0.40524433246879205
0.6045855191142757 0.4196191248297413 0.48895466823582945
0.6959280252358866 0.4964814639649845 0.5110269617430243
0.8705264428967867 0.3749399608411247 0.3700286991569902
0.7754168934223472 0.476084835191298 0.40524433246879205
0.8045855191142757 0.4196191248297413 0.48895466823582945
0.8959280252358864 0.4964814639649845 0.5110269617430243
0.07052644289678665 0.5749399608411248 0.3700286991569902
-0.024583106577652836 0.676084835191298 0.40524433246879205
0.004585519114275623 0.6196191248297414 0.48895466823582945
0.09592802523588648 0.6964814639649846 0.5110269617430243
0.2705264428967867 0.5749399608411248 0.3700286991569902
0.17541689342234718 0.676084835191298 0.40524433246879205
0.20458551911427564 0.6196191248297414 0.48895466823582945
0.29592802523588646 0.6964814639649846 0.5110269617430243
0.47052644289678663 0.5749399608411248 0.3700286991569902
0.3754168934223472 0.676084835191298 0.40524433246879205
0.40458551911427565 0.6196191248297414 0.48895466823582945
0.4959280252358865 0.6964814639649846 0.5110269617430243
0.6705264428967866 0.5749399608411248 0.3700286991569902
0.5754168934223473 0.676084835191298 0.40524433246879205
0.6045855191142757 0.6196191248297414 0.48895466823582945
0.6959280252358866 0.6964814639649846 0.5110269617430243
0.8705264428967867 0.5749399608411248 0.3700286991569902
0.7754168934223472 0.676084835191298 0.40524433246879205
0.8045855191142757 0.6196191248297414 0.48895466823582945
0.8959280252358864 0.6964814639649846 0.5110269617430243
0.07052644289678665 0.7749399608411247 0.3700286991569902
-0.024583106577652836 0.876084835191298 0.40524433246879205
0.004585519114275623 0.8196191248297414 0.48895466823582945
0.09592802523588648 0.8964814639649845 0.5110269617430243
0.2705264428967867 0.7749399608411247 0.3700286991569902
0.17541689342234718 0.876084835191298 0.40524433246879205
0.20458551911427564 0.8196191248297414 0.48895466823582945
0.29592802523588646 0.8964814639649845 0.5110269617430243
0.47052644289678663 0.7749399608411247 0.3700286991569902
0.3754168934223472 0.876084835191298 0.40524433246879205
0.40458551911427565 0.8196191248297414 0.48895466823582945
0.4959280252358865 0.8964814639649845 0.5110269617430243
0.6705264428967866 0.7749399608411247 0.3700286991569902
0.5754168934223473 0.876084835191298 0.40524433246879205
0.6045855191142757 0.8196191248297414 0.48895466823582945
0.6959280252358866 0.8964814639649845 0.5110269617430243
0.8705264428967867 0.7749399608411247 0.3700286991569902
0.7754168934223472 0.876084835191298 0.40524433246879205
0.8045855191142757 0.8196191248297414 0.48895466823582945
0.8959280252358864 0.8964814639649845 0.5110269617430243
0.07052644289678665 -0.025060039158875325 0.5700286991569902
-0.024583106577652836 0.07608483519129802 0.6052443324687921
0.004585519114275623 0.019619124829741277 0.6889546682358295
0.09592802523588648 0.0964814639649845 0.7110269617430243
0.2705264428967867 -0.025060039158875325 0.5700286991569902
0.17541689342234718 0.07608483519129802 0.6052443324687921
0.20458551911427564 0.019619124829741277 0.6889546682358295
0.29592802523588646 0.0964814639649845 0.7110269617430243
0.47052644289678663 -0.025060039158875325 0.5700286991569902
0.3754168934223472 0.07608483519129802 0.6052443324687921
0.40458551911427565 0.019619124829741277 0.6889546682358295
0.4959280252358865 0.0964814639649845 0.7110269617430243
0.6705264428967866 -0.025060039158875325 0.5700286991569902
0.5754168934223473 0.07608483519129802 0.6052443324687921
0.6045855191142757 0.019619124829741277 0.6889546682358295
0.6959280252358866 0.0964814639649845 0.7110269617430243
0.8705264428967867 -0.025060039158875325 0.5700286991569902
0.7754168934223472 0.07608483519129802 0.6052443324687921
0.8045855191142757 0.019619124829741277 0.6889546682358295
0.8959280252358864 0.0964814639649845 0.7110269617430243
0.07052644289678665 0.17493996084112468 0.5700286991569902
-0.024583106577652836 0.27608483519129806 0.6052443324687921
0.004585519114275623 0.21961912482974127 0.6889546682358295
0.09592802523588648 0.2964814639649845 0.7110269617430243
0.2705264428967867 0.17493996084112468 0.5700286991569902
0.17541689342234718 0.27608483519129806 0.6052443324687921
0.20458551911427564 0.21961912482974127 0.6889546682358295
0.29592802523588646 0.2964814639649845 0.7110269617430243
0.47052644289678663 0.17493996084112468 0.5700286991569902
0.3754168934223472 0.27608483519129806 0.6052443324687921
0.40458551911427565 0.21961912482974127 0.6889546682358295
0.4959280252358865 0.2964814639649845 0.7110269617430243
0.6705264428967866 0.17493996084112468 0.5700286991569902
0.5754168934223473 0.27608483519129806 0.6052443324687921
0.6045855191142757 0.21961912482974127 0.6889546682358295
0.6959280252358866 0.2964814639649845 0.7110269617430243
0.8705264428967867 0.17493996084112468 0.5700286991569902
0.7754168934223472 0.27608483519129806 0.6052443324687921
0.8045855191142757 0.21961912482974127 0.6889546682358295
0.8959280252358864 0.2964814639649845 0.7110269617430243
0.07052644289678665 0.3749399608411247 0.5700286991569902
-0.024583106577652836 0.476084835191298 0.6052443324687921
0.004585519114275623 0.4196191248297413 0.6889546682358295
0.09592802523588648 0.4964814639649845 0.7110269617430243
0.2705264428967867 0.3749399608411247 0.5700286991569902
0.17541689342234718 0.476084835191298 0.6052443324687921
0.20458551911427564 0.4196191248297413 0.6889546682358295
0.29592802523588646 0.4964814639649845 0.7110269617430243
0.47052644289678663 0.3749399608411247 0.5700286991569902
0.3754168934223472 0.476084835191298 0.6052443324687921
0.40458551911427565 0.4196191248297413 0.6889546682358295
0.4959280252358865 0.4964814639649845 0.7110269617430243
0.6705264428967866 0.3749399608411247 0.5700286991569902
0.5754168934223473 0.476084835191298 0.6052443324687921
0.6045855191142757 0.4196191248297413 0.6889546682358295
0.6959280252358866 0.4964814639649845 0.7110269617430243
0.8705264428967867 0.3749399608411247 0.5700286991569902
0.7754168934223472 0.476084835191298 0.6052443324687921
0.8045855191142757 0.4196191248297413 0.6889546682358295
0.8959280252358864 0.4964814639649845 0.7110269617430243
0.07052644289678665 0.5749399608411248 0.5700286991569902
-0.024583106577652836 0.676084835191298 0.6052443324687921
0.004585519114275623 0.6196191248297414 0.6889546682358295
0.09592802523588648 0.6964814639649846 0.7110269617430243
0.2705264428967867 0.5749399608411248 0.5700286991569902
0.17541689342234718 0.676084835191298 0.6052443324687921
0.20458551911427564 0.6196191248297414 0.6889546682358295
0.29592802523588646 0.6964814639649846 0.7110269617430243
0.47052644289678663 0.5749399608411248 0.5700286991569902
0.3754168934223472 0.676084835191298 0.6052443324687921
0.40458551911427565 0.6196191248297414 0.6889546682358295
0.4959280252358865 0.6964814639649846 0.7110269617430243
0.6705264428967866 0.5749399608411248 0.5700286991569902
0.5754168934223473 0.676084835191298 0.6052443324687921
0.6045855191142757 0.6196191248297414 0.6889546682358295
0.6959280252358866 0.6964814639649846 0.7110269617430243
0.8705264428967867 0.5749399608411248 0.5700286991569902
0.7754168934223472 0.676084835191298 0.6052443324687921
0.8045855191142757 0.6196191248297414 0.6889546682358295
0.8959280252358864 0.6964814639649846 0.7110269617430243
0.07052644289678665 0.7749399608411247 0.5700286991569902
-0.024583106577652836 0.876084835191298 0.6052443324687921
0.004585519114275623 0.8196191248297414 0.6889546682358295
0.09592802523588648 0.8964814639649845 0.7110269617430243
0.2705264428967867 0.7749399608411247 0.5700286991569902
0.17541689342234718 0.876084835191298 0.6052443324687921
0.20458551911427564 0.8196191248297414 0.6889546682358295
0.29592802523588646 0.8964814639649845 0.7110269617430243
0.47052644289678663 0.7749399608411247 0.5700286991569902
0.3754168934223472 0.876084835191298 0.6052443324687921
0.40458551911427565 0.8196191248297414 0.6889546682358295
0.4959280252358865 0.8964814639649845 0.7110269617430243
0.6705264428967866 0.7749399608411247 0.5700286991569902
0.5754168934223473 0.876084835191298 0.6052443324687921
0.6045855191142757 0.8196191248297414 0.6889546682358295
0.6959280252358866 0.8964814639649845 0.7110269617430243
0.8705264428967867 0.7749399608411247 0.5700286991569902
0.7754168934223472 0.876084835191298 0.6052443324687921
0.8045855191142757 0.8196191248297414 0.6889546682358295
0.8959280252358864 0.8964814639649845 0.7110269617430243
0.07052644289678665 -0.025060039158875325 0.7700286991569902
-0.024583106577652836 0.07608483519129802 0.805244332468792
0.004585519114275623 0.019619124829741277 0.8889546682358296
0.09592802523588648 0.0964814639649845 0.9110269617430243
0.2705264428967867 -0.025060039158875325 0.7700286991569902
0.17541689342234718 0.07608483519129802 0.805244332468792
0.20458551911427564 0.019619124829741277 0.8889546682358296
0.29592802523588646 0.0964814639649845 0.9110269617430243
0.47052644289678663 -0.025060039158875325 0.7700286991569902
0.3754168934223472 0.07608483519129802 0.805244332468792
0.40458551911427565 0.019619124829741277 0.8889546682358296
0.4959280252358865 0.0964814639649845 0.9110269617430243
0.6705264428967866 -0.025060039158875325 0.7700286991569902
0.5754168934223473 0.07608483519129802 0.805244332468792
0.6045855191142757 0.019619124829741277 0.8889546682358296
0.6959280252358866 0.0964814639649845 0.9110269617430243
0.8705264428967867 -0.025060039158875325 0.7700286991569902
0.7754168934223472 0.07608483519129802 0.805244332468792
0.8045855191142757 0.019619124829741277 0.8889546682358296
0.8959280252358864 0.0964814639649845 0.9110269617430243
0.07052644289678665 0.17493996084112468 0.7700286991569902
-0.024583106577652836 0.27608483519129806 0.805244332468792
0.004585519114275623 0.21961912482974127 0.8889546682358296
0.09592802523588648 0.2964814639649845 0.9110269617430243
0.2705264428967867 0.17493996084112468 0.7700286991569902
0.17541689342234718 0.27608483519129806 0.805244332468792
0.20458551911427564 0.21961912482974127 0.8889546682358296
0.29592802523588646 0.2964814639649845 0.9110269617430243
0.47052644289678663 0.17493996084112468 0.7700286991569902
0.3754168934223472 0.27608483519129806 0.805244332468792
0.40458551911427565 0.21961912482974127 0.8889546682358296
0.4959280252358865 0.2964814639649845 0.9110269617430243
0.6705264428967866 0.17493996084112468 0.7700286991569902
0.5754168934223473 0.27608483519129806 0.805244332468792
0.6045855191142757 0.21961912482974127 0.8889546682358296
0.6959280252358866 0.2964814639649845 0.9110269617430243
0.8705264428967867 0.17493996084112468 0.7700286991569902
0.7754168934223472 0.27608483519129806 0.805244332468792
0.8045855191142757 0.21961912482974127 0.8889546682358296
0.8959280252358864 0.2964814639649845 0.9110269617430243
0.07052644289678665 0.3749399608411247 0.7700286991569902
-0.024583106577652836 0.476084835191298 0.805244332468792
0.004585519114275623 0.4196191248297413 0.8889546682358296
0.09592802523588648 0.4964814639649845 0.9110269617430243
0.2705264428967867 0.3749399608411247 0.7700286991569902
0.17541689342234718 0.476084835191298 0.805244332468792
0.20458551911427564 0.4196191248297413 0.8889546682358296
0.29592802523588646 0.4964814639649845 0.9110269617430243
0.47052644289678663 0.3749399608411247 0.7700286991569902
0.3754168934223472 0.476084835191298 0.805244332468792
0.40458551911427565 0.4196191248297413 0.8889546682358296
0.4959280252358865 0.4964814639649845 0.9110269617430243
0.6705264428967866 0.3749399608411247 0.7700286991569902
0.5754168934223473 0.476084835191298 0.805244332468792
0.6045855191142757 0.4196191248297413 0.8889546682358296
0.6959280252358866 0.4964814639649845 0.9110269617430243
0.8705264428967867 0.3749399608411247 0.7700286991569902
0.7754168934223472 0.476084835191298 0.805244332468792
0.8045855191142757 0.4196191248297413 0.8889546682358296
0.8959280252358864 0.4964814639649845 0.9110269617430243
0.07052644289678665 0.5749399608411248 0.7700286991569902
-0.024583106577652836 0.676084835191298 0.805244332468792
0.004585519114275623 0.6196191248297414 0.8889546682358296
0.09592802523588648 0.6964814639649846 0.9110269617430243
0.2705264428967867 0.5749399608411248 0.7700286991569902
0.17541689342234718 0.676084835191298 0.805244332468792
0.20458551911427564 0.6196191248297414 0.8889546682358296
0.29592802523588646 0.6964814639649846 0.9110269617430243
0.47052644289678663 0.5749399608411248 0.7700286991569902
0.3754168934223472 0.676084835191298 0.805244332468792
0.40458551911427565 0.6196191248297414 0.8889546682358296
0.4959280252358865 0.6964814639649846 0.9110269617430243
0.6705264428967866 0.5749399608411248 0.7700286991569902
0.5754168934223473 0.676084835191298 0.805244332468792
0.6045855191142757 0.6196191248297414 0.8889546682358296
0.6959280252358866 0.6964814639649846 0.9110269617430243
0.8705264428967867 0.5749399608411248 0.7700286991569902
0.7754168934223472 0.676084835191298 0.805244332468792
0.8045855191142757 0.6196191248297414 0.8889546682358296
0.8959280252358864 0.6964814639649846 0.9110269617430243
0.07052644289678665 0.7749399608411247 0.7700286991569902
-0.024583106577652836 0.876084835191298 0.805244332468792
0.004585519114275623 0.8196191248297414 0.8889546682358296
0.09592802523588648 0.8964814639649845 0.9110269617430243
0.2705264428967867 0.7749399608411247 0.7700286991569902
0.17541689342234718 0.876084835191298 0.805244332468792
0.20458551911427564 0.8196191248297414 0.8889546682358296
0.29592802523588646 0.8964814639649845 0.9110269617430243
0.47052644289678663 0.7749399608411247 0.7700286991569902
0.3754168934223472 0.876084835191298 0.805244332468792
0.40458551911427565 0.8196191248297414 0.8889546682358296
0.4959280252358865 0.8964814639649845 0.9110269617430243
0.6705264428967866 0.7749399608411247 0.7700286991569902
0.5754168934223473 0.876084835191298 0.805244332468792
0.6045855191142757 0.8196191248297414 0.8889546682358296
0.6959280252358866 0.8964814639649845 0.9110269617430243
0.8705264428967867 0.7749399608411247 0.7700286991569902
0.7754168934223472 0.876084835191298 0.805244332468792
0.8045855191142757 0.8196191248297414 0.8889546682358296
0.8959280252358864 0.8964814639649845 0.9110269617430243
