FCC BaO
5.61604
3.0 0.0 0.0
0.0 3.0 0.0
0.0 0.0 3.0
Ba O 
108 108 
Direct
-0.23539585079439856 0.44132303474527435 -0.6183422187780139
-0.09582138573046409 -0.13700258288793687 -0.39252713340067596
-0.6580790272248025 0.23949548463063247 -0.7314997942805659
-0.1681198938432469 -0.6273836167688503 0.15380631706812323
0.09793748253893475 0.44132303474527435 -0.6183422187780139
0.23751194760286923 -0.13700258288793687 -0.39252713340067596
-0.32474569389146923 0.23949548463063247 -0.7314997942805659
0.1652134394900864 -0.6273836167688503 0.15380631706812323
0.43127081587226807 0.44132303474527435 -0.6183422187780139
0.5708452809362026 -0.13700258288793687 -0.39252713340067596
0.008587639441864098 0.23949548463063247 -0.7314997942805659
0.49854677282341975 -0.6273836167688503 0.15380631706812323
-0.23539585079439856 0.7746563680786076 -0.6183422187780139
-0.09582138573046409 0.19633075044539644 -0.39252713340067596
-0.6580790272248025 0.5728288179639658 -0.7314997942805659
-0.1681198938432469 -0.29405028343551703 0.15380631706812323
0.09793748253893475 0.7746563680786076 -0.6183422187780139
0.23751194760286923 0.19633075044539644 -0.39252713340067596
-0.32474569389146923 0.5728288179639658 -0.7314997942805659
0.1652134394900864 -0.29405028343551703 0.15380631706812323
0.43127081587226807 0.7746563680786076 -0.6183422187780139
0.5708452809362026 0.19633075044539644 -0.39252713340067596
0.008587639441864098 0.5728288179639658 -0.7314997942805659
0.49854677282341975 -0.29405028343551703 0.15380631706812323
-0.23539585079439856 1.1079897014119409 -0.6183422187780139
-0.09582138573046409 0.5296640837787298 -0.39252713340067596
-0.6580790272248025 0.906162151297299 -0.7314997942805659
-0.1681198938432469 0.03928304989781628 0.15380631706812323
0.09793748253893475 1.1079897014119409 -0.6183422187780139
0.23751194760286923 0.5296640837787298 -0.39252713340067596
-0.32474569389146923 0.906162151297299 -0.7314997942805659
0.1652134394900864 0.03928304989781628 0.15380631706812323
0.43127081587226807 1.1079897014119409 -0.6183422187780139
0.5708452809362026 0.5296640837787298 -0.39252713340067596
0.008587639441864098 0.906162151297299 -0.7314997942805659
0.49854677282341975 0.03928304989781628 0.15380631706812323
-0.23539585079439856 0.44132303474527435 -0.2850088854446806
-0.09582138573046409 -0.13700258288793687 -0.05919380006734265
-0.6580790272248025 0.23949548463063247 -0.3981664609472326
-0.1681198938432469 -0.6273836167688503 0.4871396504014565
0.09793748253893475 0.44132303474527435 -0.2850088854446806
0.23751194760286923 -0.13700258288793687 -0.05919380006734265
-0.32474569389146923 0.23949548463063247 -0.3981664609472326
0.1652134394900864 -0.6273836167688503 0.4871396504014565
0.43127081587226807 0.44132303474527435 -0.2850088854446806
0.5708452809362026 -0.13700258288793687 -0.05919380006734265
0.008587639441864098 0.23949548463063247 -0.3981664609472326
0.49854677282341975 -0.6273836167688503 0.4871396504014565
-0.23539585079439856 0.7746563680786076 -0.2850088854446806
-0.09582138573046409 0.19633075044539644 -0.05919380006734265
-0.6580790272248025 0.5728288179639658 -0.3981664609472326
-0.1681198938432469 -0.29405028343551703 0.4871396504014565
0.09793748253893475 0.7746563680786076 -0.2850088854446806
0.23751194760286923 0.19633075044539644 -0.05919380006734265
-0.32474569389146923 0.5728288179639658 -0.3981664609472326
0.1652134394900864 -0.29405028343551703 0.4871396504014565
0.43127081587226807 0.7746563680786076 -0.2850088854446806
0.5708452809362026 0.19633075044539644 -0.05919380006734265
0.008587639441864098 0.5728288179639658 -0.3981664609472326
0.49854677282341975 -0.29405028343551703 0.4871396504014565
-0.23539585079439856 1.1079897014119409 -0.2850088854446806
-0.09582138573046409 0.5296640837787298 -0.05919380006734265
-0.6580790272248025 0.906162151297299 -0.3981664609472326
-0.1681198938432469 0.03928304989781628 0.4871396504014565
0.09793748253893475 1.1079897014119409 -0.2850088854446806
0.23751194760286923 0.5296640837787298 -0.05919380006734265
-0.32474569389146923 0.906162151297299 -0.3981664609472326
0.1652134394900864 0.03928304989781628 0.4871396504014565
0.43127081587226807 1.1079897014119409 -0.2850088854446806
0.5708452809362026 0.5296640837787298 -0.05919380006734265
0.008587639441864098 0.906162151297299 -0.3981664609472326
0.49854677282341975 0.03928304989781628 0.4871396504014565
-0.23539585079439856 0.44132303474527435 0.04832444788865271
-0.09582138573046409 -0.13700258288793687 0.27413953326599066
-0.6580790272248025 0.23949548463063247 -0.06483312761389928
-0.1681198938432469 -0.6273836167688503 0.8204729837347898
0.09793748253893475 0.44132303474527435 0.04832444788865271
0.23751194760286923 -0.13700258288793687 0.27413953326599066
-0.32474569389146923 0.23949548463063247 -0.06483312761389928
0.1652134394900864 -0.6273836167688503 0.8204729837347898
0.43127081587226807 0.44132303474527435 0.04832444788865271
0.5708452809362026 -0.13700258288793687 0.27413953326599066
0.008587639441864098 0.23949548463063247 -0.06483312761389928
0.49854677282341975 -0.6273836167688503 0.8204729837347898
-0.23539585079439856 0.7746563680786076 0.04832444788865271
-0.09582138573046409 0.19633075044539644 0.27413953326599066
-0.6580790272248025 0.5728288179639658 -0.06483312761389928
-0.1681198938432469 -0.29405028343551703 0.8204729837347898
0.09793748253893475 0.7746563680786076 0.04832444788865271
0.23751194760286923 0.19633075044539644 0.27413953326599066
-0.32474569389146923 0.5728288179639658 -0.06483312761389928
0.1652134394900864 -0.29405028343551703 0.8204729837347898
0.43127081587226807 0.7746563680786076 0.04832444788865271
0.5708452809362026 0.19633075044539644 0.27413953326599066
0.008587639441864098 0.5728288179639658 -0.06483312761389928
0.49854677282341975 -0.29405028343551703 0.8204729837347898
-0.23539585079439856 1.1079897014119409 0.04832444788865271
-0.09582138573046409 0.5296640837787298 0.27413953326599066
-0.6580790272248025 0.906162151297299 -0.06483312761389928
-0.1681198938432469 0.03928304989781628 0.8204729837347898
0.09793748253893475 1.1079897014119409 0.04832444788865271
0.23751194760286923 0.5296640837787298 0.27413953326599066
-0.32474569389146923 0.906162151297299 -0.06483312761389928
0.1652134394900864 0.03928304989781628 0.8204729837347898
0.43127081587226807 1.1079897014119409 0.04832444788865271
0.5708452809362026 0.5296640837787298 0.27413953326599066
0.008587639441864098 0.906162151297299 -0.06483312761389928
0.49854677282341975 0.03928304989781628 0.8204729837347898
0.5231920608764326 -0.5776331243634857 0.005553383893984723
0.015975454675092954 -0.29589895946081823 -0.17628221527432386
-0.012886510866986393 0.07149908539187497 0.8971381157953814
0.30104548992794955 0.3949265056572526 0.0857279499261211
0.8565253942097659 -0.5776331243634857 0.005553383893984723
0.3493087880084263 -0.29589895946081823 -0.17628221527432386
0.3204468224663469 0.07149908539187497 0.8971381157953814
0.6343788232612828 0.3949265056572526 0.0857279499261211
1.1898587275430992 -0.5776331243634857 0.005553383893984723
0.6826421213417595 -0.29589895946081823 -0.17628221527432386
0.6537801557996803 0.07149908539187497 0.8971381157953814
0.9677121565946162 0.3949265056572526 0.0857279499261211
0.5231920608764326 -0.24429979103015237 0.005553383893984723
0.015975454675092954 0.037434373872515095 -0.17628221527432386
-0.012886510866986393 0.40483241872520825 0.8971381157953814
0.30104548992794955 0.7282598389905859 0.0857279499261211
0.8565253942097659 -0.24429979103015237 0.005553383893984723
0.3493087880084263 0.037434373872515095 -0.17628221527432386
0.3204468224663469 0.40483241872520825 0.8971381157953814
0.6343788232612828 0.7282598389905859 0.0857279499261211
1.1898587275430992 -0.24429979103015237 0.005553383893984723
0.6826421213417595 0.037434373872515095 -0.17628221527432386
0.6537801557996803 0.40483241872520825 0.8971381157953814
0.9677121565946162 0.7282598389905859 0.0857279499261211
0.5231920608764326 0.08903354230318095 0.005553383893984723
0.015975454675092954 0.3707677072058484 -0.17628221527432386
-0.012886510866986393 0.7381657520585416 0.8971381157953814
0.30104548992794955 1.0615931723239191 0.0857279499261211
0.8565253942097659 0.08903354230318095 0.005553383893984723
0.3493087880084263 0.3707677072058484 -0.17628221527432386
0.3204468224663469 0.7381657520585416 0.8971381157953814
0.6343788232612828 1.0615931723239191 0.0857279499261211
1.1898587275430992 0.08903354230318095 0.005553383893984723
0.6826421213417595 0.3707677072058484 -0.17628221527432386
0.6537801557996803 0.7381657520585416 0.8971381157953814
0.9677121565946162 1.0615931723239191 0.0857279499261211
0.5231920608764326 -0.5776331243634857 0.33888671722731806
0.015975454675092954 -0.29589895946081823 0.15705111805900945
-0.012886510866986393 0.07149908539187497 1.2304714491287148
0.30104548992794955 0.3949265056572526 0.41906128325945435
0.8565253942097659 -0.5776331243634857 0.33888671722731806
0.3493087880084263 -0.29589895946081823 0.15705111805900945
0.3204468224663469 0.07149908539187497 1.2304714491287148
0.6343788232612828 0.3949265056572526 0.41906128325945435
1.1898587275430992 -0.5776331243634857 0.33888671722731806
0.6826421213417595 -0.29589895946081823 0.15705111805900945
0.6537801557996803 0.07149908539187497 1.2304714491287148
0.9677121565946162 0.3949265056572526 0.41906128325945435
0.5231920608764326 -0.24429979103015237 0.33888671722731806
0.015975454675092954 0.037434373872515095 0.15705111805900945
-0.012886510866986393 0.40483241872520825 1.2304714491287148
0.30104548992794955 0.7282598389905859 0.41906128325945435
0.8565253942097659 -0.24429979103015237 0.33888671722731806
0.3493087880084263 0.037434373872515095 0.15705111805900945
0.3204468224663469 0.40483241872520825 1.2304714491287148
0.6343788232612828 0.7282598389905859 0.41906128325945435
1.1898587275430992 -0.24429979103015237 0.33888671722731806
0.6826421213417595 0.037434373872515095 0.15705111805900945
0.6537801557996803 0.40483241872520825 1.2304714491287148
0.9677121565946162 0.7282598389905859 0.41906128325945435
0.5231920608764326 0.08903354230318095 0.33888671722731806
0.015975454675092954 0.3707677072058484 0.15705111805900945
-0.012886510866986393 0.7381657520585416 1.2304714491287148
0.30104548992794955 1.0615931723239191 0.41906128325945435
0.8565253942097659 0.08903354230318095 0.33888671722731806
0.3493087880084263 0.3707677072058484 0.15705111805900945
0.3204468224663469 0.7381657520585416 1.2304714491287148
0.6343788232612828 1.0615931723239191 0.41906128325945435
1.1898587275430992 0.08903354230318095 0.33888671722731806
0.6826421213417595 0.3707677072058484 0.15705111805900945
0.6537801557996803 0.7381657520585416 1.2304714491287148
0.9677121565946162 1.0615931723239191 0.41906128325945435
0.5231920608764326 -0.5776331243634857 0.6722200505606513
0.015975454675092954 -0.29589895946081823 0.49038445139234277
-0.012886510866986393 0.07149908539187497 1.5638047824620482
0.30104548992794955 0.3949265056572526 0.7523946165927877
0.8565253942097659 -0.5776331243634857 0.6722200505606513
0.3493087880084263 -0.29589895946081823 0.49038445139234277
0.3204468224663469 0.07149908539187497 1.5638047824620482
0.6343788232612828 0.3949265056572526 0.7523946165927877
1.1898587275430992 -0.5776331243634857 0.6722200505606513
0.6826421213417595 -0.29589895946081823 0.49038445139234277
0.6537801557996803 0.07149908539187497 1.5638047824620482
0.9677121565946162 0.3949265056572526 0.7523946165927877
0.5231920608764326 -0.24429979103015237 0.6722200505606513
0.015975454675092954 0.037434373872515095 0.49038445139234277
-0.012886510866986393 0.40483241872520825 1.5638047824620482
0.30104548992794955 0.7282598389905859 0.7523946165927877
0.8565253942097659 -0.24429979103015237 0.6722200505606513
0.3493087880084263 0.037434373872515095 0.49038445139234277
0.3204468224663469 0.40483241872520825 1.5638047824620482
0.6343788232612828 0.7282598389905859 0.7523946165927877
1.1898587275430992 -0.24429979103015237 0.6722200505606513
0.6826421213417595 0.037434373872515095 0.49038445139234277
0.6537801557996803 0.40483241872520825 1.5638047824620482
0.9677121565946162 0.7282598389905859 0.7523946165927877
0.5231920608764326 0.08903354230318095 0.6722200505606513
0.015975454675092954 0.3707677072058484 0.49038445139234277
-0.012886510866986393 0.7381657520585416 1.5638047824620482
0.30104548992794955 1.0615931723239191 0.7523946165927877
0.8565253942097659 0.08903354230318095 0.6722200505606513
0.3493087880084263 0.3707677072058484 0.49038445139234277
0.3204468224663469 0.7381657520585416 1.5638047824620482
0.6343788232612828 1.0615931723239191 0.7523946165927877
1.1898587275430992 0.08903354230318095 0.6722200505606513
0.6826421213417595 0.3707677072058484 0.49038445139234277
0.6537801557996803 0.7381657520585416 1.5638047824620482
0.9677121565946162 1.0615931723239191 0.7523946165927877
