FCC BaO
3.971
5.0 0.0 0.0
0.0 5.0 0.0
0.0 0.0 5.0
Ba O 
500 500 
Direct
0.0005863439389034398 0.005122354209519944 0.012897847175212996
0.00018966869219224082 0.07358591429328523 0.0741111723766345
0.07423545343607683 -0.023031913383017705 0.08343384207650623
0.07702078469140305 0.09732802691484291 -0.01973124307234007
0.20058634393890343 0.005122354209519944 0.012897847175212996
0.20018966869219224 0.07358591429328523 0.0741111723766345
0.27423545343607686 -0.023031913383017705 0.08343384207650623
0.27702078469140307 0.09732802691484291 -0.01973124307234007
0.40058634393890347 0.005122354209519944 0.012897847175212996
0.40018966869219225 0.07358591429328523 0.0741111723766345
0.4742354534360768 -0.023031913383017705 0.08343384207650623
0.4770207846914031 0.09732802691484291 -0.01973124307234007
0.6005863439389034 0.005122354209519944 0.012897847175212996
0.6001896686921923 0.07358591429328523 0.0741111723766345
0.6742354534360768 -0.023031913383017705 0.08343384207650623
0.6770207846914031 0.09732802691484291 -0.01973124307234007
0.8005863439389036 0.005122354209519944 0.012897847175212996
0.8001896686921923 0.07358591429328523 0.0741111723766345
0.8742354534360768 -0.023031913383017705 0.08343384207650623
0.877020784691403 0.09732802691484291 -0.01973124307234007
0.0005863439389034398 0.20512235420951996 0.012897847175212996
0.00018966869219224082 0.2735859142932852 0.0741111723766345
0.07423545343607683 0.1769680866169823 0.08343384207650623
0.07702078469140305 0.2973280269148429 -0.01973124307234007
0.20058634393890343 0.20512235420951996 0.012897847175212996
0.20018966869219224 0.2735859142932852 0.0741111723766345
0.27423545343607686 0.1769680866169823 0.08343384207650623
0.27702078469140307 0.2973280269148429 -0.01973124307234007
0.40058634393890347 0.20512235420951996 0.012897847175212996
0.40018966869219225 0.2735859142932852 0.0741111723766345
0.4742354534360768 0.1769680866169823 0.08343384207650623
0.4770207846914031 0.2973280269148429 -0.01973124307234007
0.6005863439389034 0.20512235420951996 0.012897847175212996
0.6001896686921923 0.2735859142932852 0.0741111723766345
0.6742354534360768 0.1769680866169823 0.08343384207650623
0.6770207846914031 0.2973280269148429 -0.01973124307234007
0.8005863439389036 0.20512235420951996 0.012897847175212996
0.8001896686921923 0.2735859142932852 0.0741111723766345
0.8742354534360768 0.1769680866169823 0.08343384207650623
0.877020784691403 0.2973280269148429 -0.01973124307234007
0.0005863439389034398 0.4051223542095199 0.012897847175212996
0.00018966869219224082 0.4735859142932853 0.0741111723766345
0.07423545343607683 0.37696808661698233 0.08343384207650623
0.07702078469140305 0.4973280269148429 -0.01973124307234007
0.20058634393890343 0.4051223542095199 0.012897847175212996
0.20018966869219224 0.4735859142932853 0.0741111723766345
0.27423545343607686 0.37696808661698233 0.08343384207650623
0.27702078469140307 0.4973280269148429 -0.01973124307234007
0.40058634393890347 0.4051223542095199 0.012897847175212996
0.40018966869219225 0.4735859142932853 0.0741111723766345
0.4742354534360768 0.37696808661698233 0.08343384207650623
0.4770207846914031 0.4973280269148429 -0.01973124307234007
0.6005863439389034 0.4051223542095199 0.012897847175212996
0.6001896686921923 0.4735859142932853 0.0741111723766345
0.6742354534360768 0.37696808661698233 0.08343384207650623
0.6770207846914031 0.4973280269148429 -0.01973124307234007
0.8005863439389036 0.4051223542095199 0.012897847175212996
0.8001896686921923 0.4735859142932853 0.0741111723766345
0.8742354534360768 0.37696808661698233 0.08343384207650623
0.877020784691403 0.4973280269148429 -0.01973124307234007
0.0005863439389034398 0.60512235420952 0.012897847175212996
0.00018966869219224082 0.6735859142932853 0.0741111723766345
0.07423545343607683 0.5769680866169823 0.08343384207650623
0.07702078469140305 0.697328026914843 -0.01973124307234007
0.20058634393890343 0.60512235420952 0.012897847175212996
0.20018966869219224 0.6735859142932853 0.0741111723766345
0.27423545343607686 0.5769680866169823 0.08343384207650623
0.27702078469140307 0.697328026914843 -0.01973124307234007
0.40058634393890347 0.60512235420952 0.012897847175212996
0.40018966869219225 0.6735859142932853 0.0741111723766345
0.4742354534360768 0.5769680866169823 0.08343384207650623
0.4770207846914031 0.697328026914843 -0.01973124307234007
0.6005863439389034 0.60512235420952 0.012897847175212996
0.6001896686921923 0.6735859142932853 0.0741111723766345
0.6742354534360768 0.5769680866169823 0.08343384207650623
0.6770207846914031 0.697328026914843 -0.01973124307234007
0.8005863439389036 0.60512235420952 0.012897847175212996
0.8001896686921923 0.6735859142932853 0.0741111723766345
0.8742354534360768 0.5769680866169823 0.08343384207650623
0.877020784691403 0.697328026914843 -0.01973124307234007
0.0005863439389034398 0.8051223542095199 0.012897847175212996
0.00018966869219224082 0.8735859142932854 0.0741111723766345
0.07423545343607683 0.7769680866169824 0.08343384207650623
0.07702078469140305 0.8973280269148429 -0.01973124307234007
0.20058634393890343 0.8051223542095199 0.012897847175212996
0.20018966869219224 0.8735859142932854 0.0741111723766345
0.27423545343607686 0.7769680866169824 0.08343384207650623
0.27702078469140307 0.8973280269148429 -0.01973124307234007
0.40058634393890347 0.8051223542095199 0.012897847175212996
0.40018966869219225 0.8735859142932854 0.0741111723766345
0.4742354534360768 0.7769680866169824 0.08343384207650623
0.4770207846914031 0.8973280269148429 -0.01973124307234007
0.6005863439389034 0.8051223542095199 0.012897847175212996
0.6001896686921923 0.8735859142932854 0.0741111723766345
0.6742354534360768 0.7769680866169824 0.08343384207650623
0.6770207846914031 0.8973280269148429 -0.01973124307234007
0.8005863439389036 0.8051223542095199 0.012897847175212996
0.8001896686921923 0.8735859142932854 0.0741111723766345
0.8742354534360768 0.7769680866169824 0.08343384207650623
0.877020784691403 0.8973280269148429 -0.01973124307234007
0.0005863439389034398 0.005122354209519944 0.21289784717521298
0.00018966869219224082 0.07358591429328523 0.2741111723766345
0.07423545343607683 -0.023031913383017705 0.28343384207650624
0.07702078469140305 0.09732802691484291 0.18026875692765995
0.20058634393890343 0.005122354209519944 0.21289784717521298
0.20018966869219224 0.07358591429328523 0.2741111723766345
0.27423545343607686 -0.023031913383017705 0.28343384207650624
0.27702078469140307 0.09732802691484291 0.18026875692765995
0.40058634393890347 0.005122354209519944 0.21289784717521298
0.40018966869219225 0.07358591429328523 0.2741111723766345
0.4742354534360768 -0.023031913383017705 0.28343384207650624
0.4770207846914031 0.09732802691484291 0.18026875692765995
0.6005863439389034 0.005122354209519944 0.21289784717521298
0.6001896686921923 0.07358591429328523 0.2741111723766345
0.6742354534360768 -0.023031913383017705 0.28343384207650624
0.6770207846914031 0.09732802691484291 0.18026875692765995
0.8005863439389036 0.005122354209519944 0.21289784717521298
0.8001896686921923 0.07358591429328523 0.2741111723766345
0.8742354534360768 -0.023031913383017705 0.28343384207650624
0.877020784691403 0.09732802691484291 0.18026875692765995
0.0005863439389034398 0.20512235420951996 0.21289784717521298
0.00018966869219224082 0.2735859142932852 0.2741111723766345
0.07423545343607683 0.1769680866169823 0.28343384207650624
0.07702078469140305 0.2973280269148429 0.18026875692765995
0.20058634393890343 0.20512235420951996 0.21289784717521298
0.20018966869219224 0.2735859142932852 0.2741111723766345
0.27423545343607686 0.1769680866169823 0.28343384207650624
0.27702078469140307 0.2973280269148429 0.18026875692765995
0.40058634393890347 0.20512235420951996 0.21289784717521298
0.40018966869219225 0.2735859142932852 0.2741111723766345
0.4742354534360768 0.1769680866169823 0.28343384207650624
0.4770207846914031 0.2973280269148429 0.18026875692765995
0.6005863439389034 0.20512235420951996 0.21289784717521298
0.6001896686921923 0.2735859142932852 0.2741111723766345
0.6742354534360768 0.1769680866169823 0.28343384207650624
0.6770207846914031 0.2973280269148429 0.18026875692765995
0.8005863439389036 0.20512235420951996 0.21289784717521298
0.8001896686921923 0.2735859142932852 0.2741111723766345
0.8742354534360768 0.1769680866169823 0.28343384207650624
0.877020784691403 0.2973280269148429 0.18026875692765995
0.0005863439389034398 0.4051223542095199 0.21289784717521298
0.00018966869219224082 0.4735859142932853 0.2741111723766345
0.07423545343607683 0.37696808661698233 0.28343384207650624
0.07702078469140305 0.4973280269148429 0.18026875692765995
0.20058634393890343 0.4051223542095199 0.21289784717521298
0.20018966869219224 0.4735859142932853 0.2741111723766345
0.27423545343607686 0.37696808661698233 0.28343384207650624
0.27702078469140307 0.4973280269148429 0.18026875692765995
0.40058634393890347 0.4051223542095199 0.21289784717521298
0.40018966869219225 0.4735859142932853 0.2741111723766345
0.4742354534360768 0.37696808661698233 0.28343384207650624
0.4770207846914031 0.4973280269148429 0.18026875692765995
0.6005863439389034 0.4051223542095199 0.21289784717521298
0.6001896686921923 0.4735859142932853 0.2741111723766345
0.6742354534360768 0.37696808661698233 0.28343384207650624
0.6770207846914031 0.4973280269148429 0.18026875692765995
0.8005863439389036 0.4051223542095199 0.21289784717521298
0.8001896686921923 0.4735859142932853 0.2741111723766345
0.8742354534360768 0.37696808661698233 0.28343384207650624
0.877020784691403 0.4973280269148429 0.18026875692765995
0.0005863439389034398 0.60512235420952 0.21289784717521298
0.00018966869219224082 0.6735859142932853 0.2741111723766345
0.07423545343607683 0.5769680866169823 0.28343384207650624
0.07702078469140305 0.697328026914843 0.18026875692765995
0.20058634393890343 0.60512235420952 0.21289784717521298
0.20018966869219224 0.6735859142932853 0.2741111723766345
0.27423545343607686 0.5769680866169823 0.28343384207650624
0.27702078469140307 0.697328026914843 0.18026875692765995
0.40058634393890347 0.60512235420952 0.21289784717521298
0.40018966869219225 0.6735859142932853 0.2741111723766345
0.4742354534360768 0.5769680866169823 0.28343384207650624
0.4770207846914031 0.697328026914843 0.18026875692765995
0.6005863439389034 0.60512235420952 0.21289784717521298
0.6001896686921923 0.6735859142932853 0.2741111723766345
0.6742354534360768 0.5769680866169823 0.28343384207650624
0.6770207846914031 0.697328026914843 0.18026875692765995
0.8005863439389036 0.60512235420952 0.21289784717521298
0.8001896686921923 0.6735859142932853 0.2741111723766345
0.8742354534360768 0.5769680866169823 0.28343384207650624
0.877020784691403 0.697328026914843 0.18026875692765995
0.0005863439389034398 0.8051223542095199 0.21289784717521298
0.00018966869219224082 0.8735859142932854 0.2741111723766345
0.07423545343607683 0.7769680866169824 0.28343384207650624
0.07702078469140305 0.8973280269148429 0.18026875692765995
0.20058634393890343 0.8051223542095199 0.21289784717521298
0.20018966869219224 0.8735859142932854 0.2741111723766345
0.27423545343607686 0.7769680866169824 0.28343384207650624
0.27702078469140307 0.8973280269148429 0.18026875692765995
0.40058634393890347 0.8051223542095199 0.21289784717521298
0.40018966869219225 0.8735859142932854 0.2741111723766345
0.4742354534360768 0.7769680866169824 0.28343384207650624
0.4770207846914031 0.8973280269148429 0.18026875692765995
0.6005863439389034 0.8051223542095199 0.21289784717521298
0.6001896686921923 0.8735859142932854 0.2741111723766345
0.6742354534360768 0.7769680866169824 0.28343384207650624
0.6770207846914031 0.8973280269148429 0.18026875692765995
0.8005863439389036 0.8051223542095199 0.21289784717521298
0.8001896686921923 0.8735859142932854 0.2741111723766345
0.8742354534360768 0.7769680866169824 0.28343384207650624
0.877020784691403 0.8973280269148429 0.18026875692765995
0.0005863439389034398 0.005122354209519944 0.412897847175213
0.00018966869219224082 0.07358591429328523 0.47411117237663447
0.07423545343607683 -0.023031913383017705 0.4834338420765063
0.07702078469140305 0.09732802691484291 0.38026875692765993
0.20058634393890343 0.005122354209519944 0.412897847175213
0.20018966869219224 0.07358591429328523 0.47411117237663447
0.27423545343607686 -0.023031913383017705 0.4834338420765063
0.27702078469140307 0.09732802691484291 0.38026875692765993
0.40058634393890347 0.005122354209519944 0.412897847175213
0.40018966869219225 0.07358591429328523 0.47411117237663447
0.4742354534360768 -0.023031913383017705 0.4834338420765063
0.4770207846914031 0.09732802691484291 0.38026875692765993
0.6005863439389034 0.005122354209519944 0.412897847175213
0.6001896686921923 0.07358591429328523 0.47411117237663447
0.6742354534360768 -0.023031913383017705 0.4834338420765063
0.6770207846914031 0.09732802691484291 0.38026875692765993
0.8005863439389036 0.005122354209519944 0.412897847175213
0.8001896686921923 0.07358591429328523 0.47411117237663447
0.8742354534360768 -0.023031913383017705 0.4834338420765063
0.877020784691403 0.09732802691484291 0.38026875692765993
0.0005863439389034398 0.20512235420951996 0.412897847175213
0.00018966869219224082 0.2735859142932852 0.47411117237663447
0.07423545343607683 0.1769680866169823 0.4834338420765063
0.07702078469140305 0.2973280269148429 0.38026875692765993
0.20058634393890343 0.20512235420951996 0.412897847175213
0.20018966869219224 0.2735859142932852 0.47411117237663447
0.27423545343607686 0.1769680866169823 0.4834338420765063
0.27702078469140307 0.2973280269148429 0.38026875692765993
0.40058634393890347 0.20512235420951996 0.412897847175213
0.40018966869219225 0.2735859142932852 0.47411117237663447
0.4742354534360768 0.1769680866169823 0.4834338420765063
0.4770207846914031 0.2973280269148429 0.38026875692765993
0.6005863439389034 0.20512235420951996 0.412897847175213
0.6001896686921923 0.2735859142932852 0.47411117237663447
0.6742354534360768 0.1769680866169823 0.4834338420765063
0.6770207846914031 0.2973280269148429 0.38026875692765993
0.8005863439389036 0.20512235420951996 0.412897847175213
0.8001896686921923 0.2735859142932852 0.47411117237663447
0.8742354534360768 0.1769680866169823 0.4834338420765063
0.877020784691403 0.2973280269148429 0.38026875692765993
0.0005863439389034398 0.4051223542095199 0.412897847175213
0.00018966869219224082 0.4735859142932853 0.47411117237663447
0.07423545343607683 0.37696808661698233 0.4834338420765063
0.07702078469140305 0.4973280269148429 0.38026875692765993
0.20058634393890343 0.4051223542095199 0.412897847175213
0.20018966869219224 0.4735859142932853 0.47411117237663447
0.27423545343607686 0.37696808661698233 0.4834338420765063
0.27702078469140307 0.4973280269148429 0.38026875692765993
0.40058634393890347 0.4051223542095199 0.412897847175213
0.40018966869219225 0.4735859142932853 0.47411117237663447
0.4742354534360768 0.37696808661698233 0.4834338420765063
0.4770207846914031 0.4973280269148429 0.38026875692765993
0.6005863439389034 0.4051223542095199 0.412897847175213
0.6001896686921923 0.4735859142932853 0.47411117237663447
0.6742354534360768 0.37696808661698233 0.4834338420765063
0.6770207846914031 0.4973280269148429 0.38026875692765993
0.8005863439389036 0.4051223542095199 0.412897847175213
0.8001896686921923 0.4735859142932853 0.47411117237663447
0.8742354534360768 0.37696808661698233 0.4834338420765063
0.877020784691403 0.4973280269148429 0.38026875692765993
0.0005863439389034398 0.60512235420952 0.412897847175213
0.00018966869219224082 0.6735859142932853 0.47411117237663447
0.07423545343607683 0.5769680866169823 0.4834338420765063
0.07702078469140305 0.697328026914843 0.38026875692765993
0.20058634393890343 0.60512235420952 0.412897847175213
0.20018966869219224 0.6735859142932853 0.47411117237663447
0.27423545343607686 0.5769680866169823 0.4834338420765063
0.27702078469140307 0.697328026914843 0.38026875692765993
0.40058634393890347 0.60512235420952 0.412897847175213
0.40018966869219225 0.6735859142932853 0.47411117237663447
0.4742354534360768 0.5769680866169823 0.4834338420765063
0.4770207846914031 0.697328026914843 0.38026875692765993
0.6005863439389034 0.60512235420952 0.412897847175213
0.6001896686921923 0.6735859142932853 0.47411117237663447
0.6742354534360768 0.5769680866169823 0.4834338420765063
0.6770207846914031 0.697328026914843 0.38026875692765993
0.8005863439389036 0.60512235420952 0.412897847175213
0.8001896686921923 0.6735859142932853 0.47411117237663447
0.8742354534360768 0.5769680866169823 0.4834338420765063
0.877020784691403 0.697328026914843 0.38026875692765993
0.0005863439389034398 0.8051223542095199 0.412897847175213
0.00018966869219224082 0.8735859142932854 0.47411117237663447
0.07423545343607683 0.7769680866169824 0.4834338420765063
0.07702078469140305 0.8973280269148429 0.38026875692765993
0.20058634393890343 0.8051223542095199 0.412897847175213
0.20018966869219224 0.8735859142932854 0.47411117237663447
0.27423545343607686 0.7769680866169824 0.4834338420765063
0.27702078469140307 0.8973280269148429 0.38026875692765993
0.40058634393890347 0.8051223542095199 0.412897847175213
0.40018966869219225 0.8735859142932854 0.47411117237663447
0.4742354534360768 0.7769680866169824 0.4834338420765063
0.4770207846914031 0.8973280269148429 0.38026875692765993
0.6005863439389034 0.8051223542095199 0.412897847175213
0.6001896686921923 0.8735859142932854 0.47411117237663447
0.6742354534360768 0.7769680866169824 0.4834338420765063
0.6770207846914031 0.8973280269148429 0.38026875692765993
0.8005863439389036 0.8051223542095199 0.412897847175213
0.8001896686921923 0.8735859142932854 0.47411117237663447
0.8742354534360768 0.7769680866169824 0.4834338420765063
0.877020784691403 0.8973280269148429 0.38026875692765993
0.0005863439389034398 0.005122354209519944 0.612897847175213
0.00018966869219224082 0.07358591429328523 0.6741111723766345
0.07423545343607683 -0.023031913383017705 0.6834338420765063
0.07702078469140305 0.09732802691484291 0.5802687569276599
0.20058634393890343 0.005122354209519944 0.612897847175213
0.20018966869219224 0.07358591429328523 0.6741111723766345
0.27423545343607686 -0.023031913383017705 0.6834338420765063
0.27702078469140307 0.09732802691484291 0.5802687569276599
0.40058634393890347 0.005122354209519944 0.612897847175213
0.40018966869219225 0.07358591429328523 0.6741111723766345
0.4742354534360768 -0.023031913383017705 0.6834338420765063
0.4770207846914031 0.09732802691484291 0.5802687569276599
0.6005863439389034 0.005122354209519944 0.612897847175213
0.6001896686921923 0.07358591429328523 0.6741111723766345
0.6742354534360768 -0.023031913383017705 0.6834338420765063
0.6770207846914031 0.09732802691484291 0.5802687569276599
0.8005863439389036 0.005122354209519944 0.612897847175213
0.8001896686921923 0.07358591429328523 0.6741111723766345
0.8742354534360768 -0.023031913383017705 0.6834338420765063
0.877020784691403 0.09732802691484291 0.5802687569276599
0.0005863439389034398 0.20512235420951996 0.612897847175213
0.00018966869219224082 0.2735859142932852 0.6741111723766345
0.07423545343607683 0.1769680866169823 0.6834338420765063
0.07702078469140305 0.2973280269148429 0.5802687569276599
0.20058634393890343 0.20512235420951996 0.612897847175213
0.20018966869219224 0.2735859142932852 0.6741111723766345
0.27423545343607686 0.1769680866169823 0.6834338420765063
0.27702078469140307 0.2973280269148429 0.5802687569276599
0.40058634393890347 0.20512235420951996 0.612897847175213
0.40018966869219225 0.2735859142932852 0.6741111723766345
0.4742354534360768 0.1769680866169823 0.6834338420765063
0.4770207846914031 0.2973280269148429 0.5802687569276599
0.6005863439389034 0.20512235420951996 0.612897847175213
0.6001896686921923 0.2735859142932852 0.6741111723766345
0.6742354534360768 0.1769680866169823 0.6834338420765063
0.6770207846914031 0.2973280269148429 0.5802687569276599
0.8005863439389036 0.20512235420951996 0.612897847175213
0.8001896686921923 0.2735859142932852 0.6741111723766345
0.8742354534360768 0.1769680866169823 0.6834338420765063
0.877020784691403 0.2973280269148429 0.5802687569276599
0.0005863439389034398 0.4051223542095199 0.612897847175213
0.00018966869219224082 0.4735859142932853 0.6741111723766345
0.07423545343607683 0.37696808661698233 0.6834338420765063
0.07702078469140305 0.4973280269148429 0.5802687569276599
0.20058634393890343 0.4051223542095199 0.612897847175213
0.20018966869219224 0.4735859142932853 0.6741111723766345
0.27423545343607686 0.37696808661698233 0.6834338420765063
0.27702078469140307 0.4973280269148429 0.5802687569276599
0.40058634393890347 0.4051223542095199 0.612897847175213
0.40018966869219225 0.4735859142932853 0.6741111723766345
0.4742354534360768 0.37696808661698233 0.6834338420765063
0.4770207846914031 0.4973280269148429 0.5802687569276599
0.6005863439389034 0.4051223542095199 0.612897847175213
0.6001896686921923 0.4735859142932853 0.6741111723766345
0.6742354534360768 0.37696808661698233 0.6834338420765063
0.6770207846914031 0.4973280269148429 0.5802687569276599
0.8005863439389036 0.4051223542095199 0.612897847175213
0.8001896686921923 0.4735859142932853 0.6741111723766345
0.8742354534360768 0.37696808661698233 0.6834338420765063
0.877020784691403 0.4973280269148429 0.5802687569276599
0.0005863439389034398 0.60512235420952 0.612897847175213
0.00018966869219224082 0.6735859142932853 0.6741111723766345
0.07423545343607683 0.5769680866169823 0.6834338420765063
0.07702078469140305 0.697328026914843 0.5802687569276599
0.20058634393890343 0.60512235420952 0.612897847175213
0.20018966869219224 0.6735859142932853 0.6741111723766345
0.27423545343607686 0.5769680866169823 0.6834338420765063
0.27702078469140307 0.697328026914843 0.5802687569276599
0.40058634393890347 0.60512235420952 0.612897847175213
0.40018966869219225 0.6735859142932853 0.6741111723766345
0.4742354534360768 0.5769680866169823 0.6834338420765063
0.4770207846914031 0.697328026914843 0.5802687569276599
0.6005863439389034 0.60512235420952 0.612897847175213
0.6001896686921923 0.6735859142932853 0.6741111723766345
0.6742354534360768 0.5769680866169823 0.6834338420765063
0.6770207846914031 0.697328026914843 0.5802687569276599
0.8005863439389036 0.60512235420952 0.612897847175213
0.8001896686921923 0.6735859142932853 0.6741111723766345
0.8742354534360768 0.5769680866169823 0.6834338420765063
0.877020784691403 0.697328026914843 0.5802687569276599
0.0005863439389034398 0.8051223542095199 0.612897847175213
0.00018966869219224082 0.8735859142932854 0.6741111723766345
0.07423545343607683 0.7769680866169824 0.6834338420765063
0.07702078469140305 0.8973280269148429 0.5802687569276599
0.20058634393890343 0.8051223542095199 0.612897847175213
0.20018966869219224 0.8735859142932854 0.6741111723766345
0.27423545343607686 0.7769680866169824 0.6834338420765063
0.27702078469140307 0.8973280269148429 0.5802687569276599
0.40058634393890347 0.8051223542095199 0.612897847175213
0.40018966869219225 0.8735859142932854 0.6741111723766345
0.4742354534360768 0.7769680866169824 0.6834338420765063
0.4770207846914031 0.8973280269148429 0.5802687569276599
0.6005863439389034 0.8051223542095199 0.612897847175213
0.6001896686921923 0.8735859142932854 0.6741111723766345
0.6742354534360768 0.7769680866169824 0.6834338420765063
0.6770207846914031 0.8973280269148429 0.5802687569276599
0.8005863439389036 0.8051223542095199 0.612897847175213
0.8001896686921923 0.8735859142932854 0.6741111723766345
0.8742354534360768 0.7769680866169824 0.6834338420765063
0.877020784691403 0.8973280269148429 0.5802687569276599
0.0005863439389034398 0.005122354209519944 0.8128978471752131
0.00018966869219224082 0.07358591429328523 0.8741111723766345
0.07423545343607683 -0.023031913383017705 0.8834338420765063
0.07702078469140305 0.09732802691484291 0.78026875692766
0.20058634393890343 0.005122354209519944 0.8128978471752131
0.20018966869219224 0.07358591429328523 0.8741111723766345
0.27423545343607686 -0.023031913383017705 0.8834338420765063
0.27702078469140307 0.09732802691484291 0.78026875692766
0.40058634393890347 0.005122354209519944 0.8128978471752131
0.40018966869219225 0.07358591429328523 0.8741111723766345
0.4742354534360768 -0.023031913383017705 0.8834338420765063
0.4770207846914031 0.09732802691484291 0.78026875692766
0.6005863439389034 0.005122354209519944 0.8128978471752131
0.6001896686921923 0.07358591429328523 0.8741111723766345
0.6742354534360768 -0.023031913383017705 0.8834338420765063
0.6770207846914031 0.09732802691484291 0.78026875692766
0.8005863439389036 0.005122354209519944 0.8128978471752131
0.8001896686921923 0.07358591429328523 0.8741111723766345
0.8742354534360768 -0.023031913383017705 0.8834338420765063
0.877020784691403 0.09732802691484291 0.78026875692766
0.0005863439389034398 0.20512235420951996 0.8128978471752131
0.00018966869219224082 0.2735859142932852 0.8741111723766345
0.07423545343607683 0.1769680866169823 0.8834338420765063
0.07702078469140305 0.2973280269148429 0.78026875692766
0.20058634393890343 0.20512235420951996 0.8128978471752131
0.20018966869219224 0.2735859142932852 0.8741111723766345
0.27423545343607686 0.1769680866169823 0.8834338420765063
0.27702078469140307 0.2973280269148429 0.78026875692766
0.40058634393890347 0.20512235420951996 0.8128978471752131
0.40018966869219225 0.2735859142932852 0.8741111723766345
0.4742354534360768 0.1769680866169823 0.8834338420765063
0.4770207846914031 0.2973280269148429 0.78026875692766
0.6005863439389034 0.20512235420951996 0.8128978471752131
0.6001896686921923 0.2735859142932852 0.8741111723766345
0.6742354534360768 0.1769680866169823 0.8834338420765063
0.6770207846914031 0.2973280269148429 0.78026875692766
0.8005863439389036 0.20512235420951996 0.8128978471752131
0.8001896686921923 0.2735859142932852 0.8741111723766345
0.8742354534360768 0.1769680866169823 0.8834338420765063
0.877020784691403 0.2973280269148429 0.78026875692766
0.0005863439389034398 0.4051223542095199 0.8128978471752131
0.00018966869219224082 0.4735859142932853 0.8741111723766345
0.07423545343607683 0.37696808661698233 0.8834338420765063
0.07702078469140305 0.4973280269148429 0.78026875692766
0.20058634393890343 0.4051223542095199 0.8128978471752131
0.20018966869219224 0.4735859142932853 0.8741111723766345
0.27423545343607686 0.37696808661698233 0.8834338420765063
0.27702078469140307 0.4973280269148429 0.78026875692766
0.40058634393890347 0.4051223542095199 0.8128978471752131
0.40018966869219225 0.4735859142932853 0.8741111723766345
0.4742354534360768 0.37696808661698233 0.8834338420765063
0.4770207846914031 0.4973280269148429 0.78026875692766
0.6005863439389034 0.4051223542095199 0.8128978471752131
0.6001896686921923 0.4735859142932853 0.8741111723766345
0.6742354534360768 0.37696808661698233 0.8834338420765063
0.6770207846914031 0.4973280269148429 0.78026875692766
0.8005863439389036 0.4051223542095199 0.8128978471752131
0.8001896686921923 0.4735859142932853 0.8741111723766345
0.8742354534360768 0.37696808661698233 0.8834338420765063
0.877020784691403 0.4973280269148429 0.78026875692766
0.0005863439389034398 0.60512235420952 0.8128978471752131
0.00018966869219224082 0.6735859142932853 0.8741111723766345
0.07423545343607683 0.5769680866169823 0.8834338420765063
0.07702078469140305 0.697328026914843 0.78026875692766
0.20058634393890343 0.60512235420952 0.8128978471752131
0.20018966869219224 0.6735859142932853 0.8741111723766345
0.27423545343607686 0.5769680866169823 0.8834338420765063
0.27702078469140307 0.697328026914843 0.78026875692766
0.40058634393890347 0.60512235420952 0.8128978471752131
0.40018966869219225 0.6735859142932853 0.8741111723766345
0.4742354534360768 0.5769680866169823 0.8834338420765063
0.4770207846914031 0.697328026914843 0.78026875692766
0.6005863439389034 0.60512235420952 0.8128978471752131
0.6001896686921923 0.6735859142932853 0.8741111723766345
0.6742354534360768 0.5769680866169823 0.8834338420765063
0.6770207846914031 0.697328026914843 0.78026875692766
0.8005863439389036 0.60512235420952 0.8128978471752131
0.8001896686921923 0.6735859142932853 0.8741111723766345
0.8742354534360768 0.5769680866169823 0.8834338420765063
0.877020784691403 0.697328026914843 0.78026875692766
0.0005863439389034398 0.8051223542095199 0.8128978471752131
0.00018966869219224082 0.8735859142932854 0.8741111723766345
0.07423545343607683 0.7769680866169824 0.8834338420765063
0.07702078469140305 0.8973280269148429 0.78026875692766
0.20058634393890343 0.8051223542095199 0.8128978471752131
0.20018966869219224 0.8735859142932854 0.8741111723766345
0.27423545343607686 0.7769680866169824 0.8834338420765063
0.27702078469140307 0.8973280269148429 0.78026875692766
0.40058634393890347 0.8051223542095199 0.8128978471752131
0.40018966869219225 0.8735859142932854 0.8741111723766345
0.4742354534360768 0.7769680866169824 0.8834338420765063
0.4770207846914031 0.8973280269148429 0.78026875692766
0.6005863439389034 0.8051223542095199 0.8128978471752131
0.6001896686921923 0.8735859142932854 0.8741111723766345
0.6742354534360768 0.7769680866169824 0.8834338420765063
0.6770207846914031 0.8973280269148429 0.78026875692766
0.8005863439389036 0.8051223542095199 0.8128978471752131
0.8001896686921923 0.8735859142932854 0.8741111723766345
0.8742354534360768 0.7769680866169824 0.8834338420765063
0.877020784691403 0.8973280269148429 0.78026875692766
0.08045511366408735 0.0018497640058120714 0.0031506222186015185
-0.02934623479300563 0.10640812349607154 -0.027316102189494852
-0.020258354527477283 0.027275113517065387 0.11004512847896959
0.10178047528536738 0.08222640874611742 0.12798619317966062
0.2804551136640873 0.0018497640058120714 0.0031506222186015185
0.17065376520699438 0.10640812349607154 -0.027316102189494852
0.17974164547252272 0.027275113517065387 0.11004512847896959
0.3017804752853674 0.08222640874611742 0.12798619317966062
0.4804551136640874 0.0018497640058120714 0.0031506222186015185
0.3706537652069944 0.10640812349607154 -0.027316102189494852
0.37974164547252276 0.027275113517065387 0.11004512847896959
0.5017804752853674 0.08222640874611742 0.12798619317966062
0.6804551136640874 0.0018497640058120714 0.0031506222186015185
0.5706537652069944 0.10640812349607154 -0.027316102189494852
0.5797416454725227 0.027275113517065387 0.11004512847896959
0.7017804752853674 0.08222640874611742 0.12798619317966062
0.8804551136640874 0.0018497640058120714 0.0031506222186015185
0.7706537652069945 0.10640812349607154 -0.027316102189494852
0.7797416454725228 0.027275113517065387 0.11004512847896959
0.9017804752853675 0.08222640874611742 0.12798619317966062
0.08045511366408735 0.2018497640058121 0.0031506222186015185
-0.02934623479300563 0.3064081234960716 -0.027316102189494852
-0.020258354527477283 0.2272751135170654 0.11004512847896959
0.10178047528536738 0.28222640874611743 0.12798619317966062
0.2804551136640873 0.2018497640058121 0.0031506222186015185
0.17065376520699438 0.3064081234960716 -0.027316102189494852
0.17974164547252272 0.2272751135170654 0.11004512847896959
0.3017804752853674 0.28222640874611743 0.12798619317966062
0.4804551136640874 0.2018497640058121 0.0031506222186015185
0.3706537652069944 0.3064081234960716 -0.027316102189494852
0.37974164547252276 0.2272751135170654 0.11004512847896959
0.5017804752853674 0.28222640874611743 0.12798619317966062
0.6804551136640874 0.2018497640058121 0.0031506222186015185
0.5706537652069944 0.3064081234960716 -0.027316102189494852
0.5797416454725227 0.2272751135170654 0.11004512847896959
0.7017804752853674 0.28222640874611743 0.12798619317966062
0.8804551136640874 0.2018497640058121 0.0031506222186015185
0.7706537652069945 0.3064081234960716 -0.027316102189494852
0.7797416454725228 0.2272751135170654 0.11004512847896959
0.9017804752853675 0.28222640874611743 0.12798619317966062
0.08045511366408735 0.40184976400581207 0.0031506222186015185
-0.02934623479300563 0.5064081234960716 -0.027316102189494852
-0.020258354527477283 0.4272751135170654 0.11004512847896959
0.10178047528536738 0.48222640874611744 0.12798619317966062
0.2804551136640873 0.40184976400581207 0.0031506222186015185
0.17065376520699438 0.5064081234960716 -0.027316102189494852
0.17974164547252272 0.4272751135170654 0.11004512847896959
0.3017804752853674 0.48222640874611744 0.12798619317966062
0.4804551136640874 0.40184976400581207 0.0031506222186015185
0.3706537652069944 0.5064081234960716 -0.027316102189494852
0.37974164547252276 0.4272751135170654 0.11004512847896959
0.5017804752853674 0.48222640874611744 0.12798619317966062
0.6804551136640874 0.40184976400581207 0.0031506222186015185
0.5706537652069944 0.5064081234960716 -0.027316102189494852
0.5797416454725227 0.4272751135170654 0.11004512847896959
0.7017804752853674 0.48222640874611744 0.12798619317966062
0.8804551136640874 0.40184976400581207 0.0031506222186015185
0.7706537652069945 0.5064081234960716 -0.027316102189494852
0.7797416454725228 0.4272751135170654 0.11004512847896959
0.9017804752853675 0.48222640874611744 0.12798619317966062
0.08045511366408735 0.601849764005812 0.0031506222186015185
-0.02934623479300563 0.7064081234960716 -0.027316102189494852
-0.020258354527477283 0.6272751135170654 0.11004512847896959
0.10178047528536738 0.6822264087461174 0.12798619317966062
0.2804551136640873 0.601849764005812 0.0031506222186015185
0.17065376520699438 0.7064081234960716 -0.027316102189494852
0.17974164547252272 0.6272751135170654 0.11004512847896959
0.3017804752853674 0.6822264087461174 0.12798619317966062
0.4804551136640874 0.601849764005812 0.0031506222186015185
0.3706537652069944 0.7064081234960716 -0.027316102189494852
0.37974164547252276 0.6272751135170654 0.11004512847896959
0.5017804752853674 0.6822264087461174 0.12798619317966062
0.6804551136640874 0.601849764005812 0.0031506222186015185
0.5706537652069944 0.7064081234960716 -0.027316102189494852
0.5797416454725227 0.6272751135170654 0.11004512847896959
0.7017804752853674 0.6822264087461174 0.12798619317966062
0.8804551136640874 0.601849764005812 0.0031506222186015185
0.7706537652069945 0.7064081234960716 -0.027316102189494852
0.7797416454725228 0.6272751135170654 0.11004512847896959
0.9017804752853675 0.6822264087461174 0.12798619317966062
0.08045511366408735 0.8018497640058121 0.0031506222186015185
-0.02934623479300563 0.9064081234960716 -0.027316102189494852
-0.020258354527477283 0.8272751135170655 0.11004512847896959
0.10178047528536738 0.8822264087461176 0.12798619317966062
0.2804551136640873 0.8018497640058121 0.0031506222186015185
0.17065376520699438 0.9064081234960716 -0.027316102189494852
0.17974164547252272 0.8272751135170655 0.11004512847896959
0.3017804752853674 0.8822264087461176 0.12798619317966062
0.4804551136640874 0.8018497640058121 0.0031506222186015185
0.3706537652069944 0.9064081234960716 -0.027316102189494852
0.37974164547252276 0.8272751135170655 0.11004512847896959
0.5017804752853674 0.8822264087461176 0.12798619317966062
0.6804551136640874 0.8018497640058121 0.0031506222186015185
0.5706537652069944 0.9064081234960716 -0.027316102189494852
0.5797416454725227 0.8272751135170655 0.11004512847896959
0.7017804752853674 0.8822264087461176 0.12798619317966062
0.8804551136640874 0.8018497640058121 0.0031506222186015185
0.7706537652069945 0.9064081234960716 -0.027316102189494852
0.7797416454725228 0.8272751135170655 0.11004512847896959
0.9017804752853675 0.8822264087461176 0.12798619317966062
0.08045511366408735 0.0018497640058120714 0.20315062221860153
-0.02934623479300563 0.10640812349607154 0.17268389781050517
-0.020258354527477283 0.027275113517065387 0.3100451284789696
0.10178047528536738 0.08222640874611742 0.3279861931796606
0.2804551136640873 0.0018497640058120714 0.20315062221860153
0.17065376520699438 0.10640812349607154 0.17268389781050517
0.17974164547252272 0.027275113517065387 0.3100451284789696
0.3017804752853674 0.08222640874611742 0.3279861931796606
0.4804551136640874 0.0018497640058120714 0.20315062221860153
0.3706537652069944 0.10640812349607154 0.17268389781050517
0.37974164547252276 0.027275113517065387 0.3100451284789696
0.5017804752853674 0.08222640874611742 0.3279861931796606
0.6804551136640874 0.0018497640058120714 0.20315062221860153
0.5706537652069944 0.10640812349607154 0.17268389781050517
0.5797416454725227 0.027275113517065387 0.3100451284789696
0.7017804752853674 0.08222640874611742 0.3279861931796606
0.8804551136640874 0.0018497640058120714 0.20315062221860153
0.7706537652069945 0.10640812349607154 0.17268389781050517
0.7797416454725228 0.027275113517065387 0.3100451284789696
0.9017804752853675 0.08222640874611742 0.3279861931796606
0.08045511366408735 0.2018497640058121 0.20315062221860153
-0.02934623479300563 0.3064081234960716 0.17268389781050517
-0.020258354527477283 0.2272751135170654 0.3100451284789696
0.10178047528536738 0.28222640874611743 0.3279861931796606
0.2804551136640873 0.2018497640058121 0.20315062221860153
0.17065376520699438 0.3064081234960716 0.17268389781050517
0.17974164547252272 0.2272751135170654 0.3100451284789696
0.3017804752853674 0.28222640874611743 0.3279861931796606
0.4804551136640874 0.2018497640058121 0.20315062221860153
0.3706537652069944 0.3064081234960716 0.17268389781050517
0.37974164547252276 0.2272751135170654 0.3100451284789696
0.5017804752853674 0.28222640874611743 0.3279861931796606
0.6804551136640874 0.2018497640058121 0.20315062221860153
0.5706537652069944 0.3064081234960716 0.17268389781050517
0.5797416454725227 0.2272751135170654 0.3100451284789696
0.7017804752853674 0.28222640874611743 0.3279861931796606
0.8804551136640874 0.2018497640058121 0.20315062221860153
0.7706537652069945 0.3064081234960716 0.17268389781050517
0.7797416454725228 0.2272751135170654 0.3100451284789696
0.9017804752853675 0.28222640874611743 0.3279861931796606
0.08045511366408735 0.40184976400581207 0.20315062221860153
-0.02934623479300563 0.5064081234960716 0.17268389781050517
-0.020258354527477283 0.4272751135170654 0.3100451284789696
0.10178047528536738 0.48222640874611744 0.3279861931796606
0.2804551136640873 0.40184976400581207 0.20315062221860153
0.17065376520699438 0.5064081234960716 0.17268389781050517
0.17974164547252272 0.4272751135170654 0.3100451284789696
0.3017804752853674 0.48222640874611744 0.3279861931796606
0.4804551136640874 0.40184976400581207 0.20315062221860153
0.3706537652069944 0.5064081234960716 0.17268389781050517
0.37974164547252276 0.4272751135170654 0.3100451284789696
0.5017804752853674 0.48222640874611744 0.3279861931796606
0.6804551136640874 0.40184976400581207 0.20315062221860153
0.5706537652069944 0.5064081234960716 0.17268389781050517
0.5797416454725227 0.4272751135170654 0.3100451284789696
0.7017804752853674 0.48222640874611744 0.3279861931796606
0.8804551136640874 0.40184976400581207 0.20315062221860153
0.7706537652069945 0.5064081234960716 0.17268389781050517
0.7797416454725228 0.4272751135170654 0.3100451284789696
0.9017804752853675 0.48222640874611744 0.3279861931796606
0.08045511366408735 0.601849764005812 0.20315062221860153
-0.02934623479300563 0.7064081234960716 0.17268389781050517
-0.020258354527477283 0.6272751135170654 0.3100451284789696
0.10178047528536738 0.6822264087461174 0.3279861931796606
0.2804551136640873 0.601849764005812 0.20315062221860153
0.17065376520699438 0.7064081234960716 0.17268389781050517
0.17974164547252272 0.6272751135170654 0.3100451284789696
0.3017804752853674 0.6822264087461174 0.3279861931796606
0.4804551136640874 0.601849764005812 0.20315062221860153
0.3706537652069944 0.7064081234960716 0.17268389781050517
0.37974164547252276 0.6272751135170654 0.3100451284789696
0.5017804752853674 0.6822264087461174 0.3279861931796606
0.6804551136640874 0.601849764005812 0.20315062221860153
0.5706537652069944 0.7064081234960716 0.17268389781050517
0.5797416454725227 0.6272751135170654 0.3100451284789696
0.7017804752853674 0.6822264087461174 0.3279861931796606
0.8804551136640874 0.601849764005812 0.20315062221860153
0.7706537652069945 0.7064081234960716 0.17268389781050517
0.7797416454725228 0.6272751135170654 0.3100451284789696
0.9017804752853675 0.6822264087461174 0.3279861931796606
0.08045511366408735 0.8018497640058121 0.20315062221860153
-0.02934623479300563 0.9064081234960716 0.17268389781050517
-0.020258354527477283 0.8272751135170655 0.3100451284789696
0.10178047528536738 0.8822264087461176 0.3279861931796606
0.2804551136640873 0.8018497640058121 0.20315062221860153
0.17065376520699438 0.9064081234960716 0.17268389781050517
0.17974164547252272 0.8272751135170655 0.3100451284789696
0.3017804752853674 0.8822264087461176 0.3279861931796606
0.4804551136640874 0.8018497640058121 0.20315062221860153
0.3706537652069944 0.9064081234960716 0.17268389781050517
0.37974164547252276 0.8272751135170655 0.3100451284789696
0.5017804752853674 0.8822264087461176 0.3279861931796606
0.6804551136640874 0.8018497640058121 0.20315062221860153
0.5706537652069944 0.9064081234960716 0.17268389781050517
0.5797416454725227 0.8272751135170655 0.3100451284789696
0.7017804752853674 0.8822264087461176 0.3279861931796606
0.8804551136640874 0.8018497640058121 0.20315062221860153
0.7706537652069945 0.9064081234960716 0.17268389781050517
0.7797416454725228 0.8272751135170655 0.3100451284789696
0.9017804752853675 0.8822264087461176 0.3279861931796606
0.08045511366408735 0.0018497640058120714 0.4031506222186016
-0.02934623479300563 0.10640812349607154 0.37268389781050515
-0.020258354527477283 0.027275113517065387 0.5100451284789695
0.10178047528536738 0.08222640874611742 0.5279861931796607
0.2804551136640873 0.0018497640058120714 0.4031506222186016
0.17065376520699438 0.10640812349607154 0.37268389781050515
0.17974164547252272 0.027275113517065387 0.5100451284789695
0.3017804752853674 0.08222640874611742 0.5279861931796607
0.4804551136640874 0.0018497640058120714 0.4031506222186016
0.3706537652069944 0.10640812349607154 0.37268389781050515
0.37974164547252276 0.027275113517065387 0.5100451284789695
0.5017804752853674 0.08222640874611742 0.5279861931796607
0.6804551136640874 0.0018497640058120714 0.4031506222186016
0.5706537652069944 0.10640812349607154 0.37268389781050515
0.5797416454725227 0.027275113517065387 0.5100451284789695
0.7017804752853674 0.08222640874611742 0.5279861931796607
0.8804551136640874 0.0018497640058120714 0.4031506222186016
0.7706537652069945 0.10640812349607154 0.37268389781050515
0.7797416454725228 0.027275113517065387 0.5100451284789695
0.9017804752853675 0.08222640874611742 0.5279861931796607
0.08045511366408735 0.2018497640058121 0.4031506222186016
-0.02934623479300563 0.3064081234960716 0.37268389781050515
-0.020258354527477283 0.2272751135170654 0.5100451284789695
0.10178047528536738 0.28222640874611743 0.5279861931796607
0.2804551136640873 0.2018497640058121 0.4031506222186016
0.17065376520699438 0.3064081234960716 0.37268389781050515
0.17974164547252272 0.2272751135170654 0.5100451284789695
0.3017804752853674 0.28222640874611743 0.5279861931796607
0.4804551136640874 0.2018497640058121 0.4031506222186016
0.3706537652069944 0.3064081234960716 0.37268389781050515
0.37974164547252276 0.2272751135170654 0.5100451284789695
0.5017804752853674 0.28222640874611743 0.5279861931796607
0.6804551136640874 0.2018497640058121 0.4031506222186016
0.5706537652069944 0.3064081234960716 0.37268389781050515
0.5797416454725227 0.2272751135170654 0.5100451284789695
0.7017804752853674 0.28222640874611743 0.5279861931796607
0.8804551136640874 0.2018497640058121 0.4031506222186016
0.7706537652069945 0.3064081234960716 0.37268389781050515
0.7797416454725228 0.2272751135170654 0.5100451284789695
0.9017804752853675 0.28222640874611743 0.5279861931796607
0.08045511366408735 0.40184976400581207 0.4031506222186016
-0.02934623479300563 0.5064081234960716 0.37268389781050515
-0.020258354527477283 0.4272751135170654 0.5100451284789695
0.10178047528536738 0.48222640874611744 0.5279861931796607
0.2804551136640873 0.40184976400581207 0.4031506222186016
0.17065376520699438 0.5064081234960716 0.37268389781050515
0.17974164547252272 0.4272751135170654 0.5100451284789695
0.3017804752853674 0.48222640874611744 0.5279861931796607
0.4804551136640874 0.40184976400581207 0.4031506222186016
0.3706537652069944 0.5064081234960716 0.37268389781050515
0.37974164547252276 0.4272751135170654 0.5100451284789695
0.5017804752853674 0.48222640874611744 0.5279861931796607
0.6804551136640874 0.40184976400581207 0.4031506222186016
0.5706537652069944 0.5064081234960716 0.37268389781050515
0.5797416454725227 0.4272751135170654 0.5100451284789695
0.7017804752853674 0.48222640874611744 0.5279861931796607
0.8804551136640874 0.40184976400581207 0.4031506222186016
0.7706537652069945 0.5064081234960716 0.37268389781050515
0.7797416454725228 0.4272751135170654 0.5100451284789695
0.9017804752853675 0.48222640874611744 0.5279861931796607
0.08045511366408735 0.601849764005812 0.4031506222186016
-0.02934623479300563 0.7064081234960716 0.37268389781050515
-0.020258354527477283 0.6272751135170654 0.5100451284789695
0.10178047528536738 0.6822264087461174 0.5279861931796607
0.2804551136640873 0.601849764005812 0.4031506222186016
0.17065376520699438 0.7064081234960716 0.37268389781050515
0.17974164547252272 0.6272751135170654 0.5100451284789695
0.3017804752853674 0.6822264087461174 0.5279861931796607
0.4804551136640874 0.601849764005812 0.4031506222186016
0.3706537652069944 0.7064081234960716 0.37268389781050515
0.37974164547252276 0.6272751135170654 0.5100451284789695
0.5017804752853674 0.6822264087461174 0.5279861931796607
0.6804551136640874 0.601849764005812 0.4031506222186016
0.5706537652069944 0.7064081234960716 0.37268389781050515
0.5797416454725227 0.6272751135170654 0.5100451284789695
0.7017804752853674 0.6822264087461174 0.5279861931796607
0.8804551136640874 0.601849764005812 0.4031506222186016
0.7706537652069945 0.7064081234960716 0.37268389781050515
0.7797416454725228 0.6272751135170654 0.5100451284789695
0.9017804752853675 0.6822264087461174 0.5279861931796607
0.08045511366408735 0.8018497640058121 0.4031506222186016
-0.02934623479300563 0.9064081234960716 0.37268389781050515
-0.020258354527477283 0.8272751135170655 0.5100451284789695
0.10178047528536738 0.8822264087461176 0.5279861931796607
0.2804551136640873 0.8018497640058121 0.4031506222186016
0.17065376520699438 0.9064081234960716 0.37268389781050515
0.17974164547252272 0.8272751135170655 0.5100451284789695
0.3017804752853674 0.8822264087461176 0.5279861931796607
0.4804551136640874 0.8018497640058121 0.4031506222186016
0.3706537652069944 0.9064081234960716 0.37268389781050515
0.37974164547252276 0.8272751135170655 0.5100451284789695
0.5017804752853674 0.8822264087461176 0.5279861931796607
0.6804551136640874 0.8018497640058121 0.4031506222186016
0.5706537652069944 0.9064081234960716 0.37268389781050515
0.5797416454725227 0.8272751135170655 0.5100451284789695
0.7017804752853674 0.8822264087461176 0.5279861931796607
0.8804551136640874 0.8018497640058121 0.4031506222186016
0.7706537652069945 0.9064081234960716 0.37268389781050515
0.7797416454725228 0.8272751135170655 0.5100451284789695
0.9017804752853675 0.8822264087461176 0.5279861931796607
0.08045511366408735 0.0018497640058120714 0.6031506222186016
-0.02934623479300563 0.10640812349607154 0.5726838978105052
-0.020258354527477283 0.027275113517065387 0.7100451284789696
0.10178047528536738 0.08222640874611742 0.7279861931796607
0.2804551136640873 0.0018497640058120714 0.6031506222186016
0.17065376520699438 0.10640812349607154 0.5726838978105052
0.17974164547252272 0.027275113517065387 0.7100451284789696
0.3017804752853674 0.08222640874611742 0.7279861931796607
0.4804551136640874 0.0018497640058120714 0.6031506222186016
0.3706537652069944 0.10640812349607154 0.5726838978105052
0.37974164547252276 0.027275113517065387 0.7100451284789696
0.5017804752853674 0.08222640874611742 0.7279861931796607
0.6804551136640874 0.0018497640058120714 0.6031506222186016
0.5706537652069944 0.10640812349607154 0.5726838978105052
0.5797416454725227 0.027275113517065387 0.7100451284789696
0.7017804752853674 0.08222640874611742 0.7279861931796607
0.8804551136640874 0.0018497640058120714 0.6031506222186016
0.7706537652069945 0.10640812349607154 0.5726838978105052
0.7797416454725228 0.027275113517065387 0.7100451284789696
0.9017804752853675 0.08222640874611742 0.7279861931796607
0.08045511366408735 0.2018497640058121 0.6031506222186016
-0.02934623479300563 0.3064081234960716 0.5726838978105052
-0.020258354527477283 0.2272751135170654 0.7100451284789696
0.10178047528536738 0.28222640874611743 0.7279861931796607
0.2804551136640873 0.2018497640058121 0.6031506222186016
0.17065376520699438 0.3064081234960716 0.5726838978105052
0.17974164547252272 0.2272751135170654 0.7100451284789696
0.3017804752853674 0.28222640874611743 0.7279861931796607
0.4804551136640874 0.2018497640058121 0.6031506222186016
0.3706537652069944 0.3064081234960716 0.5726838978105052
0.37974164547252276 0.2272751135170654 0.7100451284789696
0.5017804752853674 0.28222640874611743 0.7279861931796607
0.6804551136640874 0.2018497640058121 0.6031506222186016
0.5706537652069944 0.3064081234960716 0.5726838978105052
0.5797416454725227 0.2272751135170654 0.7100451284789696
0.7017804752853674 0.28222640874611743 0.7279861931796607
0.8804551136640874 0.2018497640058121 0.6031506222186016
0.7706537652069945 0.3064081234960716 0.5726838978105052
0.7797416454725228 0.2272751135170654 0.7100451284789696
0.9017804752853675 0.28222640874611743 0.7279861931796607
0.08045511366408735 0.40184976400581207 0.6031506222186016
-0.02934623479300563 0.5064081234960716 0.5726838978105052
-0.020258354527477283 0.4272751135170654 0.7100451284789696
0.10178047528536738 0.48222640874611744 0.7279861931796607
0.2804551136640873 0.40184976400581207 0.6031506222186016
0.17065376520699438 0.5064081234960716 0.5726838978105052
0.17974164547252272 0.4272751135170654 0.7100451284789696
0.3017804752853674 0.48222640874611744 0.7279861931796607
0.4804551136640874 0.40184976400581207 0.6031506222186016
0.3706537652069944 0.5064081234960716 0.5726838978105052
0.37974164547252276 0.4272751135170654 0.7100451284789696
0.5017804752853674 0.48222640874611744 0.7279861931796607
0.6804551136640874 0.40184976400581207 0.6031506222186016
0.5706537652069944 0.5064081234960716 0.5726838978105052
0.5797416454725227 0.4272751135170654 0.7100451284789696
0.7017804752853674 0.48222640874611744 0.7279861931796607
0.8804551136640874 0.40184976400581207 0.6031506222186016
0.7706537652069945 0.5064081234960716 0.5726838978105052
0.7797416454725228 0.4272751135170654 0.7100451284789696
0.9017804752853675 0.48222640874611744 0.7279861931796607
0.08045511366408735 0.601849764005812 0.6031506222186016
-0.02934623479300563 0.7064081234960716 0.5726838978105052
-0.020258354527477283 0.6272751135170654 0.7100451284789696
0.10178047528536738 0.6822264087461174 0.7279861931796607
0.2804551136640873 0.601849764005812 0.6031506222186016
0.17065376520699438 0.7064081234960716 0.5726838978105052
0.17974164547252272 0.6272751135170654 0.7100451284789696
0.3017804752853674 0.6822264087461174 0.7279861931796607
0.4804551136640874 0.601849764005812 0.6031506222186016
0.3706537652069944 0.7064081234960716 0.5726838978105052
0.37974164547252276 0.6272751135170654 0.7100451284789696
0.5017804752853674 0.6822264087461174 0.7279861931796607
0.6804551136640874 0.601849764005812 0.6031506222186016
0.5706537652069944 0.7064081234960716 0.5726838978105052
0.5797416454725227 0.6272751135170654 0.7100451284789696
0.7017804752853674 0.6822264087461174 0.7279861931796607
0.8804551136640874 0.601849764005812 0.6031506222186016
0.7706537652069945 0.7064081234960716 0.5726838978105052
0.7797416454725228 0.6272751135170654 0.7100451284789696
0.9017804752853675 0.6822264087461174 0.7279861931796607
0.08045511366408735 0.8018497640058121 0.6031506222186016
-0.02934623479300563 0.9064081234960716 0.5726838978105052
-0.020258354527477283 0.8272751135170655 0.7100451284789696
0.10178047528536738 0.8822264087461176 0.7279861931796607
0.2804551136640873 0.8018497640058121 0.6031506222186016
0.17065376520699438 0.9064081234960716 0.5726838978105052
0.17974164547252272 0.8272751135170655 0.7100451284789696
0.3017804752853674 0.8822264087461176 0.7279861931796607
0.4804551136640874 0.8018497640058121 0.6031506222186016
0.3706537652069944 0.9064081234960716 0.5726838978105052
0.37974164547252276 0.8272751135170655 0.7100451284789696
0.5017804752853674 0.8822264087461176 0.7279861931796607
0.6804551136640874 0.8018497640058121 0.6031506222186016
0.5706537652069944 0.9064081234960716 0.5726838978105052
0.5797416454725227 0.8272751135170655 0.7100451284789696
0.7017804752853674 0.8822264087461176 0.7279861931796607
0.8804551136640874 0.8018497640058121 0.6031506222186016
0.7706537652069945 0.9064081234960716 0.5726838978105052
0.7797416454725228 0.8272751135170655 0.7100451284789696
0.9017804752853675 0.8822264087461176 0.7279861931796607
0.08045511366408735 0.0018497640058120714 0.8031506222186016
-0.02934623479300563 0.10640812349607154 0.7726838978105053
-0.020258354527477283 0.027275113517065387 0.9100451284789696
0.10178047528536738 0.08222640874611742 0.9279861931796607
0.2804551136640873 0.0018497640058120714 0.8031506222186016
0.17065376520699438 0.10640812349607154 0.7726838978105053
0.17974164547252272 0.027275113517065387 0.9100451284789696
0.3017804752853674 0.08222640874611742 0.9279861931796607
0.4804551136640874 0.0018497640058120714 0.8031506222186016
0.3706537652069944 0.10640812349607154 0.7726838978105053
0.37974164547252276 0.027275113517065387 0.9100451284789696
0.5017804752853674 0.08222640874611742 0.9279861931796607
0.6804551136640874 0.0018497640058120714 0.8031506222186016
0.5706537652069944 0.10640812349607154 0.7726838978105053
0.5797416454725227 0.027275113517065387 0.9100451284789696
0.7017804752853674 0.08222640874611742 0.9279861931796607
0.8804551136640874 0.0018497640058120714 0.8031506222186016
0.7706537652069945 0.10640812349607154 0.7726838978105053
0.7797416454725228 0.027275113517065387 0.9100451284789696
0.9017804752853675 0.08222640874611742 0.9279861931796607
0.08045511366408735 0.2018497640058121 0.8031506222186016
-0.02934623479300563 0.3064081234960716 0.7726838978105053
-0.020258354527477283 0.2272751135170654 0.9100451284789696
0.10178047528536738 0.28222640874611743 0.9279861931796607
0.2804551136640873 0.2018497640058121 0.8031506222186016
0.17065376520699438 0.3064081234960716 0.7726838978105053
0.17974164547252272 0.2272751135170654 0.9100451284789696
0.3017804752853674 0.28222640874611743 0.9279861931796607
0.4804551136640874 0.2018497640058121 0.8031506222186016
0.3706537652069944 0.3064081234960716 0.7726838978105053
0.37974164547252276 0.2272751135170654 0.9100451284789696
0.5017804752853674 0.28222640874611743 0.9279861931796607
0.6804551136640874 0.2018497640058121 0.8031506222186016
0.5706537652069944 0.3064081234960716 0.7726838978105053
0.5797416454725227 0.2272751135170654 0.9100451284789696
0.7017804752853674 0.28222640874611743 0.9279861931796607
0.8804551136640874 0.2018497640058121 0.8031506222186016
0.7706537652069945 0.3064081234960716 0.7726838978105053
0.7797416454725228 0.2272751135170654 0.9100451284789696
0.9017804752853675 0.28222640874611743 0.9279861931796607
0.08045511366408735 0.40184976400581207 0.8031506222186016
-0.02934623479300563 0.5064081234960716 0.7726838978105053
-0.020258354527477283 0.4272751135170654 0.9100451284789696
0.10178047528536738 0.48222640874611744 0.9279861931796607
0.2804551136640873 0.40184976400581207 0.8031506222186016
0.17065376520699438 0.5064081234960716 0.7726838978105053
0.17974164547252272 0.4272751135170654 0.9100451284789696
0.3017804752853674 0.48222640874611744 0.9279861931796607
0.4804551136640874 0.40184976400581207 0.8031506222186016
0.3706537652069944 0.5064081234960716 0.7726838978105053
0.37974164547252276 0.4272751135170654 0.9100451284789696
0.5017804752853674 0.48222640874611744 0.9279861931796607
0.6804551136640874 0.40184976400581207 0.8031506222186016
0.5706537652069944 0.5064081234960716 0.7726838978105053
0.5797416454725227 0.4272751135170654 0.9100451284789696
0.7017804752853674 0.48222640874611744 0.9279861931796607
0.8804551136640874 0.40184976400581207 0.8031506222186016
0.7706537652069945 0.5064081234960716 0.7726838978105053
0.7797416454725228 0.4272751135170654 0.9100451284789696
0.9017804752853675 0.48222640874611744 0.9279861931796607
0.08045511366408735 0.601849764005812 0.8031506222186016
-0.02934623479300563 0.7064081234960716 0.7726838978105053
-0.020258354527477283 0.6272751135170654 0.9100451284789696
0.10178047528536738 0.6822264087461174 0.9279861931796607
0.2804551136640873 0.601849764005812 0.8031506222186016
0.17065376520699438 0.7064081234960716 0.7726838978105053
0.17974164547252272 0.6272751135170654 0.9100451284789696
0.3017804752853674 0.6822264087461174 0.9279861931796607
0.4804551136640874 0.601849764005812 0.8031506222186016
0.3706537652069944 0.7064081234960716 0.7726838978105053
0.37974164547252276 0.6272751135170654 0.9100451284789696
0.5017804752853674 0.6822264087461174 0.9279861931796607
0.6804551136640874 0.601849764005812 0.8031506222186016
0.5706537652069944 0.7064081234960716 0.7726838978105053
0.5797416454725227 0.6272751135170654 0.9100451284789696
0.7017804752853674 0.6822264087461174 0.9279861931796607
0.8804551136640874 0.601849764005812 0.8031506222186016
0.7706537652069945 0.7064081234960716 0.7726838978105053
0.7797416454725228 0.6272751135170654 0.9100451284789696
0.9017804752853675 0.6822264087461174 0.9279861931796607
0.08045511366408735 0.8018497640058121 0.8031506222186016
-0.02934623479300563 0.9064081234960716 0.7726838978105053
-0.020258354527477283 0.8272751135170655 0.9100451284789696
0.10178047528536738 0.8822264087461176 0.9279861931796607
0.2804551136640873 0.8018497640058121 0.8031506222186016
0.17065376520699438 0.9064081234960716 0.7726838978105053
0.17974164547252272 0.8272751135170655 0.9100451284789696
0.3017804752853674 0.8822264087461176 0.9279861931796607
0.4804551136640874 0.8018497640058121 0.8031506222186016
0.3706537652069944 0.9064081234960716 0.7726838978105053
0.37974164547252276 0.8272751135170655 0.9100451284789696
0.5017804752853674 0.8822264087461176 0.9279861931796607
0.6804551136640874 0.8018497640058121 0.8031506222186016
0.5706537652069944 0.9064081234960716 0.7726838978105053
0.5797416454725227 0.8272751135170655 0.9100451284789696
0.7017804752853674 0.8822264087461176 0.9279861931796607
0.8804551136640874 0.8018497640058121 0.8031506222186016
0.7706537652069945 0.9064081234960716 0.7726838978105053
0.7797416454725228 0.8272751135170655 0.9100451284789696
0.9017804752853675 0.8822264087461176 0.9279861931796607
