FCC BaO
5.61604
3.0 0.0 0.0
0.0 3.0 0.0
0.0 0.0 3.0
Ba O 
108 108 
Direct
-0.47564929338037776 0.3164197004314093 -0.5038120014411278
-0.07214797475764789 -0.2617473801286358 -0.33911625457808137
-0.5863732764007439 0.47240573253226525 -0.6743293067866725
-0.36274880602834886 -0.9166193333692104 0.06849998859177447
-0.14231596004704442 0.3164197004314093 -0.5038120014411278
0.2611853585756854 -0.2617473801286358 -0.33911625457808137
-0.2530399430674105 0.47240573253226525 -0.6743293067866725
-0.029415472695015543 -0.9166193333692104 0.06849998859177447
0.1910173732862889 0.3164197004314093 -0.5038120014411278
0.5945186919090187 -0.2617473801286358 -0.33911625457808137
0.08029339026592278 0.47240573253226525 -0.6743293067866725
0.30391786063831777 -0.9166193333692104 0.06849998859177447
-0.47564929338037776 0.6497530337647426 -0.5038120014411278
-0.07214797475764789 0.07158595320469752 -0.33911625457808137
-0.5863732764007439 0.8057390658655985 -0.6743293067866725
-0.36274880602834886 -0.583286000035877 0.06849998859177447
-0.14231596004704442 0.6497530337647426 -0.5038120014411278
0.2611853585756854 0.07158595320469752 -0.33911625457808137
-0.2530399430674105 0.8057390658655985 -0.6743293067866725
-0.029415472695015543 -0.583286000035877 0.06849998859177447
0.1910173732862889 0.6497530337647426 -0.5038120014411278
0.5945186919090187 0.07158595320469752 -0.33911625457808137
0.08029339026592278 0.8057390658655985 -0.6743293067866725
0.30391786063831777 -0.583286000035877 0.06849998859177447
-0.47564929338037776 0.9830863670980758 -0.5038120014411278
-0.07214797475764789 0.4049192865380308 -0.33911625457808137
-0.5863732764007439 1.1390723991989318 -0.6743293067866725
-0.36274880602834886 -0.2499526667025438 0.06849998859177447
-0.14231596004704442 0.9830863670980758 -0.5038120014411278
0.2611853585756854 0.4049192865380308 -0.33911625457808137
-0.2530399430674105 1.1390723991989318 -0.6743293067866725
-0.029415472695015543 -0.2499526667025438 0.06849998859177447
0.1910173732862889 0.9830863670980758 -0.5038120014411278
0.5945186919090187 0.4049192865380308 -0.33911625457808137
0.08029339026592278 1.1390723991989318 -0.6743293067866725
0.30391786063831777 -0.2499526667025438 0.06849998859177447
-0.47564929338037776 0.3164197004314093 -0.17047866810779447
-0.07214797475764789 -0.2617473801286358 -0.00578292124474807
-0.5863732764007439 0.47240573253226525 -0.3409959734533392
-0.36274880602834886 -0.9166193333692104 0.4018333219251078
-0.14231596004704442 0.3164197004314093 -0.17047866810779447
0.2611853585756854 -0.2617473801286358 -0.00578292124474807
-0.2530399430674105 0.47240573253226525 -0.3409959734533392
-0.029415472695015543 -0.9166193333692104 0.4018333219251078
0.1910173732862889 0.3164197004314093 -0.17047866810779447
0.5945186919090187 -0.2617473801286358 -0.00578292124474807
0.08029339026592278 0.47240573253226525 -0.3409959734533392
0.30391786063831777 -0.9166193333692104 0.4018333219251078
-0.47564929338037776 0.6497530337647426 -0.17047866810779447
-0.07214797475764789 0.07158595320469752 -0.00578292124474807
-0.5863732764007439 0.8057390658655985 -0.3409959734533392
-0.36274880602834886 -0.583286000035877 0.4018333219251078
-0.14231596004704442 0.6497530337647426 -0.17047866810779447
0.2611853585756854 0.07158595320469752 -0.00578292124474807
-0.2530399430674105 0.8057390658655985 -0.3409959734533392
-0.029415472695015543 -0.583286000035877 0.4018333219251078
0.1910173732862889 0.6497530337647426 -0.17047866810779447
0.5945186919090187 0.07158595320469752 -0.00578292124474807
0.08029339026592278 0.8057390658655985 -0.3409959734533392
0.30391786063831777 -0.583286000035877 0.4018333219251078
-0.47564929338037776 0.9830863670980758 -0.17047866810779447
-0.07214797475764789 0.4049192865380308 -0.00578292124474807
-0.5863732764007439 1.1390723991989318 -0.3409959734533392
-0.36274880602834886 -0.2499526667025438 0.4018333219251078
-0.14231596004704442 0.9830863670980758 -0.17047866810779447
0.2611853585756854 0.4049192865380308 -0.00578292124474807
-0.2530399430674105 1.1390723991989318 -0.3409959734533392
-0.029415472695015543 -0.2499526667025438 0.4018333219251078
0.1910173732862889 0.9830863670980758 -0.17047866810779447
0.5945186919090187 0.4049192865380308 -0.00578292124474807
0.08029339026592278 1.1390723991989318 -0.3409959734533392
0.30391786063831777 -0.2499526667025438 0.4018333219251078
-0.47564929338037776 0.3164197004314093 0.16285466522553885
-0.07214797475764789 -0.2617473801286358 0.32755041208858526
-0.5863732764007439 0.47240573253226525 -0.007662640120005873
-0.36274880602834886 -0.9166193333692104 0.735166655258441
-0.14231596004704442 0.3164197004314093 0.16285466522553885
0.2611853585756854 -0.2617473801286358 0.32755041208858526
-0.2530399430674105 0.47240573253226525 -0.007662640120005873
-0.029415472695015543 -0.9166193333692104 0.735166655258441
0.1910173732862889 0.3164197004314093 0.16285466522553885
0.5945186919090187 -0.2617473801286358 0.32755041208858526
0.08029339026592278 0.47240573253226525 -0.007662640120005873
0.30391786063831777 -0.9166193333692104 0.735166655258441
-0.47564929338037776 0.6497530337647426 0.16285466522553885
-0.07214797475764789 0.07158595320469752 0.32755041208858526
-0.5863732764007439 0.8057390658655985 -0.007662640120005873
-0.36274880602834886 -0.583286000035877 0.735166655258441
-0.14231596004704442 0.6497530337647426 0.16285466522553885
0.2611853585756854 0.07158595320469752 0.32755041208858526
-0.2530399430674105 0.8057390658655985 -0.007662640120005873
-0.029415472695015543 -0.583286000035877 0.735166655258441
0.1910173732862889 0.6497530337647426 0.16285466522553885
0.5945186919090187 0.07158595320469752 0.32755041208858526
0.08029339026592278 0.8057390658655985 -0.007662640120005873
0.30391786063831777 -0.583286000035877 0.735166655258441
-0.47564929338037776 0.9830863670980758 0.16285466522553885
-0.07214797475764789 0.4049192865380308 0.32755041208858526
-0.5863732764007439 1.1390723991989318 -0.007662640120005873
-0.36274880602834886 -0.2499526667025438 0.735166655258441
-0.14231596004704442 0.9830863670980758 0.16285466522553885
0.2611853585756854 0.4049192865380308 0.32755041208858526
-0.2530399430674105 1.1390723991989318 -0.007662640120005873
-0.029415472695015543 -0.2499526667025438 0.735166655258441
0.1910173732862889 0.9830863670980758 0.16285466522553885
0.5945186919090187 0.4049192865380308 0.32755041208858526
0.08029339026592278 1.1390723991989318 -0.007662640120005873
0.30391786063831777 -0.2499526667025438 0.735166655258441
0.2292138776846429 -0.22363823519779286 0.39827964343623823
0.4769205553073428 -0.4933239564757792 -0.4420844670268069
-0.03890720251403719 0.40031863971717063 0.8222161254132532
0.06972833505602005 0.38507500639069625 0.2552988902422374
0.5625472110179762 -0.22363823519779286 0.39827964343623823
0.810253888640676 -0.4933239564757792 -0.4420844670268069
0.29442613081929614 0.40031863971717063 0.8222161254132532
0.40306166838935337 0.38507500639069625 0.2552988902422374
0.8958805443513095 -0.22363823519779286 0.39827964343623823
1.1435872219740093 -0.4933239564757792 -0.4420844670268069
0.6277594641526294 0.40031863971717063 0.8222161254132532
0.7363950017226868 0.38507500639069625 0.2552988902422374
0.2292138776846429 0.10969509813554046 0.39827964343623823
0.4769205553073428 -0.15999062314244586 -0.4420844670268069
-0.03890720251403719 0.7336519730505039 0.8222161254132532
0.06972833505602005 0.7184083397240295 0.2552988902422374
0.5625472110179762 0.10969509813554046 0.39827964343623823
0.810253888640676 -0.15999062314244586 -0.4420844670268069
0.29442613081929614 0.7336519730505039 0.8222161254132532
0.40306166838935337 0.7184083397240295 0.2552988902422374
0.8958805443513095 0.10969509813554046 0.39827964343623823
1.1435872219740093 -0.15999062314244586 -0.4420844670268069
0.6277594641526294 0.7336519730505039 0.8222161254132532
0.7363950017226868 0.7184083397240295 0.2552988902422374
0.2292138776846429 0.4430284314688738 0.39827964343623823
0.4769205553073428 0.17334271019088746 -0.4420844670268069
-0.03890720251403719 1.0669853063838373 0.8222161254132532
0.06972833505602005 1.0517416730573628 0.2552988902422374
0.5625472110179762 0.4430284314688738 0.39827964343623823
0.810253888640676 0.17334271019088746 -0.4420844670268069
0.29442613081929614 1.0669853063838373 0.8222161254132532
0.40306166838935337 1.0517416730573628 0.2552988902422374
0.8958805443513095 0.4430284314688738 0.39827964343623823
1.1435872219740093 0.17334271019088746 -0.4420844670268069
0.6277594641526294 1.0669853063838373 0.8222161254132532
0.7363950017226868 1.0517416730573628 0.2552988902422374
0.2292138776846429 -0.22363823519779286 0.7316129767695716
0.4769205553073428 -0.4933239564757792 -0.10875113369347358
-0.03890720251403719 0.40031863971717063 1.1555494587465864
0.06972833505602005 0.38507500639069625 0.5886322235755708
0.5625472110179762 -0.22363823519779286 0.7316129767695716
0.810253888640676 -0.4933239564757792 -0.10875113369347358
0.29442613081929614 0.40031863971717063 1.1555494587465864
0.40306166838935337 0.38507500639069625 0.5886322235755708
0.8958805443513095 -0.22363823519779286 0.7316129767695716
1.1435872219740093 -0.4933239564757792 -0.10875113369347358
0.6277594641526294 0.40031863971717063 1.1555494587465864
0.7363950017226868 0.38507500639069625 0.5886322235755708
0.2292138776846429 0.10969509813554046 0.7316129767695716
0.4769205553073428 -0.15999062314244586 -0.10875113369347358
-0.03890720251403719 0.7336519730505039 1.1555494587465864
0.06972833505602005 0.7184083397240295 0.5886322235755708
0.5625472110179762 0.10969509813554046 0.7316129767695716
0.810253888640676 -0.15999062314244586 -0.10875113369347358
0.29442613081929614 0.7336519730505039 1.1555494587465864
0.40306166838935337 0.7184083397240295 0.5886322235755708
0.8958805443513095 0.10969509813554046 0.7316129767695716
1.1435872219740093 -0.15999062314244586 -0.10875113369347358
0.6277594641526294 0.7336519730505039 1.1555494587465864
0.7363950017226868 0.7184083397240295 0.5886322235755708
0.2292138776846429 0.4430284314688738 0.7316129767695716
0.4769205553073428 0.17334271019088746 -0.10875113369347358
-0.03890720251403719 1.0669853063838373 1.1555494587465864
0.06972833505602005 1.0517416730573628 0.5886322235755708
0.5625472110179762 0.4430284314688738 0.7316129767695716
0.810253888640676 0.17334271019088746 -0.10875113369347358
0.29442613081929614 1.0669853063838373 1.1555494587465864
0.40306166838935337 1.0517416730573628 0.5886322235755708
0.8958805443513095 0.4430284314688738 0.7316129767695716
1.1435872219740093 0.17334271019088746 -0.10875113369347358
0.6277594641526294 1.0669853063838373 1.1555494587465864
0.7363950017226868 1.0517416730573628 0.5886322235755708
0.2292138776846429 -0.22363823519779286 1.0649463101029049
0.4769205553073428 -0.4933239564757792 0.22458219963985973
-0.03890720251403719 0.40031863971717063 1.4888827920799197
0.06972833505602005 0.38507500639069625 0.921965556908904
0.5625472110179762 -0.22363823519779286 1.0649463101029049
0.810253888640676 -0.4933239564757792 0.22458219963985973
0.29442613081929614 0.40031863971717063 1.4888827920799197
0.40306166838935337 0.38507500639069625 0.921965556908904
0.8958805443513095 -0.22363823519779286 1.0649463101029049
1.1435872219740093 -0.4933239564757792 0.22458219963985973
0.6277594641526294 0.40031863971717063 1.4888827920799197
0.7363950017226868 0.38507500639069625 0.921965556908904
0.2292138776846429 0.10969509813554046 1.0649463101029049
0.4769205553073428 -0.15999062314244586 0.22458219963985973
-0.03890720251403719 0.7336519730505039 1.4888827920799197
0.06972833505602005 0.7184083397240295 0.921965556908904
0.5625472110179762 0.10969509813554046 1.0649463101029049
0.810253888640676 -0.15999062314244586 0.22458219963985973
0.29442613081929614 0.7336519730505039 1.4888827920799197
0.40306166838935337 0.7184083397240295 0.921965556908904
0.8958805443513095 0.10969509813554046 1.0649463101029049
1.1435872219740093 -0.15999062314244586 0.22458219963985973
0.6277594641526294 0.7336519730505039 1.4888827920799197
0.7363950017226868 0.7184083397240295 0.921965556908904
0.2292138776846429 0.4430284314688738 1.0649463101029049
0.4769205553073428 0.17334271019088746 0.22458219963985973
-0.03890720251403719 1.0669853063838373 1.4888827920799197
0.06972833505602005 1.0517416730573628 0.921965556908904
0.5625472110179762 0.4430284314688738 1.0649463101029049
0.810253888640676 0.17334271019088746 0.22458219963985973
0.29442613081929614 1.0669853063838373 1.4888827920799197
0.40306166838935337 1.0517416730573628 0.921965556908904
0.8958805443513095 0.4430284314688738 1.0649463101029049
1.1435872219740093 0.17334271019088746 0.22458219963985973
0.6277594641526294 1.0669853063838373 1.4888827920799197
0.7363950017226868 1.0517416730573628 0.921965556908904
