FCC BaO
3.971
5.0 0.0 0.0
0.0 5.0 0.0
0.0 0.0 5.0
Ba O 
500 500 
Direct
0.018519034571712376 -0.00963672403869867 0.0029948241485666747
0.027277670471862088 0.1104949479695425 0.12033543506575362
0.11030937499203315 -0.008859373538643274 0.07893750394307245
0.11302308960779078 0.07597601889272261 0.0021597820468121443
0.2185190345717124 -0.00963672403869867 0.0029948241485666747
0.2272776704718621 0.1104949479695425 0.12033543506575362
0.31030937499203315 -0.008859373538643274 0.07893750394307245
0.3130230896077908 0.07597601889272261 0.0021597820468121443
0.4185190345717124 -0.00963672403869867 0.0029948241485666747
0.4272776704718621 0.1104949479695425 0.12033543506575362
0.5103093749920332 -0.008859373538643274 0.07893750394307245
0.5130230896077909 0.07597601889272261 0.0021597820468121443
0.6185190345717124 -0.00963672403869867 0.0029948241485666747
0.6272776704718621 0.1104949479695425 0.12033543506575362
0.7103093749920332 -0.008859373538643274 0.07893750394307245
0.7130230896077908 0.07597601889272261 0.0021597820468121443
0.8185190345717124 -0.00963672403869867 0.0029948241485666747
0.8272776704718622 0.1104949479695425 0.12033543506575362
0.9103093749920332 -0.008859373538643274 0.07893750394307245
0.9130230896077909 0.07597601889272261 0.0021597820468121443
0.018519034571712376 0.19036327596130134 0.0029948241485666747
0.027277670471862088 0.3104949479695425 0.12033543506575362
0.11030937499203315 0.19114062646135674 0.07893750394307245
0.11302308960779078 0.2759760188927226 0.0021597820468121443
0.2185190345717124 0.19036327596130134 0.0029948241485666747
0.2272776704718621 0.3104949479695425 0.12033543506575362
0.31030937499203315 0.19114062646135674 0.07893750394307245
0.3130230896077908 0.2759760188927226 0.0021597820468121443
0.4185190345717124 0.19036327596130134 0.0029948241485666747
0.4272776704718621 0.3104949479695425 0.12033543506575362
0.5103093749920332 0.19114062646135674 0.07893750394307245
0.5130230896077909 0.2759760188927226 0.0021597820468121443
0.6185190345717124 0.19036327596130134 0.0029948241485666747
0.6272776704718621 0.3104949479695425 0.12033543506575362
0.7103093749920332 0.19114062646135674 0.07893750394307245
0.7130230896077908 0.2759760188927226 0.0021597820468121443
0.8185190345717124 0.19036327596130134 0.0029948241485666747
0.8272776704718622 0.3104949479695425 0.12033543506575362
0.9103093749920332 0.19114062646135674 0.07893750394307245
0.9130230896077909 0.2759760188927226 0.0021597820468121443
0.018519034571712376 0.3903632759613014 0.0029948241485666747
0.027277670471862088 0.5104949479695425 0.12033543506575362
0.11030937499203315 0.3911406264613568 0.07893750394307245
0.11302308960779078 0.4759760188927226 0.0021597820468121443
0.2185190345717124 0.3903632759613014 0.0029948241485666747
0.2272776704718621 0.5104949479695425 0.12033543506575362
0.31030937499203315 0.3911406264613568 0.07893750394307245
0.3130230896077908 0.4759760188927226 0.0021597820468121443
0.4185190345717124 0.3903632759613014 0.0029948241485666747
0.4272776704718621 0.5104949479695425 0.12033543506575362
0.5103093749920332 0.3911406264613568 0.07893750394307245
0.5130230896077909 0.4759760188927226 0.0021597820468121443
0.6185190345717124 0.3903632759613014 0.0029948241485666747
0.6272776704718621 0.5104949479695425 0.12033543506575362
0.7103093749920332 0.3911406264613568 0.07893750394307245
0.7130230896077908 0.4759760188927226 0.0021597820468121443
0.8185190345717124 0.3903632759613014 0.0029948241485666747
0.8272776704718622 0.5104949479695425 0.12033543506575362
0.9103093749920332 0.3911406264613568 0.07893750394307245
0.9130230896077909 0.4759760188927226 0.0021597820468121443
0.018519034571712376 0.5903632759613013 0.0029948241485666747
0.027277670471862088 0.7104949479695426 0.12033543506575362
0.11030937499203315 0.5911406264613567 0.07893750394307245
0.11302308960779078 0.6759760188927226 0.0021597820468121443
0.2185190345717124 0.5903632759613013 0.0029948241485666747
0.2272776704718621 0.7104949479695426 0.12033543506575362
0.31030937499203315 0.5911406264613567 0.07893750394307245
0.3130230896077908 0.6759760188927226 0.0021597820468121443
0.4185190345717124 0.5903632759613013 0.0029948241485666747
0.4272776704718621 0.7104949479695426 0.12033543506575362
0.5103093749920332 0.5911406264613567 0.07893750394307245
0.5130230896077909 0.6759760188927226 0.0021597820468121443
0.6185190345717124 0.5903632759613013 0.0029948241485666747
0.6272776704718621 0.7104949479695426 0.12033543506575362
0.7103093749920332 0.5911406264613567 0.07893750394307245
0.7130230896077908 0.6759760188927226 0.0021597820468121443
0.8185190345717124 0.5903632759613013 0.0029948241485666747
0.8272776704718622 0.7104949479695426 0.12033543506575362
0.9103093749920332 0.5911406264613567 0.07893750394307245
0.9130230896077909 0.6759760188927226 0.0021597820468121443
0.018519034571712376 0.7903632759613014 0.0029948241485666747
0.027277670471862088 0.9104949479695424 0.12033543506575362
0.11030937499203315 0.7911406264613567 0.07893750394307245
0.11302308960779078 0.8759760188927226 0.0021597820468121443
0.2185190345717124 0.7903632759613014 0.0029948241485666747
0.2272776704718621 0.9104949479695424 0.12033543506575362
0.31030937499203315 0.7911406264613567 0.07893750394307245
0.3130230896077908 0.8759760188927226 0.0021597820468121443
0.4185190345717124 0.7903632759613014 0.0029948241485666747
0.4272776704718621 0.9104949479695424 0.12033543506575362
0.5103093749920332 0.7911406264613567 0.07893750394307245
0.5130230896077909 0.8759760188927226 0.0021597820468121443
0.6185190345717124 0.7903632759613014 0.0029948241485666747
0.6272776704718621 0.9104949479695424 0.12033543506575362
0.7103093749920332 0.7911406264613567 0.07893750394307245
0.7130230896077908 0.8759760188927226 0.0021597820468121443
0.8185190345717124 0.7903632759613014 0.0029948241485666747
0.8272776704718622 0.9104949479695424 0.12033543506575362
0.9103093749920332 0.7911406264613567 0.07893750394307245
0.9130230896077909 0.8759760188927226 0.0021597820468121443
0.018519034571712376 -0.00963672403869867 0.20299482414856668
0.027277670471862088 0.1104949479695425 0.3203354350657536
0.11030937499203315 -0.008859373538643274 0.27893750394307243
0.11302308960779078 0.07597601889272261 0.20215978204681215
0.2185190345717124 -0.00963672403869867 0.20299482414856668
0.2272776704718621 0.1104949479695425 0.3203354350657536
0.31030937499203315 -0.008859373538643274 0.27893750394307243
0.3130230896077908 0.07597601889272261 0.20215978204681215
0.4185190345717124 -0.00963672403869867 0.20299482414856668
0.4272776704718621 0.1104949479695425 0.3203354350657536
0.5103093749920332 -0.008859373538643274 0.27893750394307243
0.5130230896077909 0.07597601889272261 0.20215978204681215
0.6185190345717124 -0.00963672403869867 0.20299482414856668
0.6272776704718621 0.1104949479695425 0.3203354350657536
0.7103093749920332 -0.008859373538643274 0.27893750394307243
0.7130230896077908 0.07597601889272261 0.20215978204681215
0.8185190345717124 -0.00963672403869867 0.20299482414856668
0.8272776704718622 0.1104949479695425 0.3203354350657536
0.9103093749920332 -0.008859373538643274 0.27893750394307243
0.9130230896077909 0.07597601889272261 0.20215978204681215
0.018519034571712376 0.19036327596130134 0.20299482414856668
0.027277670471862088 0.3104949479695425 0.3203354350657536
0.11030937499203315 0.19114062646135674 0.27893750394307243
0.11302308960779078 0.2759760188927226 0.20215978204681215
0.2185190345717124 0.19036327596130134 0.20299482414856668
0.2272776704718621 0.3104949479695425 0.3203354350657536
0.31030937499203315 0.19114062646135674 0.27893750394307243
0.3130230896077908 0.2759760188927226 0.20215978204681215
0.4185190345717124 0.19036327596130134 0.20299482414856668
0.4272776704718621 0.3104949479695425 0.3203354350657536
0.5103093749920332 0.19114062646135674 0.27893750394307243
0.5130230896077909 0.2759760188927226 0.20215978204681215
0.6185190345717124 0.19036327596130134 0.20299482414856668
0.6272776704718621 0.3104949479695425 0.3203354350657536
0.7103093749920332 0.19114062646135674 0.27893750394307243
0.7130230896077908 0.2759760188927226 0.20215978204681215
0.8185190345717124 0.19036327596130134 0.20299482414856668
0.8272776704718622 0.3104949479695425 0.3203354350657536
0.9103093749920332 0.19114062646135674 0.27893750394307243
0.9130230896077909 0.2759760188927226 0.20215978204681215
0.018519034571712376 0.3903632759613014 0.20299482414856668
0.027277670471862088 0.5104949479695425 0.3203354350657536
0.11030937499203315 0.3911406264613568 0.27893750394307243
0.11302308960779078 0.4759760188927226 0.20215978204681215
0.2185190345717124 0.3903632759613014 0.20299482414856668
0.2272776704718621 0.5104949479695425 0.3203354350657536
0.31030937499203315 0.3911406264613568 0.27893750394307243
0.3130230896077908 0.4759760188927226 0.20215978204681215
0.4185190345717124 0.3903632759613014 0.20299482414856668
0.4272776704718621 0.5104949479695425 0.3203354350657536
0.5103093749920332 0.3911406264613568 0.27893750394307243
0.5130230896077909 0.4759760188927226 0.20215978204681215
0.6185190345717124 0.3903632759613014 0.20299482414856668
0.6272776704718621 0.5104949479695425 0.3203354350657536
0.7103093749920332 0.3911406264613568 0.27893750394307243
0.7130230896077908 0.4759760188927226 0.20215978204681215
0.8185190345717124 0.3903632759613014 0.20299482414856668
0.8272776704718622 0.5104949479695425 0.3203354350657536
0.9103093749920332 0.3911406264613568 0.27893750394307243
0.9130230896077909 0.4759760188927226 0.20215978204681215
0.018519034571712376 0.5903632759613013 0.20299482414856668
0.027277670471862088 0.7104949479695426 0.3203354350657536
0.11030937499203315 0.5911406264613567 0.27893750394307243
0.11302308960779078 0.6759760188927226 0.20215978204681215
0.2185190345717124 0.5903632759613013 0.20299482414856668
0.2272776704718621 0.7104949479695426 0.3203354350657536
0.31030937499203315 0.5911406264613567 0.27893750394307243
0.3130230896077908 0.6759760188927226 0.20215978204681215
0.4185190345717124 0.5903632759613013 0.20299482414856668
0.4272776704718621 0.7104949479695426 0.3203354350657536
0.5103093749920332 0.5911406264613567 0.27893750394307243
0.5130230896077909 0.6759760188927226 0.20215978204681215
0.6185190345717124 0.5903632759613013 0.20299482414856668
0.6272776704718621 0.7104949479695426 0.3203354350657536
0.7103093749920332 0.5911406264613567 0.27893750394307243
0.7130230896077908 0.6759760188927226 0.20215978204681215
0.8185190345717124 0.5903632759613013 0.20299482414856668
0.8272776704718622 0.7104949479695426 0.3203354350657536
0.9103093749920332 0.5911406264613567 0.27893750394307243
0.9130230896077909 0.6759760188927226 0.20215978204681215
0.018519034571712376 0.7903632759613014 0.20299482414856668
0.027277670471862088 0.9104949479695424 0.3203354350657536
0.11030937499203315 0.7911406264613567 0.27893750394307243
0.11302308960779078 0.8759760188927226 0.20215978204681215
0.2185190345717124 0.7903632759613014 0.20299482414856668
0.2272776704718621 0.9104949479695424 0.3203354350657536
0.31030937499203315 0.7911406264613567 0.27893750394307243
0.3130230896077908 0.8759760188927226 0.20215978204681215
0.4185190345717124 0.7903632759613014 0.20299482414856668
0.4272776704718621 0.9104949479695424 0.3203354350657536
0.5103093749920332 0.7911406264613567 0.27893750394307243
0.5130230896077909 0.8759760188927226 0.20215978204681215
0.6185190345717124 0.7903632759613014 0.20299482414856668
0.6272776704718621 0.9104949479695424 0.3203354350657536
0.7103093749920332 0.7911406264613567 0.27893750394307243
0.7130230896077908 0.8759760188927226 0.20215978204681215
0.8185190345717124 0.7903632759613014 0.20299482414856668
0.8272776704718622 0.9104949479695424 0.3203354350657536
0.9103093749920332 0.7911406264613567 0.27893750394307243
0.9130230896077909 0.8759760188927226 0.20215978204681215
0.018519034571712376 -0.00963672403869867 0.40299482414856674
0.027277670471862088 0.1104949479695425 0.5203354350657536
0.11030937499203315 -0.008859373538643274 0.47893750394307244
0.11302308960779078 0.07597601889272261 0.4021597820468122
0.2185190345717124 -0.00963672403869867 0.40299482414856674
0.2272776704718621 0.1104949479695425 0.5203354350657536
0.31030937499203315 -0.008859373538643274 0.47893750394307244
0.3130230896077908 0.07597601889272261 0.4021597820468122
0.4185190345717124 -0.00963672403869867 0.40299482414856674
0.4272776704718621 0.1104949479695425 0.5203354350657536
0.5103093749920332 -0.008859373538643274 0.47893750394307244
0.5130230896077909 0.07597601889272261 0.4021597820468122
0.6185190345717124 -0.00963672403869867 0.40299482414856674
0.6272776704718621 0.1104949479695425 0.5203354350657536
0.7103093749920332 -0.008859373538643274 0.47893750394307244
0.7130230896077908 0.07597601889272261 0.4021597820468122
0.8185190345717124 -0.00963672403869867 0.40299482414856674
0.8272776704718622 0.1104949479695425 0.5203354350657536
0.9103093749920332 -0.008859373538643274 0.47893750394307244
0.9130230896077909 0.07597601889272261 0.4021597820468122
0.018519034571712376 0.19036327596130134 0.40299482414856674
0.027277670471862088 0.3104949479695425 0.5203354350657536
0.11030937499203315 0.19114062646135674 0.47893750394307244
0.11302308960779078 0.2759760188927226 0.4021597820468122
0.2185190345717124 0.19036327596130134 0.40299482414856674
0.2272776704718621 0.3104949479695425 0.5203354350657536
0.31030937499203315 0.19114062646135674 0.47893750394307244
0.3130230896077908 0.2759760188927226 0.4021597820468122
0.4185190345717124 0.19036327596130134 0.40299482414856674
0.4272776704718621 0.3104949479695425 0.5203354350657536
0.5103093749920332 0.19114062646135674 0.47893750394307244
0.5130230896077909 0.2759760188927226 0.4021597820468122
0.6185190345717124 0.19036327596130134 0.40299482414856674
0.6272776704718621 0.3104949479695425 0.5203354350657536
0.7103093749920332 0.19114062646135674 0.47893750394307244
0.7130230896077908 0.2759760188927226 0.4021597820468122
0.8185190345717124 0.19036327596130134 0.40299482414856674
0.8272776704718622 0.3104949479695425 0.5203354350657536
0.9103093749920332 0.19114062646135674 0.47893750394307244
0.9130230896077909 0.2759760188927226 0.4021597820468122
0.018519034571712376 0.3903632759613014 0.40299482414856674
0.027277670471862088 0.5104949479695425 0.5203354350657536
0.11030937499203315 0.3911406264613568 0.47893750394307244
0.11302308960779078 0.4759760188927226 0.4021597820468122
0.2185190345717124 0.3903632759613014 0.40299482414856674
0.2272776704718621 0.5104949479695425 0.5203354350657536
0.31030937499203315 0.3911406264613568 0.47893750394307244
0.3130230896077908 0.4759760188927226 0.4021597820468122
0.4185190345717124 0.3903632759613014 0.40299482414856674
0.4272776704718621 0.5104949479695425 0.5203354350657536
0.5103093749920332 0.3911406264613568 0.47893750394307244
0.5130230896077909 0.4759760188927226 0.4021597820468122
0.6185190345717124 0.3903632759613014 0.40299482414856674
0.6272776704718621 0.5104949479695425 0.5203354350657536
0.7103093749920332 0.3911406264613568 0.47893750394307244
0.7130230896077908 0.4759760188927226 0.4021597820468122
0.8185190345717124 0.3903632759613014 0.40299482414856674
0.8272776704718622 0.5104949479695425 0.5203354350657536
0.9103093749920332 0.3911406264613568 0.47893750394307244
0.9130230896077909 0.4759760188927226 0.4021597820468122
0.018519034571712376 0.5903632759613013 0.40299482414856674
0.027277670471862088 0.7104949479695426 0.5203354350657536
0.11030937499203315 0.5911406264613567 0.47893750394307244
0.11302308960779078 0.6759760188927226 0.4021597820468122
0.2185190345717124 0.5903632759613013 0.40299482414856674
0.2272776704718621 0.7104949479695426 0.5203354350657536
0.31030937499203315 0.5911406264613567 0.47893750394307244
0.3130230896077908 0.6759760188927226 0.4021597820468122
0.4185190345717124 0.5903632759613013 0.40299482414856674
0.4272776704718621 0.7104949479695426 0.5203354350657536
0.5103093749920332 0.5911406264613567 0.47893750394307244
0.5130230896077909 0.6759760188927226 0.4021597820468122
0.6185190345717124 0.5903632759613013 0.40299482414856674
0.6272776704718621 0.7104949479695426 0.5203354350657536
0.7103093749920332 0.5911406264613567 0.47893750394307244
0.7130230896077908 0.6759760188927226 0.4021597820468122
0.8185190345717124 0.5903632759613013 0.40299482414856674
0.8272776704718622 0.7104949479695426 0.5203354350657536
0.9103093749920332 0.5911406264613567 0.47893750394307244
0.9130230896077909 0.6759760188927226 0.4021597820468122
0.018519034571712376 0.7903632759613014 0.40299482414856674
0.027277670471862088 0.9104949479695424 0.5203354350657536
0.11030937499203315 0.7911406264613567 0.47893750394307244
0.11302308960779078 0.8759760188927226 0.4021597820468122
0.2185190345717124 0.7903632759613014 0.40299482414856674
0.2272776704718621 0.9104949479695424 0.5203354350657536
0.31030937499203315 0.7911406264613567 0.47893750394307244
0.3130230896077908 0.8759760188927226 0.4021597820468122
0.4185190345717124 0.7903632759613014 0.40299482414856674
0.4272776704718621 0.9104949479695424 0.5203354350657536
0.5103093749920332 0.7911406264613567 0.47893750394307244
0.5130230896077909 0.8759760188927226 0.4021597820468122
0.6185190345717124 0.7903632759613014 0.40299482414856674
0.6272776704718621 0.9104949479695424 0.5203354350657536
0.7103093749920332 0.7911406264613567 0.47893750394307244
0.7130230896077908 0.8759760188927226 0.4021597820468122
0.8185190345717124 0.7903632759613014 0.40299482414856674
0.8272776704718622 0.9104949479695424 0.5203354350657536
0.9103093749920332 0.7911406264613567 0.47893750394307244
0.9130230896077909 0.8759760188927226 0.4021597820468122
0.018519034571712376 -0.00963672403869867 0.6029948241485668
0.027277670471862088 0.1104949479695425 0.7203354350657536
0.11030937499203315 -0.008859373538643274 0.6789375039430725
0.11302308960779078 0.07597601889272261 0.6021597820468122
0.2185190345717124 -0.00963672403869867 0.6029948241485668
0.2272776704718621 0.1104949479695425 0.7203354350657536
0.31030937499203315 -0.008859373538643274 0.6789375039430725
0.3130230896077908 0.07597601889272261 0.6021597820468122
0.4185190345717124 -0.00963672403869867 0.6029948241485668
0.4272776704718621 0.1104949479695425 0.7203354350657536
0.5103093749920332 -0.008859373538643274 0.6789375039430725
0.5130230896077909 0.07597601889272261 0.6021597820468122
0.6185190345717124 -0.00963672403869867 0.6029948241485668
0.6272776704718621 0.1104949479695425 0.7203354350657536
0.7103093749920332 -0.008859373538643274 0.6789375039430725
0.7130230896077908 0.07597601889272261 0.6021597820468122
0.8185190345717124 -0.00963672403869867 0.6029948241485668
0.8272776704718622 0.1104949479695425 0.7203354350657536
0.9103093749920332 -0.008859373538643274 0.6789375039430725
0.9130230896077909 0.07597601889272261 0.6021597820468122
0.018519034571712376 0.19036327596130134 0.6029948241485668
0.027277670471862088 0.3104949479695425 0.7203354350657536
0.11030937499203315 0.19114062646135674 0.6789375039430725
0.11302308960779078 0.2759760188927226 0.6021597820468122
0.2185190345717124 0.19036327596130134 0.6029948241485668
0.2272776704718621 0.3104949479695425 0.7203354350657536
0.31030937499203315 0.19114062646135674 0.6789375039430725
0.3130230896077908 0.2759760188927226 0.6021597820468122
0.4185190345717124 0.19036327596130134 0.6029948241485668
0.4272776704718621 0.3104949479695425 0.7203354350657536
0.5103093749920332 0.19114062646135674 0.6789375039430725
0.5130230896077909 0.2759760188927226 0.6021597820468122
0.6185190345717124 0.19036327596130134 0.6029948241485668
0.6272776704718621 0.3104949479695425 0.7203354350657536
0.7103093749920332 0.19114062646135674 0.6789375039430725
0.7130230896077908 0.2759760188927226 0.6021597820468122
0.8185190345717124 0.19036327596130134 0.6029948241485668
0.8272776704718622 0.3104949479695425 0.7203354350657536
0.9103093749920332 0.19114062646135674 0.6789375039430725
0.9130230896077909 0.2759760188927226 0.6021597820468122
0.018519034571712376 0.3903632759613014 0.6029948241485668
0.027277670471862088 0.5104949479695425 0.7203354350657536
0.11030937499203315 0.3911406264613568 0.6789375039430725
0.11302308960779078 0.4759760188927226 0.6021597820468122
0.2185190345717124 0.3903632759613014 0.6029948241485668
0.2272776704718621 0.5104949479695425 0.7203354350657536
0.31030937499203315 0.3911406264613568 0.6789375039430725
0.3130230896077908 0.4759760188927226 0.6021597820468122
0.4185190345717124 0.3903632759613014 0.6029948241485668
0.4272776704718621 0.5104949479695425 0.7203354350657536
0.5103093749920332 0.3911406264613568 0.6789375039430725
0.5130230896077909 0.4759760188927226 0.6021597820468122
0.6185190345717124 0.3903632759613014 0.6029948241485668
0.6272776704718621 0.5104949479695425 0.7203354350657536
0.7103093749920332 0.3911406264613568 0.6789375039430725
0.7130230896077908 0.4759760188927226 0.6021597820468122
0.8185190345717124 0.3903632759613014 0.6029948241485668
0.8272776704718622 0.5104949479695425 0.7203354350657536
0.9103093749920332 0.3911406264613568 0.6789375039430725
0.9130230896077909 0.4759760188927226 0.6021597820468122
0.018519034571712376 0.5903632759613013 0.6029948241485668
0.027277670471862088 0.7104949479695426 0.7203354350657536
0.11030937499203315 0.5911406264613567 0.6789375039430725
0.11302308960779078 0.6759760188927226 0.6021597820468122
0.2185190345717124 0.5903632759613013 0.6029948241485668
0.2272776704718621 0.7104949479695426 0.7203354350657536
0.31030937499203315 0.5911406264613567 0.6789375039430725
0.3130230896077908 0.6759760188927226 0.6021597820468122
0.4185190345717124 0.5903632759613013 0.6029948241485668
0.4272776704718621 0.7104949479695426 0.7203354350657536
0.5103093749920332 0.5911406264613567 0.6789375039430725
0.5130230896077909 0.6759760188927226 0.6021597820468122
0.6185190345717124 0.5903632759613013 0.6029948241485668
0.6272776704718621 0.7104949479695426 0.7203354350657536
0.7103093749920332 0.5911406264613567 0.6789375039430725
0.7130230896077908 0.6759760188927226 0.6021597820468122
0.8185190345717124 0.5903632759613013 0.6029948241485668
0.8272776704718622 0.7104949479695426 0.7203354350657536
0.9103093749920332 0.5911406264613567 0.6789375039430725
0.9130230896077909 0.6759760188927226 0.6021597820468122
0.018519034571712376 0.7903632759613014 0.6029948241485668
0.027277670471862088 0.9104949479695424 0.7203354350657536
0.11030937499203315 0.7911406264613567 0.6789375039430725
0.11302308960779078 0.8759760188927226 0.6021597820468122
0.2185190345717124 0.7903632759613014 0.6029948241485668
0.2272776704718621 0.9104949479695424 0.7203354350657536
0.31030937499203315 0.7911406264613567 0.6789375039430725
0.3130230896077908 0.8759760188927226 0.6021597820468122
0.4185190345717124 0.7903632759613014 0.6029948241485668
0.4272776704718621 0.9104949479695424 0.7203354350657536
0.5103093749920332 0.7911406264613567 0.6789375039430725
0.5130230896077909 0.8759760188927226 0.6021597820468122
0.6185190345717124 0.7903632759613014 0.6029948241485668
0.6272776704718621 0.9104949479695424 0.7203354350657536
0.7103093749920332 0.7911406264613567 0.6789375039430725
0.7130230896077908 0.8759760188927226 0.6021597820468122
0.8185190345717124 0.7903632759613014 0.6029948241485668
0.8272776704718622 0.9104949479695424 0.7203354350657536
0.9103093749920332 0.7911406264613567 0.6789375039430725
0.9130230896077909 0.8759760188927226 0.6021597820468122
0.018519034571712376 -0.00963672403869867 0.8029948241485667
0.027277670471862088 0.1104949479695425 0.9203354350657537
0.11030937499203315 -0.008859373538643274 0.8789375039430726
0.11302308960779078 0.07597601889272261 0.8021597820468123
0.2185190345717124 -0.00963672403869867 0.8029948241485667
0.2272776704718621 0.1104949479695425 0.9203354350657537
0.31030937499203315 -0.008859373538643274 0.8789375039430726
0.3130230896077908 0.07597601889272261 0.8021597820468123
0.4185190345717124 -0.00963672403869867 0.8029948241485667
0.4272776704718621 0.1104949479695425 0.9203354350657537
0.5103093749920332 -0.008859373538643274 0.8789375039430726
0.5130230896077909 0.07597601889272261 0.8021597820468123
0.6185190345717124 -0.00963672403869867 0.8029948241485667
0.6272776704718621 0.1104949479695425 0.9203354350657537
0.7103093749920332 -0.008859373538643274 0.8789375039430726
0.7130230896077908 0.07597601889272261 0.8021597820468123
0.8185190345717124 -0.00963672403869867 0.8029948241485667
0.8272776704718622 0.1104949479695425 0.9203354350657537
0.9103093749920332 -0.008859373538643274 0.8789375039430726
0.9130230896077909 0.07597601889272261 0.8021597820468123
0.018519034571712376 0.19036327596130134 0.8029948241485667
0.027277670471862088 0.3104949479695425 0.9203354350657537
0.11030937499203315 0.19114062646135674 0.8789375039430726
0.11302308960779078 0.2759760188927226 0.8021597820468123
0.2185190345717124 0.19036327596130134 0.8029948241485667
0.2272776704718621 0.3104949479695425 0.9203354350657537
0.31030937499203315 0.19114062646135674 0.8789375039430726
0.3130230896077908 0.2759760188927226 0.8021597820468123
0.4185190345717124 0.19036327596130134 0.8029948241485667
0.4272776704718621 0.3104949479695425 0.9203354350657537
0.5103093749920332 0.19114062646135674 0.8789375039430726
0.5130230896077909 0.2759760188927226 0.8021597820468123
0.6185190345717124 0.19036327596130134 0.8029948241485667
0.6272776704718621 0.3104949479695425 0.9203354350657537
0.7103093749920332 0.19114062646135674 0.8789375039430726
0.7130230896077908 0.2759760188927226 0.8021597820468123
0.8185190345717124 0.19036327596130134 0.8029948241485667
0.8272776704718622 0.3104949479695425 0.9203354350657537
0.9103093749920332 0.19114062646135674 0.8789375039430726
0.9130230896077909 0.2759760188927226 0.8021597820468123
0.018519034571712376 0.3903632759613014 0.8029948241485667
0.027277670471862088 0.5104949479695425 0.9203354350657537
0.11030937499203315 0.3911406264613568 0.8789375039430726
0.11302308960779078 0.4759760188927226 0.8021597820468123
0.2185190345717124 0.3903632759613014 0.8029948241485667
0.2272776704718621 0.5104949479695425 0.9203354350657537
0.31030937499203315 0.3911406264613568 0.8789375039430726
0.3130230896077908 0.4759760188927226 0.8021597820468123
0.4185190345717124 0.3903632759613014 0.8029948241485667
0.4272776704718621 0.5104949479695425 0.9203354350657537
0.5103093749920332 0.3911406264613568 0.8789375039430726
0.5130230896077909 0.4759760188927226 0.8021597820468123
0.6185190345717124 0.3903632759613014 0.8029948241485667
0.6272776704718621 0.5104949479695425 0.9203354350657537
0.7103093749920332 0.3911406264613568 0.8789375039430726
0.7130230896077908 0.4759760188927226 0.8021597820468123
0.8185190345717124 0.3903632759613014 0.8029948241485667
0.8272776704718622 0.5104949479695425 0.9203354350657537
0.9103093749920332 0.3911406264613568 0.8789375039430726
0.9130230896077909 0.4759760188927226 0.8021597820468123
0.018519034571712376 0.5903632759613013 0.8029948241485667
0.027277670471862088 0.7104949479695426 0.9203354350657537
0.11030937499203315 0.5911406264613567 0.8789375039430726
0.11302308960779078 0.6759760188927226 0.8021597820468123
0.2185190345717124 0.5903632759613013 0.8029948241485667
0.2272776704718621 0.7104949479695426 0.9203354350657537
0.31030937499203315 0.5911406264613567 0.8789375039430726
0.3130230896077908 0.6759760188927226 0.8021597820468123
0.4185190345717124 0.5903632759613013 0.8029948241485667
0.4272776704718621 0.7104949479695426 0.9203354350657537
0.5103093749920332 0.5911406264613567 0.8789375039430726
0.5130230896077909 0.6759760188927226 0.8021597820468123
0.6185190345717124 0.5903632759613013 0.8029948241485667
0.6272776704718621 0.7104949479695426 0.9203354350657537
0.7103093749920332 0.5911406264613567 0.8789375039430726
0.7130230896077908 0.6759760188927226 0.8021597820468123
0.8185190345717124 0.5903632759613013 0.8029948241485667
0.8272776704718622 0.7104949479695426 0.9203354350657537
0.9103093749920332 0.5911406264613567 0.8789375039430726
0.9130230896077909 0.6759760188927226 0.8021597820468123
0.018519034571712376 0.7903632759613014 0.8029948241485667
0.027277670471862088 0.9104949479695424 0.9203354350657537
0.11030937499203315 0.7911406264613567 0.8789375039430726
0.11302308960779078 0.8759760188927226 0.8021597820468123
0.2185190345717124 0.7903632759613014 0.8029948241485667
0.2272776704718621 0.9104949479695424 0.9203354350657537
0.31030937499203315 0.7911406264613567 0.8789375039430726
0.3130230896077908 0.8759760188927226 0.8021597820468123
0.4185190345717124 0.7903632759613014 0.8029948241485667
0.4272776704718621 0.9104949479695424 0.9203354350657537
0.5103093749920332 0.7911406264613567 0.8789375039430726
0.5130230896077909 0.8759760188927226 0.8021597820468123
0.6185190345717124 0.7903632759613014 0.8029948241485667
0.6272776704718621 0.9104949479695424 0.9203354350657537
0.7103093749920332 0.7911406264613567 0.8789375039430726
0.7130230896077908 0.8759760188927226 0.8021597820468123
0.8185190345717124 0.7903632759613014 0.8029948241485667
0.8272776704718622 0.9104949479695424 0.9203354350657537
0.9103093749920332 0.7911406264613567 0.8789375039430726
0.9130230896077909 0.8759760188927226 0.8021597820468123
0.12575707145885626 0.0112239411451031 -0.027854135228678436
-0.0009597504559080271 0.09923464715134965 0.019984151181775975
-0.027675042722678195 0.003215496269718442 0.09884270729531495
0.12067823723479598 0.12366511788335058 0.1176267077329263
0.32575707145885624 0.0112239411451031 -0.027854135228678436
0.19904024954409197 0.09923464715134965 0.019984151181775975
0.1723249572773218 0.003215496269718442 0.09884270729531495
0.32067823723479605 0.12366511788335058 0.1176267077329263
0.5257570714588562 0.0112239411451031 -0.027854135228678436
0.399040249544092 0.09923464715134965 0.019984151181775975
0.37232495727732184 0.003215496269718442 0.09884270729531495
0.520678237234796 0.12366511788335058 0.1176267077329263
0.7257570714588563 0.0112239411451031 -0.027854135228678436
0.599040249544092 0.09923464715134965 0.019984151181775975
0.5723249572773218 0.003215496269718442 0.09884270729531495
0.7206782372347961 0.12366511788335058 0.1176267077329263
0.9257570714588562 0.0112239411451031 -0.027854135228678436
0.799040249544092 0.09923464715134965 0.019984151181775975
0.7723249572773219 0.003215496269718442 0.09884270729531495
0.9206782372347959 0.12366511788335058 0.1176267077329263
0.12575707145885626 0.21122394114510312 -0.027854135228678436
-0.0009597504559080271 0.2992346471513496 0.019984151181775975
-0.027675042722678195 0.20321549626971847 0.09884270729531495
0.12067823723479598 0.32366511788335056 0.1176267077329263
0.32575707145885624 0.21122394114510312 -0.027854135228678436
0.19904024954409197 0.2992346471513496 0.019984151181775975
0.1723249572773218 0.20321549626971847 0.09884270729531495
0.32067823723479605 0.32366511788335056 0.1176267077329263
0.5257570714588562 0.21122394114510312 -0.027854135228678436
0.399040249544092 0.2992346471513496 0.019984151181775975
0.37232495727732184 0.20321549626971847 0.09884270729531495
0.520678237234796 0.32366511788335056 0.1176267077329263
0.7257570714588563 0.21122394114510312 -0.027854135228678436
0.599040249544092 0.2992346471513496 0.019984151181775975
0.5723249572773218 0.20321549626971847 0.09884270729531495
0.7206782372347961 0.32366511788335056 0.1176267077329263
0.9257570714588562 0.21122394114510312 -0.027854135228678436
0.799040249544092 0.2992346471513496 0.019984151181775975
0.7723249572773219 0.20321549626971847 0.09884270729531495
0.9206782372347959 0.32366511788335056 0.1176267077329263
0.12575707145885626 0.41122394114510313 -0.027854135228678436
-0.0009597504559080271 0.49923464715134963 0.019984151181775975
-0.027675042722678195 0.4032154962697185 0.09884270729531495
0.12067823723479598 0.5236651178833506 0.1176267077329263
0.32575707145885624 0.41122394114510313 -0.027854135228678436
0.19904024954409197 0.49923464715134963 0.019984151181775975
0.1723249572773218 0.4032154962697185 0.09884270729531495
0.32067823723479605 0.5236651178833506 0.1176267077329263
0.5257570714588562 0.41122394114510313 -0.027854135228678436
0.399040249544092 0.49923464715134963 0.019984151181775975
0.37232495727732184 0.4032154962697185 0.09884270729531495
0.520678237234796 0.5236651178833506 0.1176267077329263
0.7257570714588563 0.41122394114510313 -0.027854135228678436
0.599040249544092 0.49923464715134963 0.019984151181775975
0.5723249572773218 0.4032154962697185 0.09884270729531495
0.7206782372347961 0.5236651178833506 0.1176267077329263
0.9257570714588562 0.41122394114510313 -0.027854135228678436
0.799040249544092 0.49923464715134963 0.019984151181775975
0.7723249572773219 0.4032154962697185 0.09884270729531495
0.9206782372347959 0.5236651178833506 0.1176267077329263
0.12575707145885626 0.6112239411451031 -0.027854135228678436
-0.0009597504559080271 0.6992346471513496 0.019984151181775975
-0.027675042722678195 0.6032154962697185 0.09884270729531495
0.12067823723479598 0.7236651178833506 0.1176267077329263
0.32575707145885624 0.6112239411451031 -0.027854135228678436
0.19904024954409197 0.6992346471513496 0.019984151181775975
0.1723249572773218 0.6032154962697185 0.09884270729531495
0.32067823723479605 0.7236651178833506 0.1176267077329263
0.5257570714588562 0.6112239411451031 -0.027854135228678436
0.399040249544092 0.6992346471513496 0.019984151181775975
0.37232495727732184 0.6032154962697185 0.09884270729531495
0.520678237234796 0.7236651178833506 0.1176267077329263
0.7257570714588563 0.6112239411451031 -0.027854135228678436
0.599040249544092 0.6992346471513496 0.019984151181775975
0.5723249572773218 0.6032154962697185 0.09884270729531495
0.7206782372347961 0.7236651178833506 0.1176267077329263
0.9257570714588562 0.6112239411451031 -0.027854135228678436
0.799040249544092 0.6992346471513496 0.019984151181775975
0.7723249572773219 0.6032154962697185 0.09884270729531495
0.9206782372347959 0.7236651178833506 0.1176267077329263
0.12575707145885626 0.8112239411451031 -0.027854135228678436
-0.0009597504559080271 0.8992346471513497 0.019984151181775975
-0.027675042722678195 0.8032154962697184 0.09884270729531495
0.12067823723479598 0.9236651178833507 0.1176267077329263
0.32575707145885624 0.8112239411451031 -0.027854135228678436
0.19904024954409197 0.8992346471513497 0.019984151181775975
0.1723249572773218 0.8032154962697184 0.09884270729531495
0.32067823723479605 0.9236651178833507 0.1176267077329263
0.5257570714588562 0.8112239411451031 -0.027854135228678436
0.399040249544092 0.8992346471513497 0.019984151181775975
0.37232495727732184 0.8032154962697184 0.09884270729531495
0.520678237234796 0.9236651178833507 0.1176267077329263
0.7257570714588563 0.8112239411451031 -0.027854135228678436
0.599040249544092 0.8992346471513497 0.019984151181775975
0.5723249572773218 0.8032154962697184 0.09884270729531495
0.7206782372347961 0.9236651178833507 0.1176267077329263
0.9257570714588562 0.8112239411451031 -0.027854135228678436
0.799040249544092 0.8992346471513497 0.019984151181775975
0.7723249572773219 0.8032154962697184 0.09884270729531495
0.9206782372347959 0.9236651178833507 0.1176267077329263
0.12575707145885626 0.0112239411451031 0.17214586477132157
-0.0009597504559080271 0.09923464715134965 0.219984151181776
-0.027675042722678195 0.003215496269718442 0.298842707295315
0.12067823723479598 0.12366511788335058 0.31762670773292634
0.32575707145885624 0.0112239411451031 0.17214586477132157
0.19904024954409197 0.09923464715134965 0.219984151181776
0.1723249572773218 0.003215496269718442 0.298842707295315
0.32067823723479605 0.12366511788335058 0.31762670773292634
0.5257570714588562 0.0112239411451031 0.17214586477132157
0.399040249544092 0.09923464715134965 0.219984151181776
0.37232495727732184 0.003215496269718442 0.298842707295315
0.520678237234796 0.12366511788335058 0.31762670773292634
0.7257570714588563 0.0112239411451031 0.17214586477132157
0.599040249544092 0.09923464715134965 0.219984151181776
0.5723249572773218 0.003215496269718442 0.298842707295315
0.7206782372347961 0.12366511788335058 0.31762670773292634
0.9257570714588562 0.0112239411451031 0.17214586477132157
0.799040249544092 0.09923464715134965 0.219984151181776
0.7723249572773219 0.003215496269718442 0.298842707295315
0.9206782372347959 0.12366511788335058 0.31762670773292634
0.12575707145885626 0.21122394114510312 0.17214586477132157
-0.0009597504559080271 0.2992346471513496 0.219984151181776
-0.027675042722678195 0.20321549626971847 0.298842707295315
0.12067823723479598 0.32366511788335056 0.31762670773292634
0.32575707145885624 0.21122394114510312 0.17214586477132157
0.19904024954409197 0.2992346471513496 0.219984151181776
0.1723249572773218 0.20321549626971847 0.298842707295315
0.32067823723479605 0.32366511788335056 0.31762670773292634
0.5257570714588562 0.21122394114510312 0.17214586477132157
0.399040249544092 0.2992346471513496 0.219984151181776
0.37232495727732184 0.20321549626971847 0.298842707295315
0.520678237234796 0.32366511788335056 0.31762670773292634
0.7257570714588563 0.21122394114510312 0.17214586477132157
0.599040249544092 0.2992346471513496 0.219984151181776
0.5723249572773218 0.20321549626971847 0.298842707295315
0.7206782372347961 0.32366511788335056 0.31762670773292634
0.9257570714588562 0.21122394114510312 0.17214586477132157
0.799040249544092 0.2992346471513496 0.219984151181776
0.7723249572773219 0.20321549626971847 0.298842707295315
0.9206782372347959 0.32366511788335056 0.31762670773292634
0.12575707145885626 0.41122394114510313 0.17214586477132157
-0.0009597504559080271 0.49923464715134963 0.219984151181776
-0.027675042722678195 0.4032154962697185 0.298842707295315
0.12067823723479598 0.5236651178833506 0.31762670773292634
0.32575707145885624 0.41122394114510313 0.17214586477132157
0.19904024954409197 0.49923464715134963 0.219984151181776
0.1723249572773218 0.4032154962697185 0.298842707295315
0.32067823723479605 0.5236651178833506 0.31762670773292634
0.5257570714588562 0.41122394114510313 0.17214586477132157
0.399040249544092 0.49923464715134963 0.219984151181776
0.37232495727732184 0.4032154962697185 0.298842707295315
0.520678237234796 0.5236651178833506 0.31762670773292634
0.7257570714588563 0.41122394114510313 0.17214586477132157
0.599040249544092 0.49923464715134963 0.219984151181776
0.5723249572773218 0.4032154962697185 0.298842707295315
0.7206782372347961 0.5236651178833506 0.31762670773292634
0.9257570714588562 0.41122394114510313 0.17214586477132157
0.799040249544092 0.49923464715134963 0.219984151181776
0.7723249572773219 0.4032154962697185 0.298842707295315
0.9206782372347959 0.5236651178833506 0.31762670773292634
0.12575707145885626 0.6112239411451031 0.17214586477132157
-0.0009597504559080271 0.6992346471513496 0.219984151181776
-0.027675042722678195 0.6032154962697185 0.298842707295315
0.12067823723479598 0.7236651178833506 0.31762670773292634
0.32575707145885624 0.6112239411451031 0.17214586477132157
0.19904024954409197 0.6992346471513496 0.219984151181776
0.1723249572773218 0.6032154962697185 0.298842707295315
0.32067823723479605 0.7236651178833506 0.31762670773292634
0.5257570714588562 0.6112239411451031 0.17214586477132157
0.399040249544092 0.6992346471513496 0.219984151181776
0.37232495727732184 0.6032154962697185 0.298842707295315
0.520678237234796 0.7236651178833506 0.31762670773292634
0.7257570714588563 0.6112239411451031 0.17214586477132157
0.599040249544092 0.6992346471513496 0.219984151181776
0.5723249572773218 0.6032154962697185 0.298842707295315
0.7206782372347961 0.7236651178833506 0.31762670773292634
0.9257570714588562 0.6112239411451031 0.17214586477132157
0.799040249544092 0.6992346471513496 0.219984151181776
0.7723249572773219 0.6032154962697185 0.298842707295315
0.9206782372347959 0.7236651178833506 0.31762670773292634
0.12575707145885626 0.8112239411451031 0.17214586477132157
-0.0009597504559080271 0.8992346471513497 0.219984151181776
-0.027675042722678195 0.8032154962697184 0.298842707295315
0.12067823723479598 0.9236651178833507 0.31762670773292634
0.32575707145885624 0.8112239411451031 0.17214586477132157
0.19904024954409197 0.8992346471513497 0.219984151181776
0.1723249572773218 0.8032154962697184 0.298842707295315
0.32067823723479605 0.9236651178833507 0.31762670773292634
0.5257570714588562 0.8112239411451031 0.17214586477132157
0.399040249544092 0.8992346471513497 0.219984151181776
0.37232495727732184 0.8032154962697184 0.298842707295315
0.520678237234796 0.9236651178833507 0.31762670773292634
0.7257570714588563 0.8112239411451031 0.17214586477132157
0.599040249544092 0.8992346471513497 0.219984151181776
0.5723249572773218 0.8032154962697184 0.298842707295315
0.7206782372347961 0.9236651178833507 0.31762670773292634
0.9257570714588562 0.8112239411451031 0.17214586477132157
0.799040249544092 0.8992346471513497 0.219984151181776
0.7723249572773219 0.8032154962697184 0.298842707295315
0.9206782372347959 0.9236651178833507 0.31762670773292634
0.12575707145885626 0.0112239411451031 0.3721458647713216
-0.0009597504559080271 0.09923464715134965 0.419984151181776
-0.027675042722678195 0.003215496269718442 0.49884270729531494
0.12067823723479598 0.12366511788335058 0.5176267077329263
0.32575707145885624 0.0112239411451031 0.3721458647713216
0.19904024954409197 0.09923464715134965 0.419984151181776
0.1723249572773218 0.003215496269718442 0.49884270729531494
0.32067823723479605 0.12366511788335058 0.5176267077329263
0.5257570714588562 0.0112239411451031 0.3721458647713216
0.399040249544092 0.09923464715134965 0.419984151181776
0.37232495727732184 0.003215496269718442 0.49884270729531494
0.520678237234796 0.12366511788335058 0.5176267077329263
0.7257570714588563 0.0112239411451031 0.3721458647713216
0.599040249544092 0.09923464715134965 0.419984151181776
0.5723249572773218 0.003215496269718442 0.49884270729531494
0.7206782372347961 0.12366511788335058 0.5176267077329263
0.9257570714588562 0.0112239411451031 0.3721458647713216
0.799040249544092 0.09923464715134965 0.419984151181776
0.7723249572773219 0.003215496269718442 0.49884270729531494
0.9206782372347959 0.12366511788335058 0.5176267077329263
0.12575707145885626 0.21122394114510312 0.3721458647713216
-0.0009597504559080271 0.2992346471513496 0.419984151181776
-0.027675042722678195 0.20321549626971847 0.49884270729531494
0.12067823723479598 0.32366511788335056 0.5176267077329263
0.32575707145885624 0.21122394114510312 0.3721458647713216
0.19904024954409197 0.2992346471513496 0.419984151181776
0.1723249572773218 0.20321549626971847 0.49884270729531494
0.32067823723479605 0.32366511788335056 0.5176267077329263
0.5257570714588562 0.21122394114510312 0.3721458647713216
0.399040249544092 0.2992346471513496 0.419984151181776
0.37232495727732184 0.20321549626971847 0.49884270729531494
0.520678237234796 0.32366511788335056 0.5176267077329263
0.7257570714588563 0.21122394114510312 0.3721458647713216
0.599040249544092 0.2992346471513496 0.419984151181776
0.5723249572773218 0.20321549626971847 0.49884270729531494
0.7206782372347961 0.32366511788335056 0.5176267077329263
0.9257570714588562 0.21122394114510312 0.3721458647713216
0.799040249544092 0.2992346471513496 0.419984151181776
0.7723249572773219 0.20321549626971847 0.49884270729531494
0.9206782372347959 0.32366511788335056 0.5176267077329263
0.12575707145885626 0.41122394114510313 0.3721458647713216
-0.0009597504559080271 0.49923464715134963 0.419984151181776
-0.027675042722678195 0.4032154962697185 0.49884270729531494
0.12067823723479598 0.5236651178833506 0.5176267077329263
0.32575707145885624 0.41122394114510313 0.3721458647713216
0.19904024954409197 0.49923464715134963 0.419984151181776
0.1723249572773218 0.4032154962697185 0.49884270729531494
0.32067823723479605 0.5236651178833506 0.5176267077329263
0.5257570714588562 0.41122394114510313 0.3721458647713216
0.399040249544092 0.49923464715134963 0.419984151181776
0.37232495727732184 0.4032154962697185 0.49884270729531494
0.520678237234796 0.5236651178833506 0.5176267077329263
0.7257570714588563 0.41122394114510313 0.3721458647713216
0.599040249544092 0.49923464715134963 0.419984151181776
0.5723249572773218 0.4032154962697185 0.49884270729531494
0.7206782372347961 0.5236651178833506 0.5176267077329263
0.9257570714588562 0.41122394114510313 0.3721458647713216
0.799040249544092 0.49923464715134963 0.419984151181776
0.7723249572773219 0.4032154962697185 0.49884270729531494
0.9206782372347959 0.5236651178833506 0.5176267077329263
0.12575707145885626 0.6112239411451031 0.3721458647713216
-0.0009597504559080271 0.6992346471513496 0.419984151181776
-0.027675042722678195 0.6032154962697185 0.49884270729531494
0.12067823723479598 0.7236651178833506 0.5176267077329263
0.32575707145885624 0.6112239411451031 0.3721458647713216
0.19904024954409197 0.6992346471513496 0.419984151181776
0.1723249572773218 0.6032154962697185 0.49884270729531494
0.32067823723479605 0.7236651178833506 0.5176267077329263
0.5257570714588562 0.6112239411451031 0.3721458647713216
0.399040249544092 0.6992346471513496 0.419984151181776
0.37232495727732184 0.6032154962697185 0.49884270729531494
0.520678237234796 0.7236651178833506 0.5176267077329263
0.7257570714588563 0.6112239411451031 0.3721458647713216
0.599040249544092 0.6992346471513496 0.419984151181776
0.5723249572773218 0.6032154962697185 0.49884270729531494
0.7206782372347961 0.7236651178833506 0.5176267077329263
0.9257570714588562 0.6112239411451031 0.3721458647713216
0.799040249544092 0.6992346471513496 0.419984151181776
0.7723249572773219 0.6032154962697185 0.49884270729531494
0.9206782372347959 0.7236651178833506 0.5176267077329263
0.12575707145885626 0.8112239411451031 0.3721458647713216
-0.0009597504559080271 0.8992346471513497 0.419984151181776
-0.027675042722678195 0.8032154962697184 0.49884270729531494
0.12067823723479598 0.9236651178833507 0.5176267077329263
0.32575707145885624 0.8112239411451031 0.3721458647713216
0.19904024954409197 0.8992346471513497 0.419984151181776
0.1723249572773218 0.8032154962697184 0.49884270729531494
0.32067823723479605 0.9236651178833507 0.5176267077329263
0.5257570714588562 0.8112239411451031 0.3721458647713216
0.399040249544092 0.8992346471513497 0.419984151181776
0.37232495727732184 0.8032154962697184 0.49884270729531494
0.520678237234796 0.9236651178833507 0.5176267077329263
0.7257570714588563 0.8112239411451031 0.3721458647713216
0.599040249544092 0.8992346471513497 0.419984151181776
0.5723249572773218 0.8032154962697184 0.49884270729531494
0.7206782372347961 0.9236651178833507 0.5176267077329263
0.9257570714588562 0.8112239411451031 0.3721458647713216
0.799040249544092 0.8992346471513497 0.419984151181776
0.7723249572773219 0.8032154962697184 0.49884270729531494
0.9206782372347959 0.9236651178833507 0.5176267077329263
0.12575707145885626 0.0112239411451031 0.5721458647713216
-0.0009597504559080271 0.09923464715134965 0.6199841511817761
-0.027675042722678195 0.003215496269718442 0.698842707295315
0.12067823723479598 0.12366511788335058 0.7176267077329264
0.32575707145885624 0.0112239411451031 0.5721458647713216
0.19904024954409197 0.09923464715134965 0.6199841511817761
0.1723249572773218 0.003215496269718442 0.698842707295315
0.32067823723479605 0.12366511788335058 0.7176267077329264
0.5257570714588562 0.0112239411451031 0.5721458647713216
0.399040249544092 0.09923464715134965 0.6199841511817761
0.37232495727732184 0.003215496269718442 0.698842707295315
0.520678237234796 0.12366511788335058 0.7176267077329264
0.7257570714588563 0.0112239411451031 0.5721458647713216
0.599040249544092 0.09923464715134965 0.6199841511817761
0.5723249572773218 0.003215496269718442 0.698842707295315
0.7206782372347961 0.12366511788335058 0.7176267077329264
0.9257570714588562 0.0112239411451031 0.5721458647713216
0.799040249544092 0.09923464715134965 0.6199841511817761
0.7723249572773219 0.003215496269718442 0.698842707295315
0.9206782372347959 0.12366511788335058 0.7176267077329264
0.12575707145885626 0.21122394114510312 0.5721458647713216
-0.0009597504559080271 0.2992346471513496 0.6199841511817761
-0.027675042722678195 0.20321549626971847 0.698842707295315
0.12067823723479598 0.32366511788335056 0.7176267077329264
0.32575707145885624 0.21122394114510312 0.5721458647713216
0.19904024954409197 0.2992346471513496 0.6199841511817761
0.1723249572773218 0.20321549626971847 0.698842707295315
0.32067823723479605 0.32366511788335056 0.7176267077329264
0.5257570714588562 0.21122394114510312 0.5721458647713216
0.399040249544092 0.2992346471513496 0.6199841511817761
0.37232495727732184 0.20321549626971847 0.698842707295315
0.520678237234796 0.32366511788335056 0.7176267077329264
0.7257570714588563 0.21122394114510312 0.5721458647713216
0.599040249544092 0.2992346471513496 0.6199841511817761
0.5723249572773218 0.20321549626971847 0.698842707295315
0.7206782372347961 0.32366511788335056 0.7176267077329264
0.9257570714588562 0.21122394114510312 0.5721458647713216
0.799040249544092 0.2992346471513496 0.6199841511817761
0.7723249572773219 0.20321549626971847 0.698842707295315
0.9206782372347959 0.32366511788335056 0.7176267077329264
0.12575707145885626 0.41122394114510313 0.5721458647713216
-0.0009597504559080271 0.49923464715134963 0.6199841511817761
-0.027675042722678195 0.4032154962697185 0.698842707295315
0.12067823723479598 0.5236651178833506 0.7176267077329264
0.32575707145885624 0.41122394114510313 0.5721458647713216
0.19904024954409197 0.49923464715134963 0.6199841511817761
0.1723249572773218 0.4032154962697185 0.698842707295315
0.32067823723479605 0.5236651178833506 0.7176267077329264
0.5257570714588562 0.41122394114510313 0.5721458647713216
0.399040249544092 0.49923464715134963 0.6199841511817761
0.37232495727732184 0.4032154962697185 0.698842707295315
0.520678237234796 0.5236651178833506 0.7176267077329264
0.7257570714588563 0.41122394114510313 0.5721458647713216
0.599040249544092 0.49923464715134963 0.6199841511817761
0.5723249572773218 0.4032154962697185 0.698842707295315
0.7206782372347961 0.5236651178833506 0.7176267077329264
0.9257570714588562 0.41122394114510313 0.5721458647713216
0.799040249544092 0.49923464715134963 0.6199841511817761
0.7723249572773219 0.4032154962697185 0.698842707295315
0.9206782372347959 0.5236651178833506 0.7176267077329264
0.12575707145885626 0.6112239411451031 0.5721458647713216
-0.0009597504559080271 0.6992346471513496 0.6199841511817761
-0.027675042722678195 0.6032154962697185 0.698842707295315
0.12067823723479598 0.7236651178833506 0.7176267077329264
0.32575707145885624 0.6112239411451031 0.5721458647713216
0.19904024954409197 0.6992346471513496 0.6199841511817761
0.1723249572773218 0.6032154962697185 0.698842707295315
0.32067823723479605 0.7236651178833506 0.7176267077329264
0.5257570714588562 0.6112239411451031 0.5721458647713216
0.399040249544092 0.6992346471513496 0.6199841511817761
0.37232495727732184 0.6032154962697185 0.698842707295315
0.520678237234796 0.7236651178833506 0.7176267077329264
0.7257570714588563 0.6112239411451031 0.5721458647713216
0.599040249544092 0.6992346471513496 0.6199841511817761
0.5723249572773218 0.6032154962697185 0.698842707295315
0.7206782372347961 0.7236651178833506 0.7176267077329264
0.9257570714588562 0.6112239411451031 0.5721458647713216
0.799040249544092 0.6992346471513496 0.6199841511817761
0.7723249572773219 0.6032154962697185 0.698842707295315
0.9206782372347959 0.7236651178833506 0.7176267077329264
0.12575707145885626 0.8112239411451031 0.5721458647713216
-0.0009597504559080271 0.8992346471513497 0.6199841511817761
-0.027675042722678195 0.8032154962697184 0.698842707295315
0.12067823723479598 0.9236651178833507 0.7176267077329264
0.32575707145885624 0.8112239411451031 0.5721458647713216
0.19904024954409197 0.8992346471513497 0.6199841511817761
0.1723249572773218 0.8032154962697184 0.698842707295315
0.32067823723479605 0.9236651178833507 0.7176267077329264
0.5257570714588562 0.8112239411451031 0.5721458647713216
0.399040249544092 0.8992346471513497 0.6199841511817761
0.37232495727732184 0.8032154962697184 0.698842707295315
0.520678237234796 0.9236651178833507 0.7176267077329264
0.7257570714588563 0.8112239411451031 0.5721458647713216
0.599040249544092 0.8992346471513497 0.6199841511817761
0.5723249572773218 0.8032154962697184 0.698842707295315
0.7206782372347961 0.9236651178833507 0.7176267077329264
0.9257570714588562 0.8112239411451031 0.5721458647713216
0.799040249544092 0.8992346471513497 0.6199841511817761
0.7723249572773219 0.8032154962697184 0.698842707295315
0.9206782372347959 0.9236651178833507 0.7176267077329264
0.12575707145885626 0.0112239411451031 0.7721458647713216
-0.0009597504559080271 0.09923464715134965 0.8199841511817759
-0.027675042722678195 0.003215496269718442 0.8988427072953149
0.12067823723479598 0.12366511788335058 0.9176267077329263
0.32575707145885624 0.0112239411451031 0.7721458647713216
0.19904024954409197 0.09923464715134965 0.8199841511817759
0.1723249572773218 0.003215496269718442 0.8988427072953149
0.32067823723479605 0.12366511788335058 0.9176267077329263
0.5257570714588562 0.0112239411451031 0.7721458647713216
0.399040249544092 0.09923464715134965 0.8199841511817759
0.37232495727732184 0.003215496269718442 0.8988427072953149
0.520678237234796 0.12366511788335058 0.9176267077329263
0.7257570714588563 0.0112239411451031 0.7721458647713216
0.599040249544092 0.09923464715134965 0.8199841511817759
0.5723249572773218 0.003215496269718442 0.8988427072953149
0.7206782372347961 0.12366511788335058 0.9176267077329263
0.9257570714588562 0.0112239411451031 0.7721458647713216
0.799040249544092 0.09923464715134965 0.8199841511817759
0.7723249572773219 0.003215496269718442 0.8988427072953149
0.9206782372347959 0.12366511788335058 0.9176267077329263
0.12575707145885626 0.21122394114510312 0.7721458647713216
-0.0009597504559080271 0.2992346471513496 0.8199841511817759
-0.027675042722678195 0.20321549626971847 0.8988427072953149
0.12067823723479598 0.32366511788335056 0.9176267077329263
0.32575707145885624 0.21122394114510312 0.7721458647713216
0.19904024954409197 0.2992346471513496 0.8199841511817759
0.1723249572773218 0.20321549626971847 0.8988427072953149
0.32067823723479605 0.32366511788335056 0.9176267077329263
0.5257570714588562 0.21122394114510312 0.7721458647713216
0.399040249544092 0.2992346471513496 0.8199841511817759
0.37232495727732184 0.20321549626971847 0.8988427072953149
0.520678237234796 0.32366511788335056 0.9176267077329263
0.7257570714588563 0.21122394114510312 0.7721458647713216
0.599040249544092 0.2992346471513496 0.8199841511817759
0.5723249572773218 0.20321549626971847 0.8988427072953149
0.7206782372347961 0.32366511788335056 0.9176267077329263
0.9257570714588562 0.21122394114510312 0.7721458647713216
0.799040249544092 0.2992346471513496 0.8199841511817759
0.7723249572773219 0.20321549626971847 0.8988427072953149
0.9206782372347959 0.32366511788335056 0.9176267077329263
0.12575707145885626 0.41122394114510313 0.7721458647713216
-0.0009597504559080271 0.49923464715134963 0.8199841511817759
-0.027675042722678195 0.4032154962697185 0.8988427072953149
0.12067823723479598 0.5236651178833506 0.9176267077329263
0.32575707145885624 0.41122394114510313 0.7721458647713216
0.19904024954409197 0.49923464715134963 0.8199841511817759
0.1723249572773218 0.4032154962697185 0.8988427072953149
0.32067823723479605 0.5236651178833506 0.9176267077329263
0.5257570714588562 0.41122394114510313 0.7721458647713216
0.399040249544092 0.49923464715134963 0.8199841511817759
0.37232495727732184 0.4032154962697185 0.8988427072953149
0.520678237234796 0.5236651178833506 0.9176267077329263
0.7257570714588563 0.41122394114510313 0.7721458647713216
0.599040249544092 0.49923464715134963 0.8199841511817759
0.5723249572773218 0.4032154962697185 0.8988427072953149
0.7206782372347961 0.5236651178833506 0.9176267077329263
0.9257570714588562 0.41122394114510313 0.7721458647713216
0.799040249544092 0.49923464715134963 0.8199841511817759
0.7723249572773219 0.4032154962697185 0.8988427072953149
0.9206782372347959 0.5236651178833506 0.9176267077329263
0.12575707145885626 0.6112239411451031 0.7721458647713216
-0.0009597504559080271 0.6992346471513496 0.8199841511817759
-0.027675042722678195 0.6032154962697185 0.8988427072953149
0.12067823723479598 0.7236651178833506 0.9176267077329263
0.32575707145885624 0.6112239411451031 0.7721458647713216
0.19904024954409197 0.6992346471513496 0.8199841511817759
0.1723249572773218 0.6032154962697185 0.8988427072953149
0.32067823723479605 0.7236651178833506 0.9176267077329263
0.5257570714588562 0.6112239411451031 0.7721458647713216
0.399040249544092 0.6992346471513496 0.8199841511817759
0.37232495727732184 0.6032154962697185 0.8988427072953149
0.520678237234796 0.7236651178833506 0.9176267077329263
0.7257570714588563 0.6112239411451031 0.7721458647713216
0.599040249544092 0.6992346471513496 0.8199841511817759
0.5723249572773218 0.6032154962697185 0.8988427072953149
0.7206782372347961 0.7236651178833506 0.9176267077329263
0.9257570714588562 0.6112239411451031 0.7721458647713216
0.799040249544092 0.6992346471513496 0.8199841511817759
0.7723249572773219 0.6032154962697185 0.8988427072953149
0.9206782372347959 0.7236651178833506 0.9176267077329263
0.12575707145885626 0.8112239411451031 0.7721458647713216
-0.0009597504559080271 0.8992346471513497 0.8199841511817759
-0.027675042722678195 0.8032154962697184 0.8988427072953149
0.12067823723479598 0.9236651178833507 0.9176267077329263
0.32575707145885624 0.8112239411451031 0.7721458647713216
0.19904024954409197 0.8992346471513497 0.8199841511817759
0.1723249572773218 0.8032154962697184 0.8988427072953149
0.32067823723479605 0.9236651178833507 0.9176267077329263
0.5257570714588562 0.8112239411451031 0.7721458647713216
0.399040249544092 0.8992346471513497 0.8199841511817759
0.37232495727732184 0.8032154962697184 0.8988427072953149
0.520678237234796 0.9236651178833507 0.9176267077329263
0.7257570714588563 0.8112239411451031 0.7721458647713216
0.599040249544092 0.8992346471513497 0.8199841511817759
0.5723249572773218 0.8032154962697184 0.8988427072953149
0.7206782372347961 0.9236651178833507 0.9176267077329263
0.9257570714588562 0.8112239411451031 0.7721458647713216
0.799040249544092 0.8992346471513497 0.8199841511817759
0.7723249572773219 0.8032154962697184 0.8988427072953149
0.9206782372347959 0.9236651178833507 0.9176267077329263
