FCC BaO
3.971
5.0 0.0 0.0
0.0 5.0 0.0
0.0 0.0 5.0
Ba O 
500 500 
Direct
-0.011861809737852662 -0.02464916876270127 0.0166046135144164
0.012757486599453957 0.10472217055735511 0.0870390560267687
0.11050195250668314 -0.0020208863339977933 0.09550061222239398
0.11923907797789497 0.12950313543330363 -0.011821980033898548
0.18813819026214734 -0.02464916876270127 0.0166046135144164
0.21275748659945398 0.10472217055735511 0.0870390560267687
0.31050195250668317 -0.0020208863339977933 0.09550061222239398
0.31923907797789497 0.12950313543330363 -0.011821980033898548
0.38813819026214735 -0.02464916876270127 0.0166046135144164
0.41275748659945394 0.10472217055735511 0.0870390560267687
0.5105019525066832 -0.0020208863339977933 0.09550061222239398
0.5192390779778949 0.12950313543330363 -0.011821980033898548
0.5881381902621474 -0.02464916876270127 0.0166046135144164
0.612757486599454 0.10472217055735511 0.0870390560267687
0.7105019525066831 -0.0020208863339977933 0.09550061222239398
0.719239077977895 0.12950313543330363 -0.011821980033898548
0.7881381902621474 -0.02464916876270127 0.0166046135144164
0.812757486599454 0.10472217055735511 0.0870390560267687
0.9105019525066832 -0.0020208863339977933 0.09550061222239398
0.9192390779778951 0.12950313543330363 -0.011821980033898548
-0.011861809737852662 0.17535083123729875 0.0166046135144164
0.012757486599453957 0.3047221705573551 0.0870390560267687
0.11050195250668314 0.1979791136660022 0.09550061222239398
0.11923907797789497 0.3295031354333037 -0.011821980033898548
0.18813819026214734 0.17535083123729875 0.0166046135144164
0.21275748659945398 0.3047221705573551 0.0870390560267687
0.31050195250668317 0.1979791136660022 0.09550061222239398
0.31923907797789497 0.3295031354333037 -0.011821980033898548
0.38813819026214735 0.17535083123729875 0.0166046135144164
0.41275748659945394 0.3047221705573551 0.0870390560267687
0.5105019525066832 0.1979791136660022 0.09550061222239398
0.5192390779778949 0.3295031354333037 -0.011821980033898548
0.5881381902621474 0.17535083123729875 0.0166046135144164
0.612757486599454 0.3047221705573551 0.0870390560267687
0.7105019525066831 0.1979791136660022 0.09550061222239398
0.719239077977895 0.3295031354333037 -0.011821980033898548
0.7881381902621474 0.17535083123729875 0.0166046135144164
0.812757486599454 0.3047221705573551 0.0870390560267687
0.9105019525066832 0.1979791136660022 0.09550061222239398
0.9192390779778951 0.3295031354333037 -0.011821980033898548
-0.011861809737852662 0.37535083123729873 0.0166046135144164
0.012757486599453957 0.5047221705573551 0.0870390560267687
0.11050195250668314 0.39797911366600225 0.09550061222239398
0.11923907797789497 0.5295031354333036 -0.011821980033898548
0.18813819026214734 0.37535083123729873 0.0166046135144164
0.21275748659945398 0.5047221705573551 0.0870390560267687
0.31050195250668317 0.39797911366600225 0.09550061222239398
0.31923907797789497 0.5295031354333036 -0.011821980033898548
0.38813819026214735 0.37535083123729873 0.0166046135144164
0.41275748659945394 0.5047221705573551 0.0870390560267687
0.5105019525066832 0.39797911366600225 0.09550061222239398
0.5192390779778949 0.5295031354333036 -0.011821980033898548
0.5881381902621474 0.37535083123729873 0.0166046135144164
0.612757486599454 0.5047221705573551 0.0870390560267687
0.7105019525066831 0.39797911366600225 0.09550061222239398
0.719239077977895 0.5295031354333036 -0.011821980033898548
0.7881381902621474 0.37535083123729873 0.0166046135144164
0.812757486599454 0.5047221705573551 0.0870390560267687
0.9105019525066832 0.39797911366600225 0.09550061222239398
0.9192390779778951 0.5295031354333036 -0.011821980033898548
-0.011861809737852662 0.5753508312372987 0.0166046135144164
0.012757486599453957 0.7047221705573552 0.0870390560267687
0.11050195250668314 0.5979791136660023 0.09550061222239398
0.11923907797789497 0.7295031354333037 -0.011821980033898548
0.18813819026214734 0.5753508312372987 0.0166046135144164
0.21275748659945398 0.7047221705573552 0.0870390560267687
0.31050195250668317 0.5979791136660023 0.09550061222239398
0.31923907797789497 0.7295031354333037 -0.011821980033898548
0.38813819026214735 0.5753508312372987 0.0166046135144164
0.41275748659945394 0.7047221705573552 0.0870390560267687
0.5105019525066832 0.5979791136660023 0.09550061222239398
0.5192390779778949 0.7295031354333037 -0.011821980033898548
0.5881381902621474 0.5753508312372987 0.0166046135144164
0.612757486599454 0.7047221705573552 0.0870390560267687
0.7105019525066831 0.5979791136660023 0.09550061222239398
0.719239077977895 0.7295031354333037 -0.011821980033898548
0.7881381902621474 0.5753508312372987 0.0166046135144164
0.812757486599454 0.7047221705573552 0.0870390560267687
0.9105019525066832 0.5979791136660023 0.09550061222239398
0.9192390779778951 0.7295031354333037 -0.011821980033898548
-0.011861809737852662 0.7753508312372988 0.0166046135144164
0.012757486599453957 0.9047221705573553 0.0870390560267687
0.11050195250668314 0.7979791136660023 0.09550061222239398
0.11923907797789497 0.9295031354333037 -0.011821980033898548
0.18813819026214734 0.7753508312372988 0.0166046135144164
0.21275748659945398 0.9047221705573553 0.0870390560267687
0.31050195250668317 0.7979791136660023 0.09550061222239398
0.31923907797789497 0.9295031354333037 -0.011821980033898548
0.38813819026214735 0.7753508312372988 0.0166046135144164
0.41275748659945394 0.9047221705573553 0.0870390560267687
0.5105019525066832 0.7979791136660023 0.09550061222239398
0.5192390779778949 0.9295031354333037 -0.011821980033898548
0.5881381902621474 0.7753508312372988 0.0166046135144164
0.612757486599454 0.9047221705573553 0.0870390560267687
0.7105019525066831 0.7979791136660023 0.09550061222239398
0.719239077977895 0.9295031354333037 -0.011821980033898548
0.7881381902621474 0.7753508312372988 0.0166046135144164
0.812757486599454 0.9047221705573553 0.0870390560267687
0.9105019525066832 0.7979791136660023 0.09550061222239398
0.9192390779778951 0.9295031354333037 -0.011821980033898548
-0.011861809737852662 -0.02464916876270127 0.2166046135144164
0.012757486599453957 0.10472217055735511 0.2870390560267687
0.11050195250668314 -0.0020208863339977933 0.29550061222239393
0.11923907797789497 0.12950313543330363 0.18817801996610148
0.18813819026214734 -0.02464916876270127 0.2166046135144164
0.21275748659945398 0.10472217055735511 0.2870390560267687
0.31050195250668317 -0.0020208863339977933 0.29550061222239393
0.31923907797789497 0.12950313543330363 0.18817801996610148
0.38813819026214735 -0.02464916876270127 0.2166046135144164
0.41275748659945394 0.10472217055735511 0.2870390560267687
0.5105019525066832 -0.0020208863339977933 0.29550061222239393
0.5192390779778949 0.12950313543330363 0.18817801996610148
0.5881381902621474 -0.02464916876270127 0.2166046135144164
0.612757486599454 0.10472217055735511 0.2870390560267687
0.7105019525066831 -0.0020208863339977933 0.29550061222239393
0.719239077977895 0.12950313543330363 0.18817801996610148
0.7881381902621474 -0.02464916876270127 0.2166046135144164
0.812757486599454 0.10472217055735511 0.2870390560267687
0.9105019525066832 -0.0020208863339977933 0.29550061222239393
0.9192390779778951 0.12950313543330363 0.18817801996610148
-0.011861809737852662 0.17535083123729875 0.2166046135144164
0.012757486599453957 0.3047221705573551 0.2870390560267687
0.11050195250668314 0.1979791136660022 0.29550061222239393
0.11923907797789497 0.3295031354333037 0.18817801996610148
0.18813819026214734 0.17535083123729875 0.2166046135144164
0.21275748659945398 0.3047221705573551 0.2870390560267687
0.31050195250668317 0.1979791136660022 0.29550061222239393
0.31923907797789497 0.3295031354333037 0.18817801996610148
0.38813819026214735 0.17535083123729875 0.2166046135144164
0.41275748659945394 0.3047221705573551 0.2870390560267687
0.5105019525066832 0.1979791136660022 0.29550061222239393
0.5192390779778949 0.3295031354333037 0.18817801996610148
0.5881381902621474 0.17535083123729875 0.2166046135144164
0.612757486599454 0.3047221705573551 0.2870390560267687
0.7105019525066831 0.1979791136660022 0.29550061222239393
0.719239077977895 0.3295031354333037 0.18817801996610148
0.7881381902621474 0.17535083123729875 0.2166046135144164
0.812757486599454 0.3047221705573551 0.2870390560267687
0.9105019525066832 0.1979791136660022 0.29550061222239393
0.9192390779778951 0.3295031354333037 0.18817801996610148
-0.011861809737852662 0.37535083123729873 0.2166046135144164
0.012757486599453957 0.5047221705573551 0.2870390560267687
0.11050195250668314 0.39797911366600225 0.29550061222239393
0.11923907797789497 0.5295031354333036 0.18817801996610148
0.18813819026214734 0.37535083123729873 0.2166046135144164
0.21275748659945398 0.5047221705573551 0.2870390560267687
0.31050195250668317 0.39797911366600225 0.29550061222239393
0.31923907797789497 0.5295031354333036 0.18817801996610148
0.38813819026214735 0.37535083123729873 0.2166046135144164
0.41275748659945394 0.5047221705573551 0.2870390560267687
0.5105019525066832 0.39797911366600225 0.29550061222239393
0.5192390779778949 0.5295031354333036 0.18817801996610148
0.5881381902621474 0.37535083123729873 0.2166046135144164
0.612757486599454 0.5047221705573551 0.2870390560267687
0.7105019525066831 0.39797911366600225 0.29550061222239393
0.719239077977895 0.5295031354333036 0.18817801996610148
0.7881381902621474 0.37535083123729873 0.2166046135144164
0.812757486599454 0.5047221705573551 0.2870390560267687
0.9105019525066832 0.39797911366600225 0.29550061222239393
0.9192390779778951 0.5295031354333036 0.18817801996610148
-0.011861809737852662 0.5753508312372987 0.2166046135144164
0.012757486599453957 0.7047221705573552 0.2870390560267687
0.11050195250668314 0.5979791136660023 0.29550061222239393
0.11923907797789497 0.7295031354333037 0.18817801996610148
0.18813819026214734 0.5753508312372987 0.2166046135144164
0.21275748659945398 0.7047221705573552 0.2870390560267687
0.31050195250668317 0.5979791136660023 0.29550061222239393
0.31923907797789497 0.7295031354333037 0.18817801996610148
0.38813819026214735 0.5753508312372987 0.2166046135144164
0.41275748659945394 0.7047221705573552 0.2870390560267687
0.5105019525066832 0.5979791136660023 0.29550061222239393
0.5192390779778949 0.7295031354333037 0.18817801996610148
0.5881381902621474 0.5753508312372987 0.2166046135144164
0.612757486599454 0.7047221705573552 0.2870390560267687
0.7105019525066831 0.5979791136660023 0.29550061222239393
0.719239077977895 0.7295031354333037 0.18817801996610148
0.7881381902621474 0.5753508312372987 0.2166046135144164
0.812757486599454 0.7047221705573552 0.2870390560267687
0.9105019525066832 0.5979791136660023 0.29550061222239393
0.9192390779778951 0.7295031354333037 0.18817801996610148
-0.011861809737852662 0.7753508312372988 0.2166046135144164
0.012757486599453957 0.9047221705573553 0.2870390560267687
0.11050195250668314 0.7979791136660023 0.29550061222239393
0.11923907797789497 0.9295031354333037 0.18817801996610148
0.18813819026214734 0.7753508312372988 0.2166046135144164
0.21275748659945398 0.9047221705573553 0.2870390560267687
0.31050195250668317 0.7979791136660023 0.29550061222239393
0.31923907797789497 0.9295031354333037 0.18817801996610148
0.38813819026214735 0.7753508312372988 0.2166046135144164
0.41275748659945394 0.9047221705573553 0.2870390560267687
0.5105019525066832 0.7979791136660023 0.29550061222239393
0.5192390779778949 0.9295031354333037 0.18817801996610148
0.5881381902621474 0.7753508312372988 0.2166046135144164
0.612757486599454 0.9047221705573553 0.2870390560267687
0.7105019525066831 0.7979791136660023 0.29550061222239393
0.719239077977895 0.9295031354333037 0.18817801996610148
0.7881381902621474 0.7753508312372988 0.2166046135144164
0.812757486599454 0.9047221705573553 0.2870390560267687
0.9105019525066832 0.7979791136660023 0.29550061222239393
0.9192390779778951 0.9295031354333037 0.18817801996610148
-0.011861809737852662 -0.02464916876270127 0.4166046135144164
0.012757486599453957 0.10472217055735511 0.4870390560267687
0.11050195250668314 -0.0020208863339977933 0.49550061222239394
0.11923907797789497 0.12950313543330363 0.38817801996610146
0.18813819026214734 -0.02464916876270127 0.4166046135144164
0.21275748659945398 0.10472217055735511 0.4870390560267687
0.31050195250668317 -0.0020208863339977933 0.49550061222239394
0.31923907797789497 0.12950313543330363 0.38817801996610146
0.38813819026214735 -0.02464916876270127 0.4166046135144164
0.41275748659945394 0.10472217055735511 0.4870390560267687
0.5105019525066832 -0.0020208863339977933 0.49550061222239394
0.5192390779778949 0.12950313543330363 0.38817801996610146
0.5881381902621474 -0.02464916876270127 0.4166046135144164
0.612757486599454 0.10472217055735511 0.4870390560267687
0.7105019525066831 -0.0020208863339977933 0.49550061222239394
0.719239077977895 0.12950313543330363 0.38817801996610146
0.7881381902621474 -0.02464916876270127 0.4166046135144164
0.812757486599454 0.10472217055735511 0.4870390560267687
0.9105019525066832 -0.0020208863339977933 0.49550061222239394
0.9192390779778951 0.12950313543330363 0.38817801996610146
-0.011861809737852662 0.17535083123729875 0.4166046135144164
0.012757486599453957 0.3047221705573551 0.4870390560267687
0.11050195250668314 0.1979791136660022 0.49550061222239394
0.11923907797789497 0.3295031354333037 0.38817801996610146
0.18813819026214734 0.17535083123729875 0.4166046135144164
0.21275748659945398 0.3047221705573551 0.4870390560267687
0.31050195250668317 0.1979791136660022 0.49550061222239394
0.31923907797789497 0.3295031354333037 0.38817801996610146
0.38813819026214735 0.17535083123729875 0.4166046135144164
0.41275748659945394 0.3047221705573551 0.4870390560267687
0.5105019525066832 0.1979791136660022 0.49550061222239394
0.5192390779778949 0.3295031354333037 0.38817801996610146
0.5881381902621474 0.17535083123729875 0.4166046135144164
0.612757486599454 0.3047221705573551 0.4870390560267687
0.7105019525066831 0.1979791136660022 0.49550061222239394
0.719239077977895 0.3295031354333037 0.38817801996610146
0.7881381902621474 0.17535083123729875 0.4166046135144164
0.812757486599454 0.3047221705573551 0.4870390560267687
0.9105019525066832 0.1979791136660022 0.49550061222239394
0.9192390779778951 0.3295031354333037 0.38817801996610146
-0.011861809737852662 0.37535083123729873 0.4166046135144164
0.012757486599453957 0.5047221705573551 0.4870390560267687
0.11050195250668314 0.39797911366600225 0.49550061222239394
0.11923907797789497 0.5295031354333036 0.38817801996610146
0.18813819026214734 0.37535083123729873 0.4166046135144164
0.21275748659945398 0.5047221705573551 0.4870390560267687
0.31050195250668317 0.39797911366600225 0.49550061222239394
0.31923907797789497 0.5295031354333036 0.38817801996610146
0.38813819026214735 0.37535083123729873 0.4166046135144164
0.41275748659945394 0.5047221705573551 0.4870390560267687
0.5105019525066832 0.39797911366600225 0.49550061222239394
0.5192390779778949 0.5295031354333036 0.38817801996610146
0.5881381902621474 0.37535083123729873 0.4166046135144164
0.612757486599454 0.5047221705573551 0.4870390560267687
0.7105019525066831 0.39797911366600225 0.49550061222239394
0.719239077977895 0.5295031354333036 0.38817801996610146
0.7881381902621474 0.37535083123729873 0.4166046135144164
0.812757486599454 0.5047221705573551 0.4870390560267687
0.9105019525066832 0.39797911366600225 0.49550061222239394
0.9192390779778951 0.5295031354333036 0.38817801996610146
-0.011861809737852662 0.5753508312372987 0.4166046135144164
0.012757486599453957 0.7047221705573552 0.4870390560267687
0.11050195250668314 0.5979791136660023 0.49550061222239394
0.11923907797789497 0.7295031354333037 0.38817801996610146
0.18813819026214734 0.5753508312372987 0.4166046135144164
0.21275748659945398 0.7047221705573552 0.4870390560267687
0.31050195250668317 0.5979791136660023 0.49550061222239394
0.31923907797789497 0.7295031354333037 0.38817801996610146
0.38813819026214735 0.5753508312372987 0.4166046135144164
0.41275748659945394 0.7047221705573552 0.4870390560267687
0.5105019525066832 0.5979791136660023 0.49550061222239394
0.5192390779778949 0.7295031354333037 0.38817801996610146
0.5881381902621474 0.5753508312372987 0.4166046135144164
0.612757486599454 0.7047221705573552 0.4870390560267687
0.7105019525066831 0.5979791136660023 0.49550061222239394
0.719239077977895 0.7295031354333037 0.38817801996610146
0.7881381902621474 0.5753508312372987 0.4166046135144164
0.812757486599454 0.7047221705573552 0.4870390560267687
0.9105019525066832 0.5979791136660023 0.49550061222239394
0.9192390779778951 0.7295031354333037 0.38817801996610146
-0.011861809737852662 0.7753508312372988 0.4166046135144164
0.012757486599453957 0.9047221705573553 0.4870390560267687
0.11050195250668314 0.7979791136660023 0.49550061222239394
0.11923907797789497 0.9295031354333037 0.38817801996610146
0.18813819026214734 0.7753508312372988 0.4166046135144164
0.21275748659945398 0.9047221705573553 0.4870390560267687
0.31050195250668317 0.7979791136660023 0.49550061222239394
0.31923907797789497 0.9295031354333037 0.38817801996610146
0.38813819026214735 0.7753508312372988 0.4166046135144164
0.41275748659945394 0.9047221705573553 0.4870390560267687
0.5105019525066832 0.7979791136660023 0.49550061222239394
0.5192390779778949 0.9295031354333037 0.38817801996610146
0.5881381902621474 0.7753508312372988 0.4166046135144164
0.612757486599454 0.9047221705573553 0.4870390560267687
0.7105019525066831 0.7979791136660023 0.49550061222239394
0.719239077977895 0.9295031354333037 0.38817801996610146
0.7881381902621474 0.7753508312372988 0.4166046135144164
0.812757486599454 0.9047221705573553 0.4870390560267687
0.9105019525066832 0.7979791136660023 0.49550061222239394
0.9192390779778951 0.9295031354333037 0.38817801996610146
-0.011861809737852662 -0.02464916876270127 0.6166046135144164
0.012757486599453957 0.10472217055735511 0.6870390560267687
0.11050195250668314 -0.0020208863339977933 0.695500612222394
0.11923907797789497 0.12950313543330363 0.5881780199661015
0.18813819026214734 -0.02464916876270127 0.6166046135144164
0.21275748659945398 0.10472217055735511 0.6870390560267687
0.31050195250668317 -0.0020208863339977933 0.695500612222394
0.31923907797789497 0.12950313543330363 0.5881780199661015
0.38813819026214735 -0.02464916876270127 0.6166046135144164
0.41275748659945394 0.10472217055735511 0.6870390560267687
0.5105019525066832 -0.0020208863339977933 0.695500612222394
0.5192390779778949 0.12950313543330363 0.5881780199661015
0.5881381902621474 -0.02464916876270127 0.6166046135144164
0.612757486599454 0.10472217055735511 0.6870390560267687
0.7105019525066831 -0.0020208863339977933 0.695500612222394
0.719239077977895 0.12950313543330363 0.5881780199661015
0.7881381902621474 -0.02464916876270127 0.6166046135144164
0.812757486599454 0.10472217055735511 0.6870390560267687
0.9105019525066832 -0.0020208863339977933 0.695500612222394
0.9192390779778951 0.12950313543330363 0.5881780199661015
-0.011861809737852662 0.17535083123729875 0.6166046135144164
0.012757486599453957 0.3047221705573551 0.6870390560267687
0.11050195250668314 0.1979791136660022 0.695500612222394
0.11923907797789497 0.3295031354333037 0.5881780199661015
0.18813819026214734 0.17535083123729875 0.6166046135144164
0.21275748659945398 0.3047221705573551 0.6870390560267687
0.31050195250668317 0.1979791136660022 0.695500612222394
0.31923907797789497 0.3295031354333037 0.5881780199661015
0.38813819026214735 0.17535083123729875 0.6166046135144164
0.41275748659945394 0.3047221705573551 0.6870390560267687
0.5105019525066832 0.1979791136660022 0.695500612222394
0.5192390779778949 0.3295031354333037 0.5881780199661015
0.5881381902621474 0.17535083123729875 0.6166046135144164
0.612757486599454 0.3047221705573551 0.6870390560267687
0.7105019525066831 0.1979791136660022 0.695500612222394
0.719239077977895 0.3295031354333037 0.5881780199661015
0.7881381902621474 0.17535083123729875 0.6166046135144164
0.812757486599454 0.3047221705573551 0.6870390560267687
0.9105019525066832 0.1979791136660022 0.695500612222394
0.9192390779778951 0.3295031354333037 0.5881780199661015
-0.011861809737852662 0.37535083123729873 0.6166046135144164
0.012757486599453957 0.5047221705573551 0.6870390560267687
0.11050195250668314 0.39797911366600225 0.695500612222394
0.11923907797789497 0.5295031354333036 0.5881780199661015
0.18813819026214734 0.37535083123729873 0.6166046135144164
0.21275748659945398 0.5047221705573551 0.6870390560267687
0.31050195250668317 0.39797911366600225 0.695500612222394
0.31923907797789497 0.5295031354333036 0.5881780199661015
0.38813819026214735 0.37535083123729873 0.6166046135144164
0.41275748659945394 0.5047221705573551 0.6870390560267687
0.5105019525066832 0.39797911366600225 0.695500612222394
0.5192390779778949 0.5295031354333036 0.5881780199661015
0.5881381902621474 0.37535083123729873 0.6166046135144164
0.612757486599454 0.5047221705573551 0.6870390560267687
0.7105019525066831 0.39797911366600225 0.695500612222394
0.719239077977895 0.5295031354333036 0.5881780199661015
0.7881381902621474 0.37535083123729873 0.6166046135144164
0.812757486599454 0.5047221705573551 0.6870390560267687
0.9105019525066832 0.39797911366600225 0.695500612222394
0.9192390779778951 0.5295031354333036 0.5881780199661015
-0.011861809737852662 0.5753508312372987 0.6166046135144164
0.012757486599453957 0.7047221705573552 0.6870390560267687
0.11050195250668314 0.5979791136660023 0.695500612222394
0.11923907797789497 0.7295031354333037 0.5881780199661015
0.18813819026214734 0.5753508312372987 0.6166046135144164
0.21275748659945398 0.7047221705573552 0.6870390560267687
0.31050195250668317 0.5979791136660023 0.695500612222394
0.31923907797789497 0.7295031354333037 0.5881780199661015
0.38813819026214735 0.5753508312372987 0.6166046135144164
0.41275748659945394 0.7047221705573552 0.6870390560267687
0.5105019525066832 0.5979791136660023 0.695500612222394
0.5192390779778949 0.7295031354333037 0.5881780199661015
0.5881381902621474 0.5753508312372987 0.6166046135144164
0.612757486599454 0.7047221705573552 0.6870390560267687
0.7105019525066831 0.5979791136660023 0.695500612222394
0.719239077977895 0.7295031354333037 0.5881780199661015
0.7881381902621474 0.5753508312372987 0.6166046135144164
0.812757486599454 0.7047221705573552 0.6870390560267687
0.9105019525066832 0.5979791136660023 0.695500612222394
0.9192390779778951 0.7295031354333037 0.5881780199661015
-0.011861809737852662 0.7753508312372988 0.6166046135144164
0.012757486599453957 0.9047221705573553 0.6870390560267687
0.11050195250668314 0.7979791136660023 0.695500612222394
0.11923907797789497 0.9295031354333037 0.5881780199661015
0.18813819026214734 0.7753508312372988 0.6166046135144164
0.21275748659945398 0.9047221705573553 0.6870390560267687
0.31050195250668317 0.7979791136660023 0.695500612222394
0.31923907797789497 0.9295031354333037 0.5881780199661015
0.38813819026214735 0.7753508312372988 0.6166046135144164
0.41275748659945394 0.9047221705573553 0.6870390560267687
0.5105019525066832 0.7979791136660023 0.695500612222394
0.5192390779778949 0.9295031354333037 0.5881780199661015
0.5881381902621474 0.7753508312372988 0.6166046135144164
0.612757486599454 0.9047221705573553 0.6870390560267687
0.7105019525066831 0.7979791136660023 0.695500612222394
0.719239077977895 0.9295031354333037 0.5881780199661015
0.7881381902621474 0.7753508312372988 0.6166046135144164
0.812757486599454 0.9047221705573553 0.6870390560267687
0.9105019525066832 0.7979791136660023 0.695500612222394
0.9192390779778951 0.9295031354333037 0.5881780199661015
-0.011861809737852662 -0.02464916876270127 0.8166046135144165
0.012757486599453957 0.10472217055735511 0.8870390560267687
0.11050195250668314 -0.0020208863339977933 0.8955006122223941
0.11923907797789497 0.12950313543330363 0.7881780199661015
0.18813819026214734 -0.02464916876270127 0.8166046135144165
0.21275748659945398 0.10472217055735511 0.8870390560267687
0.31050195250668317 -0.0020208863339977933 0.8955006122223941
0.31923907797789497 0.12950313543330363 0.7881780199661015
0.38813819026214735 -0.02464916876270127 0.8166046135144165
0.41275748659945394 0.10472217055735511 0.8870390560267687
0.5105019525066832 -0.0020208863339977933 0.8955006122223941
0.5192390779778949 0.12950313543330363 0.7881780199661015
0.5881381902621474 -0.02464916876270127 0.8166046135144165
0.612757486599454 0.10472217055735511 0.8870390560267687
0.7105019525066831 -0.0020208863339977933 0.8955006122223941
0.719239077977895 0.12950313543330363 0.7881780199661015
0.7881381902621474 -0.02464916876270127 0.8166046135144165
0.812757486599454 0.10472217055735511 0.8870390560267687
0.9105019525066832 -0.0020208863339977933 0.8955006122223941
0.9192390779778951 0.12950313543330363 0.7881780199661015
-0.011861809737852662 0.17535083123729875 0.8166046135144165
0.012757486599453957 0.3047221705573551 0.8870390560267687
0.11050195250668314 0.1979791136660022 0.8955006122223941
0.11923907797789497 0.3295031354333037 0.7881780199661015
0.18813819026214734 0.17535083123729875 0.8166046135144165
0.21275748659945398 0.3047221705573551 0.8870390560267687
0.31050195250668317 0.1979791136660022 0.8955006122223941
0.31923907797789497 0.3295031354333037 0.7881780199661015
0.38813819026214735 0.17535083123729875 0.8166046135144165
0.41275748659945394 0.3047221705573551 0.8870390560267687
0.5105019525066832 0.1979791136660022 0.8955006122223941
0.5192390779778949 0.3295031354333037 0.7881780199661015
0.5881381902621474 0.17535083123729875 0.8166046135144165
0.612757486599454 0.3047221705573551 0.8870390560267687
0.7105019525066831 0.1979791136660022 0.8955006122223941
0.719239077977895 0.3295031354333037 0.7881780199661015
0.7881381902621474 0.17535083123729875 0.8166046135144165
0.812757486599454 0.3047221705573551 0.8870390560267687
0.9105019525066832 0.1979791136660022 0.8955006122223941
0.9192390779778951 0.3295031354333037 0.7881780199661015
-0.011861809737852662 0.37535083123729873 0.8166046135144165
0.012757486599453957 0.5047221705573551 0.8870390560267687
0.11050195250668314 0.39797911366600225 0.8955006122223941
0.11923907797789497 0.5295031354333036 0.7881780199661015
0.18813819026214734 0.37535083123729873 0.8166046135144165
0.21275748659945398 0.5047221705573551 0.8870390560267687
0.31050195250668317 0.39797911366600225 0.8955006122223941
0.31923907797789497 0.5295031354333036 0.7881780199661015
0.38813819026214735 0.37535083123729873 0.8166046135144165
0.41275748659945394 0.5047221705573551 0.8870390560267687
0.5105019525066832 0.39797911366600225 0.8955006122223941
0.5192390779778949 0.5295031354333036 0.7881780199661015
0.5881381902621474 0.37535083123729873 0.8166046135144165
0.612757486599454 0.5047221705573551 0.8870390560267687
0.7105019525066831 0.39797911366600225 0.8955006122223941
0.719239077977895 0.5295031354333036 0.7881780199661015
0.7881381902621474 0.37535083123729873 0.8166046135144165
0.812757486599454 0.5047221705573551 0.8870390560267687
0.9105019525066832 0.39797911366600225 0.8955006122223941
0.9192390779778951 0.5295031354333036 0.7881780199661015
-0.011861809737852662 0.5753508312372987 0.8166046135144165
0.012757486599453957 0.7047221705573552 0.8870390560267687
0.11050195250668314 0.5979791136660023 0.8955006122223941
0.11923907797789497 0.7295031354333037 0.7881780199661015
0.18813819026214734 0.5753508312372987 0.8166046135144165
0.21275748659945398 0.7047221705573552 0.8870390560267687
0.31050195250668317 0.5979791136660023 0.8955006122223941
0.31923907797789497 0.7295031354333037 0.7881780199661015
0.38813819026214735 0.5753508312372987 0.8166046135144165
0.41275748659945394 0.7047221705573552 0.8870390560267687
0.5105019525066832 0.5979791136660023 0.8955006122223941
0.5192390779778949 0.7295031354333037 0.7881780199661015
0.5881381902621474 0.5753508312372987 0.8166046135144165
0.612757486599454 0.7047221705573552 0.8870390560267687
0.7105019525066831 0.5979791136660023 0.8955006122223941
0.719239077977895 0.7295031354333037 0.7881780199661015
0.7881381902621474 0.5753508312372987 0.8166046135144165
0.812757486599454 0.7047221705573552 0.8870390560267687
0.9105019525066832 0.5979791136660023 0.8955006122223941
0.9192390779778951 0.7295031354333037 0.7881780199661015
-0.011861809737852662 0.7753508312372988 0.8166046135144165
0.012757486599453957 0.9047221705573553 0.8870390560267687
0.11050195250668314 0.7979791136660023 0.8955006122223941
0.11923907797789497 0.9295031354333037 0.7881780199661015
0.18813819026214734 0.7753508312372988 0.8166046135144165
0.21275748659945398 0.9047221705573553 0.8870390560267687
0.31050195250668317 0.7979791136660023 0.8955006122223941
0.31923907797789497 0.9295031354333037 0.7881780199661015
0.38813819026214735 0.7753508312372988 0.8166046135144165
0.41275748659945394 0.9047221705573553 0.8870390560267687
0.5105019525066832 0.7979791136660023 0.8955006122223941
0.5192390779778949 0.9295031354333037 0.7881780199661015
0.5881381902621474 0.7753508312372988 0.8166046135144165
0.612757486599454 0.9047221705573553 0.8870390560267687
0.7105019525066831 0.7979791136660023 0.8955006122223941
0.719239077977895 0.9295031354333037 0.7881780199661015
0.7881381902621474 0.7753508312372988 0.8166046135144165
0.812757486599454 0.9047221705573553 0.8870390560267687
0.9105019525066832 0.7979791136660023 0.8955006122223941
0.9192390779778951 0.9295031354333037 0.7881780199661015
0.11134638391660925 -0.005761573304475318 0.01863444654511725
-0.01418192162459537 0.078907225101677 0.0003741449653529239
0.018171231577921127 0.023316715228813234 0.12748935193447294
0.12482056254943381 0.07492648787962042 0.09736770171372741
0.3113463839166093 -0.005761573304475318 0.01863444654511725
0.18581807837540465 0.078907225101677 0.0003741449653529239
0.21817123157792115 0.023316715228813234 0.12748935193447294
0.3248205625494338 0.07492648787962042 0.09736770171372741
0.5113463839166092 -0.005761573304475318 0.01863444654511725
0.38581807837540466 0.078907225101677 0.0003741449653529239
0.41817123157792113 0.023316715228813234 0.12748935193447294
0.5248205625494338 0.07492648787962042 0.09736770171372741
0.7113463839166093 -0.005761573304475318 0.01863444654511725
0.5858180783754047 0.078907225101677 0.0003741449653529239
0.6181712315779211 0.023316715228813234 0.12748935193447294
0.7248205625494338 0.07492648787962042 0.09736770171372741
0.9113463839166093 -0.005761573304475318 0.01863444654511725
0.7858180783754047 0.078907225101677 0.0003741449653529239
0.8181712315779213 0.023316715228813234 0.12748935193447294
0.9248205625494338 0.07492648787962042 0.09736770171372741
0.11134638391660925 0.1942384266955247 0.01863444654511725
-0.01418192162459537 0.27890722510167704 0.0003741449653529239
0.018171231577921127 0.22331671522881325 0.12748935193447294
0.12482056254943381 0.27492648787962043 0.09736770171372741
0.3113463839166093 0.1942384266955247 0.01863444654511725
0.18581807837540465 0.27890722510167704 0.0003741449653529239
0.21817123157792115 0.22331671522881325 0.12748935193447294
0.3248205625494338 0.27492648787962043 0.09736770171372741
0.5113463839166092 0.1942384266955247 0.01863444654511725
0.38581807837540466 0.27890722510167704 0.0003741449653529239
0.41817123157792113 0.22331671522881325 0.12748935193447294
0.5248205625494338 0.27492648787962043 0.09736770171372741
0.7113463839166093 0.1942384266955247 0.01863444654511725
0.5858180783754047 0.27890722510167704 0.0003741449653529239
0.6181712315779211 0.22331671522881325 0.12748935193447294
0.7248205625494338 0.27492648787962043 0.09736770171372741
0.9113463839166093 0.1942384266955247 0.01863444654511725
0.7858180783754047 0.27890722510167704 0.0003741449653529239
0.8181712315779213 0.22331671522881325 0.12748935193447294
0.9248205625494338 0.27492648787962043 0.09736770171372741
0.11134638391660925 0.3942384266955247 0.01863444654511725
-0.01418192162459537 0.47890722510167705 0.0003741449653529239
0.018171231577921127 0.42331671522881326 0.12748935193447294
0.12482056254943381 0.47492648787962044 0.09736770171372741
0.3113463839166093 0.3942384266955247 0.01863444654511725
0.18581807837540465 0.47890722510167705 0.0003741449653529239
0.21817123157792115 0.42331671522881326 0.12748935193447294
0.3248205625494338 0.47492648787962044 0.09736770171372741
0.5113463839166092 0.3942384266955247 0.01863444654511725
0.38581807837540466 0.47890722510167705 0.0003741449653529239
0.41817123157792113 0.42331671522881326 0.12748935193447294
0.5248205625494338 0.47492648787962044 0.09736770171372741
0.7113463839166093 0.3942384266955247 0.01863444654511725
0.5858180783754047 0.47890722510167705 0.0003741449653529239
0.6181712315779211 0.42331671522881326 0.12748935193447294
0.7248205625494338 0.47492648787962044 0.09736770171372741
0.9113463839166093 0.3942384266955247 0.01863444654511725
0.7858180783754047 0.47890722510167705 0.0003741449653529239
0.8181712315779213 0.42331671522881326 0.12748935193447294
0.9248205625494338 0.47492648787962044 0.09736770171372741
0.11134638391660925 0.5942384266955247 0.01863444654511725
-0.01418192162459537 0.678907225101677 0.0003741449653529239
0.018171231577921127 0.6233167152288133 0.12748935193447294
0.12482056254943381 0.6749264878796204 0.09736770171372741
0.3113463839166093 0.5942384266955247 0.01863444654511725
0.18581807837540465 0.678907225101677 0.0003741449653529239
0.21817123157792115 0.6233167152288133 0.12748935193447294
0.3248205625494338 0.6749264878796204 0.09736770171372741
0.5113463839166092 0.5942384266955247 0.01863444654511725
0.38581807837540466 0.678907225101677 0.0003741449653529239
0.41817123157792113 0.6233167152288133 0.12748935193447294
0.5248205625494338 0.6749264878796204 0.09736770171372741
0.7113463839166093 0.5942384266955247 0.01863444654511725
0.5858180783754047 0.678907225101677 0.0003741449653529239
0.6181712315779211 0.6233167152288133 0.12748935193447294
0.7248205625494338 0.6749264878796204 0.09736770171372741
0.9113463839166093 0.5942384266955247 0.01863444654511725
0.7858180783754047 0.678907225101677 0.0003741449653529239
0.8181712315779213 0.6233167152288133 0.12748935193447294
0.9248205625494338 0.6749264878796204 0.09736770171372741
0.11134638391660925 0.7942384266955247 0.01863444654511725
-0.01418192162459537 0.878907225101677 0.0003741449653529239
0.018171231577921127 0.8233167152288132 0.12748935193447294
0.12482056254943381 0.8749264878796205 0.09736770171372741
0.3113463839166093 0.7942384266955247 0.01863444654511725
0.18581807837540465 0.878907225101677 0.0003741449653529239
0.21817123157792115 0.8233167152288132 0.12748935193447294
0.3248205625494338 0.8749264878796205 0.09736770171372741
0.5113463839166092 0.7942384266955247 0.01863444654511725
0.38581807837540466 0.878907225101677 0.0003741449653529239
0.41817123157792113 0.8233167152288132 0.12748935193447294
0.5248205625494338 0.8749264878796205 0.09736770171372741
0.7113463839166093 0.7942384266955247 0.01863444654511725
0.5858180783754047 0.878907225101677 0.0003741449653529239
0.6181712315779211 0.8233167152288132 0.12748935193447294
0.7248205625494338 0.8749264878796205 0.09736770171372741
0.9113463839166093 0.7942384266955247 0.01863444654511725
0.7858180783754047 0.878907225101677 0.0003741449653529239
0.8181712315779213 0.8233167152288132 0.12748935193447294
0.9248205625494338 0.8749264878796205 0.09736770171372741
0.11134638391660925 -0.005761573304475318 0.21863444654511724
-0.01418192162459537 0.078907225101677 0.20037414496535294
0.018171231577921127 0.023316715228813234 0.327489351934473
0.12482056254943381 0.07492648787962042 0.29736770171372745
0.3113463839166093 -0.005761573304475318 0.21863444654511724
0.18581807837540465 0.078907225101677 0.20037414496535294
0.21817123157792115 0.023316715228813234 0.327489351934473
0.3248205625494338 0.07492648787962042 0.29736770171372745
0.5113463839166092 -0.005761573304475318 0.21863444654511724
0.38581807837540466 0.078907225101677 0.20037414496535294
0.41817123157792113 0.023316715228813234 0.327489351934473
0.5248205625494338 0.07492648787962042 0.29736770171372745
0.7113463839166093 -0.005761573304475318 0.21863444654511724
0.5858180783754047 0.078907225101677 0.20037414496535294
0.6181712315779211 0.023316715228813234 0.327489351934473
0.7248205625494338 0.07492648787962042 0.29736770171372745
0.9113463839166093 -0.005761573304475318 0.21863444654511724
0.7858180783754047 0.078907225101677 0.20037414496535294
0.8181712315779213 0.023316715228813234 0.327489351934473
0.9248205625494338 0.07492648787962042 0.29736770171372745
0.11134638391660925 0.1942384266955247 0.21863444654511724
-0.01418192162459537 0.27890722510167704 0.20037414496535294
0.018171231577921127 0.22331671522881325 0.327489351934473
0.12482056254943381 0.27492648787962043 0.29736770171372745
0.3113463839166093 0.1942384266955247 0.21863444654511724
0.18581807837540465 0.27890722510167704 0.20037414496535294
0.21817123157792115 0.22331671522881325 0.327489351934473
0.3248205625494338 0.27492648787962043 0.29736770171372745
0.5113463839166092 0.1942384266955247 0.21863444654511724
0.38581807837540466 0.27890722510167704 0.20037414496535294
0.41817123157792113 0.22331671522881325 0.327489351934473
0.5248205625494338 0.27492648787962043 0.29736770171372745
0.7113463839166093 0.1942384266955247 0.21863444654511724
0.5858180783754047 0.27890722510167704 0.20037414496535294
0.6181712315779211 0.22331671522881325 0.327489351934473
0.7248205625494338 0.27492648787962043 0.29736770171372745
0.9113463839166093 0.1942384266955247 0.21863444654511724
0.7858180783754047 0.27890722510167704 0.20037414496535294
0.8181712315779213 0.22331671522881325 0.327489351934473
0.9248205625494338 0.27492648787962043 0.29736770171372745
0.11134638391660925 0.3942384266955247 0.21863444654511724
-0.01418192162459537 0.47890722510167705 0.20037414496535294
0.018171231577921127 0.42331671522881326 0.327489351934473
0.12482056254943381 0.47492648787962044 0.29736770171372745
0.3113463839166093 0.3942384266955247 0.21863444654511724
0.18581807837540465 0.47890722510167705 0.20037414496535294
0.21817123157792115 0.42331671522881326 0.327489351934473
0.3248205625494338 0.47492648787962044 0.29736770171372745
0.5113463839166092 0.3942384266955247 0.21863444654511724
0.38581807837540466 0.47890722510167705 0.20037414496535294
0.41817123157792113 0.42331671522881326 0.327489351934473
0.5248205625494338 0.47492648787962044 0.29736770171372745
0.7113463839166093 0.3942384266955247 0.21863444654511724
0.5858180783754047 0.47890722510167705 0.20037414496535294
0.6181712315779211 0.42331671522881326 0.327489351934473
0.7248205625494338 0.47492648787962044 0.29736770171372745
0.9113463839166093 0.3942384266955247 0.21863444654511724
0.7858180783754047 0.47890722510167705 0.20037414496535294
0.8181712315779213 0.42331671522881326 0.327489351934473
0.9248205625494338 0.47492648787962044 0.29736770171372745
0.11134638391660925 0.5942384266955247 0.21863444654511724
-0.01418192162459537 0.678907225101677 0.20037414496535294
0.018171231577921127 0.6233167152288133 0.327489351934473
0.12482056254943381 0.6749264878796204 0.29736770171372745
0.3113463839166093 0.5942384266955247 0.21863444654511724
0.18581807837540465 0.678907225101677 0.20037414496535294
0.21817123157792115 0.6233167152288133 0.327489351934473
0.3248205625494338 0.6749264878796204 0.29736770171372745
0.5113463839166092 0.5942384266955247 0.21863444654511724
0.38581807837540466 0.678907225101677 0.20037414496535294
0.41817123157792113 0.6233167152288133 0.327489351934473
0.5248205625494338 0.6749264878796204 0.29736770171372745
0.7113463839166093 0.5942384266955247 0.21863444654511724
0.5858180783754047 0.678907225101677 0.20037414496535294
0.6181712315779211 0.6233167152288133 0.327489351934473
0.7248205625494338 0.6749264878796204 0.29736770171372745
0.9113463839166093 0.5942384266955247 0.21863444654511724
0.7858180783754047 0.678907225101677 0.20037414496535294
0.8181712315779213 0.6233167152288133 0.327489351934473
0.9248205625494338 0.6749264878796204 0.29736770171372745
0.11134638391660925 0.7942384266955247 0.21863444654511724
-0.01418192162459537 0.878907225101677 0.20037414496535294
0.018171231577921127 0.8233167152288132 0.327489351934473
0.12482056254943381 0.8749264878796205 0.29736770171372745
0.3113463839166093 0.7942384266955247 0.21863444654511724
0.18581807837540465 0.878907225101677 0.20037414496535294
0.21817123157792115 0.8233167152288132 0.327489351934473
0.3248205625494338 0.8749264878796205 0.29736770171372745
0.5113463839166092 0.7942384266955247 0.21863444654511724
0.38581807837540466 0.878907225101677 0.20037414496535294
0.41817123157792113 0.8233167152288132 0.327489351934473
0.5248205625494338 0.8749264878796205 0.29736770171372745
0.7113463839166093 0.7942384266955247 0.21863444654511724
0.5858180783754047 0.878907225101677 0.20037414496535294
0.6181712315779211 0.8233167152288132 0.327489351934473
0.7248205625494338 0.8749264878796205 0.29736770171372745
0.9113463839166093 0.7942384266955247 0.21863444654511724
0.7858180783754047 0.878907225101677 0.20037414496535294
0.8181712315779213 0.8233167152288132 0.327489351934473
0.9248205625494338 0.8749264878796205 0.29736770171372745
0.11134638391660925 -0.005761573304475318 0.4186344465451173
-0.01418192162459537 0.078907225101677 0.40037414496535295
0.018171231577921127 0.023316715228813234 0.527489351934473
0.12482056254943381 0.07492648787962042 0.49736770171372746
0.3113463839166093 -0.005761573304475318 0.4186344465451173
0.18581807837540465 0.078907225101677 0.40037414496535295
0.21817123157792115 0.023316715228813234 0.527489351934473
0.3248205625494338 0.07492648787962042 0.49736770171372746
0.5113463839166092 -0.005761573304475318 0.4186344465451173
0.38581807837540466 0.078907225101677 0.40037414496535295
0.41817123157792113 0.023316715228813234 0.527489351934473
0.5248205625494338 0.07492648787962042 0.49736770171372746
0.7113463839166093 -0.005761573304475318 0.4186344465451173
0.5858180783754047 0.078907225101677 0.40037414496535295
0.6181712315779211 0.023316715228813234 0.527489351934473
0.7248205625494338 0.07492648787962042 0.49736770171372746
0.9113463839166093 -0.005761573304475318 0.4186344465451173
0.7858180783754047 0.078907225101677 0.40037414496535295
0.8181712315779213 0.023316715228813234 0.527489351934473
0.9248205625494338 0.07492648787962042 0.49736770171372746
0.11134638391660925 0.1942384266955247 0.4186344465451173
-0.01418192162459537 0.27890722510167704 0.40037414496535295
0.018171231577921127 0.22331671522881325 0.527489351934473
0.12482056254943381 0.27492648787962043 0.49736770171372746
0.3113463839166093 0.1942384266955247 0.4186344465451173
0.18581807837540465 0.27890722510167704 0.40037414496535295
0.21817123157792115 0.22331671522881325 0.527489351934473
0.3248205625494338 0.27492648787962043 0.49736770171372746
0.5113463839166092 0.1942384266955247 0.4186344465451173
0.38581807837540466 0.27890722510167704 0.40037414496535295
0.41817123157792113 0.22331671522881325 0.527489351934473
0.5248205625494338 0.27492648787962043 0.49736770171372746
0.7113463839166093 0.1942384266955247 0.4186344465451173
0.5858180783754047 0.27890722510167704 0.40037414496535295
0.6181712315779211 0.22331671522881325 0.527489351934473
0.7248205625494338 0.27492648787962043 0.49736770171372746
0.9113463839166093 0.1942384266955247 0.4186344465451173
0.7858180783754047 0.27890722510167704 0.40037414496535295
0.8181712315779213 0.22331671522881325 0.527489351934473
0.9248205625494338 0.27492648787962043 0.49736770171372746
0.11134638391660925 0.3942384266955247 0.4186344465451173
-0.01418192162459537 0.47890722510167705 0.40037414496535295
0.018171231577921127 0.42331671522881326 0.527489351934473
0.12482056254943381 0.47492648787962044 0.49736770171372746
0.3113463839166093 0.3942384266955247 0.4186344465451173
0.18581807837540465 0.47890722510167705 0.40037414496535295
0.21817123157792115 0.42331671522881326 0.527489351934473
0.3248205625494338 0.47492648787962044 0.49736770171372746
0.5113463839166092 0.3942384266955247 0.4186344465451173
0.38581807837540466 0.47890722510167705 0.40037414496535295
0.41817123157792113 0.42331671522881326 0.527489351934473
0.5248205625494338 0.47492648787962044 0.49736770171372746
0.7113463839166093 0.3942384266955247 0.4186344465451173
0.5858180783754047 0.47890722510167705 0.40037414496535295
0.6181712315779211 0.42331671522881326 0.527489351934473
0.7248205625494338 0.47492648787962044 0.49736770171372746
0.9113463839166093 0.3942384266955247 0.4186344465451173
0.7858180783754047 0.47890722510167705 0.40037414496535295
0.8181712315779213 0.42331671522881326 0.527489351934473
0.9248205625494338 0.47492648787962044 0.49736770171372746
0.11134638391660925 0.5942384266955247 0.4186344465451173
-0.01418192162459537 0.678907225101677 0.40037414496535295
0.018171231577921127 0.6233167152288133 0.527489351934473
0.12482056254943381 0.6749264878796204 0.49736770171372746
0.3113463839166093 0.5942384266955247 0.4186344465451173
0.18581807837540465 0.678907225101677 0.40037414496535295
0.21817123157792115 0.6233167152288133 0.527489351934473
0.3248205625494338 0.6749264878796204 0.49736770171372746
0.5113463839166092 0.5942384266955247 0.4186344465451173
0.38581807837540466 0.678907225101677 0.40037414496535295
0.41817123157792113 0.6233167152288133 0.527489351934473
0.5248205625494338 0.6749264878796204 0.49736770171372746
0.7113463839166093 0.5942384266955247 0.4186344465451173
0.5858180783754047 0.678907225101677 0.40037414496535295
0.6181712315779211 0.6233167152288133 0.527489351934473
0.7248205625494338 0.6749264878796204 0.49736770171372746
0.9113463839166093 0.5942384266955247 0.4186344465451173
0.7858180783754047 0.678907225101677 0.40037414496535295
0.8181712315779213 0.6233167152288133 0.527489351934473
0.9248205625494338 0.6749264878796204 0.49736770171372746
0.11134638391660925 0.7942384266955247 0.4186344465451173
-0.01418192162459537 0.878907225101677 0.40037414496535295
0.018171231577921127 0.8233167152288132 0.527489351934473
0.12482056254943381 0.8749264878796205 0.49736770171372746
0.3113463839166093 0.7942384266955247 0.4186344465451173
0.18581807837540465 0.878907225101677 0.40037414496535295
0.21817123157792115 0.8233167152288132 0.527489351934473
0.3248205625494338 0.8749264878796205 0.49736770171372746
0.5113463839166092 0.7942384266955247 0.4186344465451173
0.38581807837540466 0.878907225101677 0.40037414496535295
0.41817123157792113 0.8233167152288132 0.527489351934473
0.5248205625494338 0.8749264878796205 0.49736770171372746
0.7113463839166093 0.7942384266955247 0.4186344465451173
0.5858180783754047 0.878907225101677 0.40037414496535295
0.6181712315779211 0.8233167152288132 0.527489351934473
0.7248205625494338 0.8749264878796205 0.49736770171372746
0.9113463839166093 0.7942384266955247 0.4186344465451173
0.7858180783754047 0.878907225101677 0.40037414496535295
0.8181712315779213 0.8233167152288132 0.527489351934473
0.9248205625494338 0.8749264878796205 0.49736770171372746
0.11134638391660925 -0.005761573304475318 0.6186344465451173
-0.01418192162459537 0.078907225101677 0.600374144965353
0.018171231577921127 0.023316715228813234 0.727489351934473
0.12482056254943381 0.07492648787962042 0.6973677017137274
0.3113463839166093 -0.005761573304475318 0.6186344465451173
0.18581807837540465 0.078907225101677 0.600374144965353
0.21817123157792115 0.023316715228813234 0.727489351934473
0.3248205625494338 0.07492648787962042 0.6973677017137274
0.5113463839166092 -0.005761573304475318 0.6186344465451173
0.38581807837540466 0.078907225101677 0.600374144965353
0.41817123157792113 0.023316715228813234 0.727489351934473
0.5248205625494338 0.07492648787962042 0.6973677017137274
0.7113463839166093 -0.005761573304475318 0.6186344465451173
0.5858180783754047 0.078907225101677 0.600374144965353
0.6181712315779211 0.023316715228813234 0.727489351934473
0.7248205625494338 0.07492648787962042 0.6973677017137274
0.9113463839166093 -0.005761573304475318 0.6186344465451173
0.7858180783754047 0.078907225101677 0.600374144965353
0.8181712315779213 0.023316715228813234 0.727489351934473
0.9248205625494338 0.07492648787962042 0.6973677017137274
0.11134638391660925 0.1942384266955247 0.6186344465451173
-0.01418192162459537 0.27890722510167704 0.600374144965353
0.018171231577921127 0.22331671522881325 0.727489351934473
0.12482056254943381 0.27492648787962043 0.6973677017137274
0.3113463839166093 0.1942384266955247 0.6186344465451173
0.18581807837540465 0.27890722510167704 0.600374144965353
0.21817123157792115 0.22331671522881325 0.727489351934473
0.3248205625494338 0.27492648787962043 0.6973677017137274
0.5113463839166092 0.1942384266955247 0.6186344465451173
0.38581807837540466 0.27890722510167704 0.600374144965353
0.41817123157792113 0.22331671522881325 0.727489351934473
0.5248205625494338 0.27492648787962043 0.6973677017137274
0.7113463839166093 0.1942384266955247 0.6186344465451173
0.5858180783754047 0.27890722510167704 0.600374144965353
0.6181712315779211 0.22331671522881325 0.727489351934473
0.7248205625494338 0.27492648787962043 0.6973677017137274
0.9113463839166093 0.1942384266955247 0.6186344465451173
0.7858180783754047 0.27890722510167704 0.600374144965353
0.8181712315779213 0.22331671522881325 0.727489351934473
0.9248205625494338 0.27492648787962043 0.6973677017137274
0.11134638391660925 0.3942384266955247 0.6186344465451173
-0.01418192162459537 0.47890722510167705 0.600374144965353
0.018171231577921127 0.42331671522881326 0.727489351934473
0.12482056254943381 0.47492648787962044 0.6973677017137274
0.3113463839166093 0.3942384266955247 0.6186344465451173
0.18581807837540465 0.47890722510167705 0.600374144965353
0.21817123157792115 0.42331671522881326 0.727489351934473
0.3248205625494338 0.47492648787962044 0.6973677017137274
0.5113463839166092 0.3942384266955247 0.6186344465451173
0.38581807837540466 0.47890722510167705 0.600374144965353
0.41817123157792113 0.42331671522881326 0.727489351934473
0.5248205625494338 0.47492648787962044 0.6973677017137274
0.7113463839166093 0.3942384266955247 0.6186344465451173
0.5858180783754047 0.47890722510167705 0.600374144965353
0.6181712315779211 0.42331671522881326 0.727489351934473
0.7248205625494338 0.47492648787962044 0.6973677017137274
0.9113463839166093 0.3942384266955247 0.6186344465451173
0.7858180783754047 0.47890722510167705 0.600374144965353
0.8181712315779213 0.42331671522881326 0.727489351934473
0.9248205625494338 0.47492648787962044 0.6973677017137274
0.11134638391660925 0.5942384266955247 0.6186344465451173
-0.01418192162459537 0.678907225101677 0.600374144965353
0.018171231577921127 0.6233167152288133 0.727489351934473
0.12482056254943381 0.6749264878796204 0.6973677017137274
0.3113463839166093 0.5942384266955247 0.6186344465451173
0.18581807837540465 0.678907225101677 0.600374144965353
0.21817123157792115 0.6233167152288133 0.727489351934473
0.3248205625494338 0.6749264878796204 0.6973677017137274
0.5113463839166092 0.5942384266955247 0.6186344465451173
0.38581807837540466 0.678907225101677 0.600374144965353
0.41817123157792113 0.6233167152288133 0.727489351934473
0.5248205625494338 0.6749264878796204 0.6973677017137274
0.7113463839166093 0.5942384266955247 0.6186344465451173
0.5858180783754047 0.678907225101677 0.600374144965353
0.6181712315779211 0.6233167152288133 0.727489351934473
0.7248205625494338 0.6749264878796204 0.6973677017137274
0.9113463839166093 0.5942384266955247 0.6186344465451173
0.7858180783754047 0.678907225101677 0.600374144965353
0.8181712315779213 0.6233167152288133 0.727489351934473
0.9248205625494338 0.6749264878796204 0.6973677017137274
0.11134638391660925 0.7942384266955247 0.6186344465451173
-0.01418192162459537 0.878907225101677 0.600374144965353
0.018171231577921127 0.8233167152288132 0.727489351934473
0.12482056254943381 0.8749264878796205 0.6973677017137274
0.3113463839166093 0.7942384266955247 0.6186344465451173
0.18581807837540465 0.878907225101677 0.600374144965353
0.21817123157792115 0.8233167152288132 0.727489351934473
0.3248205625494338 0.8749264878796205 0.6973677017137274
0.5113463839166092 0.7942384266955247 0.6186344465451173
0.38581807837540466 0.878907225101677 0.600374144965353
0.41817123157792113 0.8233167152288132 0.727489351934473
0.5248205625494338 0.8749264878796205 0.6973677017137274
0.7113463839166093 0.7942384266955247 0.6186344465451173
0.5858180783754047 0.878907225101677 0.600374144965353
0.6181712315779211 0.8233167152288132 0.727489351934473
0.7248205625494338 0.8749264878796205 0.6973677017137274
0.9113463839166093 0.7942384266955247 0.6186344465451173
0.7858180783754047 0.878907225101677 0.600374144965353
0.8181712315779213 0.8233167152288132 0.727489351934473
0.9248205625494338 0.8749264878796205 0.6973677017137274
0.11134638391660925 -0.005761573304475318 0.8186344465451173
-0.01418192162459537 0.078907225101677 0.8003741449653529
0.018171231577921127 0.023316715228813234 0.927489351934473
0.12482056254943381 0.07492648787962042 0.8973677017137274
0.3113463839166093 -0.005761573304475318 0.8186344465451173
0.18581807837540465 0.078907225101677 0.8003741449653529
0.21817123157792115 0.023316715228813234 0.927489351934473
0.3248205625494338 0.07492648787962042 0.8973677017137274
0.5113463839166092 -0.005761573304475318 0.8186344465451173
0.38581807837540466 0.078907225101677 0.8003741449653529
0.41817123157792113 0.023316715228813234 0.927489351934473
0.5248205625494338 0.07492648787962042 0.8973677017137274
0.7113463839166093 -0.005761573304475318 0.8186344465451173
0.5858180783754047 0.078907225101677 0.8003741449653529
0.6181712315779211 0.023316715228813234 0.927489351934473
0.7248205625494338 0.07492648787962042 0.8973677017137274
0.9113463839166093 -0.005761573304475318 0.8186344465451173
0.7858180783754047 0.078907225101677 0.8003741449653529
0.8181712315779213 0.023316715228813234 0.927489351934473
0.9248205625494338 0.07492648787962042 0.8973677017137274
0.11134638391660925 0.1942384266955247 0.8186344465451173
-0.01418192162459537 0.27890722510167704 0.8003741449653529
0.018171231577921127 0.22331671522881325 0.927489351934473
0.12482056254943381 0.27492648787962043 0.8973677017137274
0.3113463839166093 0.1942384266955247 0.8186344465451173
0.18581807837540465 0.27890722510167704 0.8003741449653529
0.21817123157792115 0.22331671522881325 0.927489351934473
0.3248205625494338 0.27492648787962043 0.8973677017137274
0.5113463839166092 0.1942384266955247 0.8186344465451173
0.38581807837540466 0.27890722510167704 0.8003741449653529
0.41817123157792113 0.22331671522881325 0.927489351934473
0.5248205625494338 0.27492648787962043 0.8973677017137274
0.7113463839166093 0.1942384266955247 0.8186344465451173
0.5858180783754047 0.27890722510167704 0.8003741449653529
0.6181712315779211 0.22331671522881325 0.927489351934473
0.7248205625494338 0.27492648787962043 0.8973677017137274
0.9113463839166093 0.1942384266955247 0.8186344465451173
0.7858180783754047 0.27890722510167704 0.8003741449653529
0.8181712315779213 0.22331671522881325 0.927489351934473
0.9248205625494338 0.27492648787962043 0.8973677017137274
0.11134638391660925 0.3942384266955247 0.8186344465451173
-0.01418192162459537 0.47890722510167705 0.8003741449653529
0.018171231577921127 0.42331671522881326 0.927489351934473
0.12482056254943381 0.47492648787962044 0.8973677017137274
0.3113463839166093 0.3942384266955247 0.8186344465451173
0.18581807837540465 0.47890722510167705 0.8003741449653529
0.21817123157792115 0.42331671522881326 0.927489351934473
0.3248205625494338 0.47492648787962044 0.8973677017137274
0.5113463839166092 0.3942384266955247 0.8186344465451173
0.38581807837540466 0.47890722510167705 0.8003741449653529
0.41817123157792113 0.42331671522881326 0.927489351934473
0.5248205625494338 0.47492648787962044 0.8973677017137274
0.7113463839166093 0.3942384266955247 0.8186344465451173
0.5858180783754047 0.47890722510167705 0.8003741449653529
0.6181712315779211 0.42331671522881326 0.927489351934473
0.7248205625494338 0.47492648787962044 0.8973677017137274
0.9113463839166093 0.3942384266955247 0.8186344465451173
0.7858180783754047 0.47890722510167705 0.8003741449653529
0.8181712315779213 0.42331671522881326 0.927489351934473
0.9248205625494338 0.47492648787962044 0.8973677017137274
0.11134638391660925 0.5942384266955247 0.8186344465451173
-0.01418192162459537 0.678907225101677 0.8003741449653529
0.018171231577921127 0.6233167152288133 0.927489351934473
0.12482056254943381 0.6749264878796204 0.8973677017137274
0.3113463839166093 0.5942384266955247 0.8186344465451173
0.18581807837540465 0.678907225101677 0.8003741449653529
0.21817123157792115 0.6233167152288133 0.927489351934473
0.3248205625494338 0.6749264878796204 0.8973677017137274
0.5113463839166092 0.5942384266955247 0.8186344465451173
0.38581807837540466 0.678907225101677 0.8003741449653529
0.41817123157792113 0.6233167152288133 0.927489351934473
0.5248205625494338 0.6749264878796204 0.8973677017137274
0.7113463839166093 0.5942384266955247 0.8186344465451173
0.5858180783754047 0.678907225101677 0.8003741449653529
0.6181712315779211 0.6233167152288133 0.927489351934473
0.7248205625494338 0.6749264878796204 0.8973677017137274
0.9113463839166093 0.5942384266955247 0.8186344465451173
0.7858180783754047 0.678907225101677 0.8003741449653529
0.8181712315779213 0.6233167152288133 0.927489351934473
0.9248205625494338 0.6749264878796204 0.8973677017137274
0.11134638391660925 0.7942384266955247 0.8186344465451173
-0.01418192162459537 0.878907225101677 0.8003741449653529
0.018171231577921127 0.8233167152288132 0.927489351934473
0.12482056254943381 0.8749264878796205 0.8973677017137274
0.3113463839166093 0.7942384266955247 0.8186344465451173
0.18581807837540465 0.878907225101677 0.8003741449653529
0.21817123157792115 0.8233167152288132 0.927489351934473
0.3248205625494338 0.8749264878796205 0.8973677017137274
0.5113463839166092 0.7942384266955247 0.8186344465451173
0.38581807837540466 0.878907225101677 0.8003741449653529
0.41817123157792113 0.8233167152288132 0.927489351934473
0.5248205625494338 0.8749264878796205 0.8973677017137274
0.7113463839166093 0.7942384266955247 0.8186344465451173
0.5858180783754047 0.878907225101677 0.8003741449653529
0.6181712315779211 0.8233167152288132 0.927489351934473
0.7248205625494338 0.8749264878796205 0.8973677017137274
0.9113463839166093 0.7942384266955247 0.8186344465451173
0.7858180783754047 0.878907225101677 0.8003741449653529
0.8181712315779213 0.8233167152288132 0.927489351934473
0.9248205625494338 0.8749264878796205 0.8973677017137274
