FCC BaO
5.61604
3.0 0.0 0.0
0.0 3.0 0.0
0.0 0.0 3.0
Ba O 
108 108 
Direct
0.22404311233986274 0.12422727607356068 0.7224134043961726
-0.37505383426707184 -0.9757076897019387 -0.41393312932344944
0.7866450996036796 -0.5504030827632445 -0.004756165011132083
0.03163278740033952 0.11101391481771297 -1.0321689924571384
0.557376445673196 0.12422727607356068 0.7224134043961726
-0.04172050093373854 -0.9757076897019387 -0.41393312932344944
1.1199784329370128 -0.5504030827632445 -0.004756165011132083
0.36496612073367285 0.11101391481771297 -1.0321689924571384
0.8907097790065294 0.12422727607356068 0.7224134043961726
0.2916128323995948 -0.9757076897019387 -0.41393312932344944
1.453311766270346 -0.5504030827632445 -0.004756165011132083
0.6982994540670062 0.11101391481771297 -1.0321689924571384
0.22404311233986274 0.457560609406894 0.7224134043961726
-0.37505383426707184 -0.6423743563686053 -0.41393312932344944
0.7866450996036796 -0.2170697494299111 -0.004756165011132083
0.03163278740033952 0.44434724815104626 -1.0321689924571384
0.557376445673196 0.457560609406894 0.7224134043961726
-0.04172050093373854 -0.6423743563686053 -0.41393312932344944
1.1199784329370128 -0.2170697494299111 -0.004756165011132083
0.36496612073367285 0.44434724815104626 -1.0321689924571384
0.8907097790065294 0.457560609406894 0.7224134043961726
0.2916128323995948 -0.6423743563686053 -0.41393312932344944
1.453311766270346 -0.2170697494299111 -0.004756165011132083
0.6982994540670062 0.44434724815104626 -1.0321689924571384
0.22404311233986274 0.7908939427402274 0.7224134043961726
-0.37505383426707184 -0.30904102303527203 -0.41393312932344944
0.7866450996036796 0.1162635839034222 -0.004756165011132083
0.03163278740033952 0.7776805814843796 -1.0321689924571384
0.557376445673196 0.7908939427402274 0.7224134043961726
-0.04172050093373854 -0.30904102303527203 -0.41393312932344944
1.1199784329370128 0.1162635839034222 -0.004756165011132083
0.36496612073367285 0.7776805814843796 -1.0321689924571384
0.8907097790065294 0.7908939427402274 0.7224134043961726
0.2916128323995948 -0.30904102303527203 -0.41393312932344944
1.453311766270346 0.1162635839034222 -0.004756165011132083
0.6982994540670062 0.7776805814843796 -1.0321689924571384
0.22404311233986274 0.12422727607356068 1.055746737729506
-0.37505383426707184 -0.9757076897019387 -0.08059979599011613
0.7866450996036796 -0.5504030827632445 0.32857716832220124
0.03163278740033952 0.11101391481771297 -0.6988356591238052
0.557376445673196 0.12422727607356068 1.055746737729506
-0.04172050093373854 -0.9757076897019387 -0.08059979599011613
1.1199784329370128 -0.5504030827632445 0.32857716832220124
0.36496612073367285 0.11101391481771297 -0.6988356591238052
0.8907097790065294 0.12422727607356068 1.055746737729506
0.2916128323995948 -0.9757076897019387 -0.08059979599011613
1.453311766270346 -0.5504030827632445 0.32857716832220124
0.6982994540670062 0.11101391481771297 -0.6988356591238052
0.22404311233986274 0.457560609406894 1.055746737729506
-0.37505383426707184 -0.6423743563686053 -0.08059979599011613
0.7866450996036796 -0.2170697494299111 0.32857716832220124
0.03163278740033952 0.44434724815104626 -0.6988356591238052
0.557376445673196 0.457560609406894 1.055746737729506
-0.04172050093373854 -0.6423743563686053 -0.08059979599011613
1.1199784329370128 -0.2170697494299111 0.32857716832220124
0.36496612073367285 0.44434724815104626 -0.6988356591238052
0.8907097790065294 0.457560609406894 1.055746737729506
0.2916128323995948 -0.6423743563686053 -0.08059979599011613
1.453311766270346 -0.2170697494299111 0.32857716832220124
0.6982994540670062 0.44434724815104626 -0.6988356591238052
0.22404311233986274 0.7908939427402274 1.055746737729506
-0.37505383426707184 -0.30904102303527203 -0.08059979599011613
0.7866450996036796 0.1162635839034222 0.32857716832220124
0.03163278740033952 0.7776805814843796 -0.6988356591238052
0.557376445673196 0.7908939427402274 1.055746737729506
-0.04172050093373854 -0.30904102303527203 -0.08059979599011613
1.1199784329370128 0.1162635839034222 0.32857716832220124
0.36496612073367285 0.7776805814843796 -0.6988356591238052
0.8907097790065294 0.7908939427402274 1.055746737729506
0.2916128323995948 -0.30904102303527203 -0.08059979599011613
1.453311766270346 0.1162635839034222 0.32857716832220124
0.6982994540670062 0.7776805814843796 -0.6988356591238052
0.22404311233986274 0.12422727607356068 1.3890800710628393
-0.37505383426707184 -0.9757076897019387 0.2527335373432172
0.7866450996036796 -0.5504030827632445 0.6619105016555346
0.03163278740033952 0.11101391481771297 -0.3655023257904718
0.557376445673196 0.12422727607356068 1.3890800710628393
-0.04172050093373854 -0.9757076897019387 0.2527335373432172
1.1199784329370128 -0.5504030827632445 0.6619105016555346
0.36496612073367285 0.11101391481771297 -0.3655023257904718
0.8907097790065294 0.12422727607356068 1.3890800710628393
0.2916128323995948 -0.9757076897019387 0.2527335373432172
1.453311766270346 -0.5504030827632445 0.6619105016555346
0.6982994540670062 0.11101391481771297 -0.3655023257904718
0.22404311233986274 0.457560609406894 1.3890800710628393
-0.37505383426707184 -0.6423743563686053 0.2527335373432172
0.7866450996036796 -0.2170697494299111 0.6619105016555346
0.03163278740033952 0.44434724815104626 -0.3655023257904718
0.557376445673196 0.457560609406894 1.3890800710628393
-0.04172050093373854 -0.6423743563686053 0.2527335373432172
1.1199784329370128 -0.2170697494299111 0.6619105016555346
0.36496612073367285 0.44434724815104626 -0.3655023257904718
0.8907097790065294 0.457560609406894 1.3890800710628393
0.2916128323995948 -0.6423743563686053 0.2527335373432172
1.453311766270346 -0.2170697494299111 0.6619105016555346
0.6982994540670062 0.44434724815104626 -0.3655023257904718
0.22404311233986274 0.7908939427402274 1.3890800710628393
-0.37505383426707184 -0.30904102303527203 0.2527335373432172
0.7866450996036796 0.1162635839034222 0.6619105016555346
0.03163278740033952 0.7776805814843796 -0.3655023257904718
0.557376445673196 0.7908939427402274 1.3890800710628393
-0.04172050093373854 -0.30904102303527203 0.2527335373432172
1.1199784329370128 0.1162635839034222 0.6619105016555346
0.36496612073367285 0.7776805814843796 -0.3655023257904718
0.8907097790065294 0.7908939427402274 1.3890800710628393
0.2916128323995948 -0.30904102303527203 0.2527335373432172
1.453311766270346 0.1162635839034222 0.6619105016555346
0.6982994540670062 0.7776805814843796 -0.3655023257904718
-0.3865918517721652 -0.4406656644524416 -0.006983176038625073
-0.3244215925972217 -0.5855369985598107 0.1194520766076749
0.4929602758040722 -0.037233048481715325 -0.1054780725287971
0.41138992540256397 0.9413290682443873 0.5641170058578068
-0.05325851843883189 -0.4406656644524416 -0.006983176038625073
0.008911740736111598 -0.5855369985598107 0.1194520766076749
0.8262936091374056 -0.037233048481715325 -0.1054780725287971
0.7447232587358973 0.9413290682443873 0.5641170058578068
0.2800748148945014 -0.4406656644524416 -0.006983176038625073
0.34224507406944493 -0.5855369985598107 0.1194520766076749
1.1596269424707388 -0.037233048481715325 -0.1054780725287971
1.0780565920692307 0.9413290682443873 0.5641170058578068
-0.3865918517721652 -0.10733233111910825 -0.006983176038625073
-0.3244215925972217 -0.2522036652264774 0.1194520766076749
0.4929602758040722 0.296100284851618 -0.1054780725287971
0.41138992540256397 1.2746624015777206 0.5641170058578068
-0.05325851843883189 -0.10733233111910825 -0.006983176038625073
0.008911740736111598 -0.2522036652264774 0.1194520766076749
0.8262936091374056 0.296100284851618 -0.1054780725287971
0.7447232587358973 1.2746624015777206 0.5641170058578068
0.2800748148945014 -0.10733233111910825 -0.006983176038625073
0.34224507406944493 -0.2522036652264774 0.1194520766076749
1.1596269424707388 0.296100284851618 -0.1054780725287971
1.0780565920692307 1.2746624015777206 0.5641170058578068
-0.3865918517721652 0.22600100221422506 -0.006983176038625073
-0.3244215925972217 0.08112966810685592 0.1194520766076749
0.4929602758040722 0.6294336181849514 -0.1054780725287971
0.41138992540256397 1.607995734911054 0.5641170058578068
-0.05325851843883189 0.22600100221422506 -0.006983176038625073
0.008911740736111598 0.08112966810685592 0.1194520766076749
0.8262936091374056 0.6294336181849514 -0.1054780725287971
0.7447232587358973 1.607995734911054 0.5641170058578068
0.2800748148945014 0.22600100221422506 -0.006983176038625073
0.34224507406944493 0.08112966810685592 0.1194520766076749
1.1596269424707388 0.6294336181849514 -0.1054780725287971
1.0780565920692307 1.607995734911054 0.5641170058578068
-0.3865918517721652 -0.4406656644524416 0.32635015729470823
-0.3244215925972217 -0.5855369985598107 0.45278540994100824
0.4929602758040722 -0.037233048481715325 0.22785526080453625
0.41138992540256397 0.9413290682443873 0.8974503391911401
-0.05325851843883189 -0.4406656644524416 0.32635015729470823
0.008911740736111598 -0.5855369985598107 0.45278540994100824
0.8262936091374056 -0.037233048481715325 0.22785526080453625
0.7447232587358973 0.9413290682443873 0.8974503391911401
0.2800748148945014 -0.4406656644524416 0.32635015729470823
0.34224507406944493 -0.5855369985598107 0.45278540994100824
1.1596269424707388 -0.037233048481715325 0.22785526080453625
1.0780565920692307 0.9413290682443873 0.8974503391911401
-0.3865918517721652 -0.10733233111910825 0.32635015729470823
-0.3244215925972217 -0.2522036652264774 0.45278540994100824
0.4929602758040722 0.296100284851618 0.22785526080453625
0.41138992540256397 1.2746624015777206 0.8974503391911401
-0.05325851843883189 -0.10733233111910825 0.32635015729470823
0.008911740736111598 -0.2522036652264774 0.45278540994100824
0.8262936091374056 0.296100284851618 0.22785526080453625
0.7447232587358973 1.2746624015777206 0.8974503391911401
0.2800748148945014 -0.10733233111910825 0.32635015729470823
0.34224507406944493 -0.2522036652264774 0.45278540994100824
1.1596269424707388 0.296100284851618 0.22785526080453625
1.0780565920692307 1.2746624015777206 0.8974503391911401
-0.3865918517721652 0.22600100221422506 0.32635015729470823
-0.3244215925972217 0.08112966810685592 0.45278540994100824
0.4929602758040722 0.6294336181849514 0.22785526080453625
0.41138992540256397 1.607995734911054 0.8974503391911401
-0.05325851843883189 0.22600100221422506 0.32635015729470823
0.008911740736111598 0.08112966810685592 0.45278540994100824
0.8262936091374056 0.6294336181849514 0.22785526080453625
0.7447232587358973 1.607995734911054 0.8974503391911401
0.2800748148945014 0.22600100221422506 0.32635015729470823
0.34224507406944493 0.08112966810685592 0.45278540994100824
1.1596269424707388 0.6294336181849514 0.22785526080453625
1.0780565920692307 1.607995734911054 0.8974503391911401
-0.3865918517721652 -0.4406656644524416 0.6596834906280415
-0.3244215925972217 -0.5855369985598107 0.7861187432743415
0.4929602758040722 -0.037233048481715325 0.5611885941378696
0.41138992540256397 0.9413290682443873 1.2307836725244734
-0.05325851843883189 -0.4406656644524416 0.6596834906280415
0.008911740736111598 -0.5855369985598107 0.7861187432743415
0.8262936091374056 -0.037233048481715325 0.5611885941378696
0.7447232587358973 0.9413290682443873 1.2307836725244734
0.2800748148945014 -0.4406656644524416 0.6596834906280415
0.34224507406944493 -0.5855369985598107 0.7861187432743415
1.1596269424707388 -0.037233048481715325 0.5611885941378696
1.0780565920692307 0.9413290682443873 1.2307836725244734
-0.3865918517721652 -0.10733233111910825 0.6596834906280415
-0.3244215925972217 -0.2522036652264774 0.7861187432743415
0.4929602758040722 0.296100284851618 0.5611885941378696
0.41138992540256397 1.2746624015777206 1.2307836725244734
-0.05325851843883189 -0.10733233111910825 0.6596834906280415
0.008911740736111598 -0.2522036652264774 0.7861187432743415
0.8262936091374056 0.296100284851618 0.5611885941378696
0.7447232587358973 1.2746624015777206 1.2307836725244734
0.2800748148945014 -0.10733233111910825 0.6596834906280415
0.34224507406944493 -0.2522036652264774 0.7861187432743415
1.1596269424707388 0.296100284851618 0.5611885941378696
1.0780565920692307 1.2746624015777206 1.2307836725244734
-0.3865918517721652 0.22600100221422506 0.6596834906280415
-0.3244215925972217 0.08112966810685592 0.7861187432743415
0.4929602758040722 0.6294336181849514 0.5611885941378696
0.41138992540256397 1.607995734911054 1.2307836725244734
-0.05325851843883189 0.22600100221422506 0.6596834906280415
0.008911740736111598 0.08112966810685592 0.7861187432743415
0.8262936091374056 0.6294336181849514 0.5611885941378696
0.7447232587358973 1.607995734911054 1.2307836725244734
0.2800748148945014 0.22600100221422506 0.6596834906280415
0.34224507406944493 0.08112966810685592 0.7861187432743415
1.1596269424707388 0.6294336181849514 0.5611885941378696
1.0780565920692307 1.607995734911054 1.2307836725244734
