FCC BaO
3.971
5.0 0.0 0.0
0.0 5.0 0.0
0.0 0.0 5.0
Ba O 
500 500 
Direct
-0.029426442914431777 0.02450122325046199 0.0026437576357018246
-0.00011164749168367406 0.09887645521299389 0.10883042265499009
0.11748071032594215 0.008947679613686773 0.09445679787526283
0.0997080689187761 0.12894087963314846 0.017997251500418154
0.17057355708556823 0.02450122325046199 0.0026437576357018246
0.19988835250831635 0.09887645521299389 0.10883042265499009
0.31748071032594216 0.008947679613686773 0.09445679787526283
0.29970806891877605 0.12894087963314846 0.017997251500418154
0.3705735570855682 0.02450122325046199 0.0026437576357018246
0.39988835250831634 0.09887645521299389 0.10883042265499009
0.5174807103259422 0.008947679613686773 0.09445679787526283
0.49970806891877606 0.12894087963314846 0.017997251500418154
0.5705735570855682 0.02450122325046199 0.0026437576357018246
0.5998883525083163 0.09887645521299389 0.10883042265499009
0.7174807103259422 0.008947679613686773 0.09445679787526283
0.6997080689187761 0.12894087963314846 0.017997251500418154
0.7705735570855683 0.02450122325046199 0.0026437576357018246
0.7998883525083164 0.09887645521299389 0.10883042265499009
0.9174807103259423 0.008947679613686773 0.09445679787526283
0.8997080689187762 0.12894087963314846 0.017997251500418154
-0.029426442914431777 0.224501223250462 0.0026437576357018246
-0.00011164749168367406 0.2988764552129939 0.10883042265499009
0.11748071032594215 0.2089476796136868 0.09445679787526283
0.0997080689187761 0.3289408796331485 0.017997251500418154
0.17057355708556823 0.224501223250462 0.0026437576357018246
0.19988835250831635 0.2988764552129939 0.10883042265499009
0.31748071032594216 0.2089476796136868 0.09445679787526283
0.29970806891877605 0.3289408796331485 0.017997251500418154
0.3705735570855682 0.224501223250462 0.0026437576357018246
0.39988835250831634 0.2988764552129939 0.10883042265499009
0.5174807103259422 0.2089476796136868 0.09445679787526283
0.49970806891877606 0.3289408796331485 0.017997251500418154
0.5705735570855682 0.224501223250462 0.0026437576357018246
0.5998883525083163 0.2988764552129939 0.10883042265499009
0.7174807103259422 0.2089476796136868 0.09445679787526283
0.6997080689187761 0.3289408796331485 0.017997251500418154
0.7705735570855683 0.224501223250462 0.0026437576357018246
0.7998883525083164 0.2988764552129939 0.10883042265499009
0.9174807103259423 0.2089476796136868 0.09445679787526283
0.8997080689187762 0.3289408796331485 0.017997251500418154
-0.029426442914431777 0.424501223250462 0.0026437576357018246
-0.00011164749168367406 0.4988764552129939 0.10883042265499009
0.11748071032594215 0.40894767961368683 0.09445679787526283
0.0997080689187761 0.5289408796331484 0.017997251500418154
0.17057355708556823 0.424501223250462 0.0026437576357018246
0.19988835250831635 0.4988764552129939 0.10883042265499009
0.31748071032594216 0.40894767961368683 0.09445679787526283
0.29970806891877605 0.5289408796331484 0.017997251500418154
0.3705735570855682 0.424501223250462 0.0026437576357018246
0.39988835250831634 0.4988764552129939 0.10883042265499009
0.5174807103259422 0.40894767961368683 0.09445679787526283
0.49970806891877606 0.5289408796331484 0.017997251500418154
0.5705735570855682 0.424501223250462 0.0026437576357018246
0.5998883525083163 0.4988764552129939 0.10883042265499009
0.7174807103259422 0.40894767961368683 0.09445679787526283
0.6997080689187761 0.5289408796331484 0.017997251500418154
0.7705735570855683 0.424501223250462 0.0026437576357018246
0.7998883525083164 0.4988764552129939 0.10883042265499009
0.9174807103259423 0.40894767961368683 0.09445679787526283
0.8997080689187762 0.5289408796331484 0.017997251500418154
-0.029426442914431777 0.6245012232504621 0.0026437576357018246
-0.00011164749168367406 0.6988764552129939 0.10883042265499009
0.11748071032594215 0.6089476796136868 0.09445679787526283
0.0997080689187761 0.7289408796331485 0.017997251500418154
0.17057355708556823 0.6245012232504621 0.0026437576357018246
0.19988835250831635 0.6988764552129939 0.10883042265499009
0.31748071032594216 0.6089476796136868 0.09445679787526283
0.29970806891877605 0.7289408796331485 0.017997251500418154
0.3705735570855682 0.6245012232504621 0.0026437576357018246
0.39988835250831634 0.6988764552129939 0.10883042265499009
0.5174807103259422 0.6089476796136868 0.09445679787526283
0.49970806891877606 0.7289408796331485 0.017997251500418154
0.5705735570855682 0.6245012232504621 0.0026437576357018246
0.5998883525083163 0.6988764552129939 0.10883042265499009
0.7174807103259422 0.6089476796136868 0.09445679787526283
0.6997080689187761 0.7289408796331485 0.017997251500418154
0.7705735570855683 0.6245012232504621 0.0026437576357018246
0.7998883525083164 0.6988764552129939 0.10883042265499009
0.9174807103259423 0.6089476796136868 0.09445679787526283
0.8997080689187762 0.7289408796331485 0.017997251500418154
-0.029426442914431777 0.8245012232504619 0.0026437576357018246
-0.00011164749168367406 0.898876455212994 0.10883042265499009
0.11748071032594215 0.8089476796136869 0.09445679787526283
0.0997080689187761 0.9289408796331484 0.017997251500418154
0.17057355708556823 0.8245012232504619 0.0026437576357018246
0.19988835250831635 0.898876455212994 0.10883042265499009
0.31748071032594216 0.8089476796136869 0.09445679787526283
0.29970806891877605 0.9289408796331484 0.017997251500418154
0.3705735570855682 0.8245012232504619 0.0026437576357018246
0.39988835250831634 0.898876455212994 0.10883042265499009
0.5174807103259422 0.8089476796136869 0.09445679787526283
0.49970806891877606 0.9289408796331484 0.017997251500418154
0.5705735570855682 0.8245012232504619 0.0026437576357018246
0.5998883525083163 0.898876455212994 0.10883042265499009
0.7174807103259422 0.8089476796136869 0.09445679787526283
0.6997080689187761 0.9289408796331484 0.017997251500418154
0.7705735570855683 0.8245012232504619 0.0026437576357018246
0.7998883525083164 0.898876455212994 0.10883042265499009
0.9174807103259423 0.8089476796136869 0.09445679787526283
0.8997080689187762 0.9289408796331484 0.017997251500418154
-0.029426442914431777 0.02450122325046199 0.20264375763570183
-0.00011164749168367406 0.09887645521299389 0.30883042265499006
0.11748071032594215 0.008947679613686773 0.29445679787526285
0.0997080689187761 0.12894087963314846 0.21799725150041815
0.17057355708556823 0.02450122325046199 0.20264375763570183
0.19988835250831635 0.09887645521299389 0.30883042265499006
0.31748071032594216 0.008947679613686773 0.29445679787526285
0.29970806891877605 0.12894087963314846 0.21799725150041815
0.3705735570855682 0.02450122325046199 0.20264375763570183
0.39988835250831634 0.09887645521299389 0.30883042265499006
0.5174807103259422 0.008947679613686773 0.29445679787526285
0.49970806891877606 0.12894087963314846 0.21799725150041815
0.5705735570855682 0.02450122325046199 0.20264375763570183
0.5998883525083163 0.09887645521299389 0.30883042265499006
0.7174807103259422 0.008947679613686773 0.29445679787526285
0.6997080689187761 0.12894087963314846 0.21799725150041815
0.7705735570855683 0.02450122325046199 0.20264375763570183
0.7998883525083164 0.09887645521299389 0.30883042265499006
0.9174807103259423 0.008947679613686773 0.29445679787526285
0.8997080689187762 0.12894087963314846 0.21799725150041815
-0.029426442914431777 0.224501223250462 0.20264375763570183
-0.00011164749168367406 0.2988764552129939 0.30883042265499006
0.11748071032594215 0.2089476796136868 0.29445679787526285
0.0997080689187761 0.3289408796331485 0.21799725150041815
0.17057355708556823 0.224501223250462 0.20264375763570183
0.19988835250831635 0.2988764552129939 0.30883042265499006
0.31748071032594216 0.2089476796136868 0.29445679787526285
0.29970806891877605 0.3289408796331485 0.21799725150041815
0.3705735570855682 0.224501223250462 0.20264375763570183
0.39988835250831634 0.2988764552129939 0.30883042265499006
0.5174807103259422 0.2089476796136868 0.29445679787526285
0.49970806891877606 0.3289408796331485 0.21799725150041815
0.5705735570855682 0.224501223250462 0.20264375763570183
0.5998883525083163 0.2988764552129939 0.30883042265499006
0.7174807103259422 0.2089476796136868 0.29445679787526285
0.6997080689187761 0.3289408796331485 0.21799725150041815
0.7705735570855683 0.224501223250462 0.20264375763570183
0.7998883525083164 0.2988764552129939 0.30883042265499006
0.9174807103259423 0.2089476796136868 0.29445679787526285
0.8997080689187762 0.3289408796331485 0.21799725150041815
-0.029426442914431777 0.424501223250462 0.20264375763570183
-0.00011164749168367406 0.4988764552129939 0.30883042265499006
0.11748071032594215 0.40894767961368683 0.29445679787526285
0.0997080689187761 0.5289408796331484 0.21799725150041815
0.17057355708556823 0.424501223250462 0.20264375763570183
0.19988835250831635 0.4988764552129939 0.30883042265499006
0.31748071032594216 0.40894767961368683 0.29445679787526285
0.29970806891877605 0.5289408796331484 0.21799725150041815
0.3705735570855682 0.424501223250462 0.20264375763570183
0.39988835250831634 0.4988764552129939 0.30883042265499006
0.5174807103259422 0.40894767961368683 0.29445679787526285
0.49970806891877606 0.5289408796331484 0.21799725150041815
0.5705735570855682 0.424501223250462 0.20264375763570183
0.5998883525083163 0.4988764552129939 0.30883042265499006
0.7174807103259422 0.40894767961368683 0.29445679787526285
0.6997080689187761 0.5289408796331484 0.21799725150041815
0.7705735570855683 0.424501223250462 0.20264375763570183
0.7998883525083164 0.4988764552129939 0.30883042265499006
0.9174807103259423 0.40894767961368683 0.29445679787526285
0.8997080689187762 0.5289408796331484 0.21799725150041815
-0.029426442914431777 0.6245012232504621 0.20264375763570183
-0.00011164749168367406 0.6988764552129939 0.30883042265499006
0.11748071032594215 0.6089476796136868 0.29445679787526285
0.0997080689187761 0.7289408796331485 0.21799725150041815
0.17057355708556823 0.6245012232504621 0.20264375763570183
0.19988835250831635 0.6988764552129939 0.30883042265499006
0.31748071032594216 0.6089476796136868 0.29445679787526285
0.29970806891877605 0.7289408796331485 0.21799725150041815
0.3705735570855682 0.6245012232504621 0.20264375763570183
0.39988835250831634 0.6988764552129939 0.30883042265499006
0.5174807103259422 0.6089476796136868 0.29445679787526285
0.49970806891877606 0.7289408796331485 0.21799725150041815
0.5705735570855682 0.6245012232504621 0.20264375763570183
0.5998883525083163 0.6988764552129939 0.30883042265499006
0.7174807103259422 0.6089476796136868 0.29445679787526285
0.6997080689187761 0.7289408796331485 0.21799725150041815
0.7705735570855683 0.6245012232504621 0.20264375763570183
0.7998883525083164 0.6988764552129939 0.30883042265499006
0.9174807103259423 0.6089476796136868 0.29445679787526285
0.8997080689187762 0.7289408796331485 0.21799725150041815
-0.029426442914431777 0.8245012232504619 0.20264375763570183
-0.00011164749168367406 0.898876455212994 0.30883042265499006
0.11748071032594215 0.8089476796136869 0.29445679787526285
0.0997080689187761 0.9289408796331484 0.21799725150041815
0.17057355708556823 0.8245012232504619 0.20264375763570183
0.19988835250831635 0.898876455212994 0.30883042265499006
0.31748071032594216 0.8089476796136869 0.29445679787526285
0.29970806891877605 0.9289408796331484 0.21799725150041815
0.3705735570855682 0.8245012232504619 0.20264375763570183
0.39988835250831634 0.898876455212994 0.30883042265499006
0.5174807103259422 0.8089476796136869 0.29445679787526285
0.49970806891877606 0.9289408796331484 0.21799725150041815
0.5705735570855682 0.8245012232504619 0.20264375763570183
0.5998883525083163 0.898876455212994 0.30883042265499006
0.7174807103259422 0.8089476796136869 0.29445679787526285
0.6997080689187761 0.9289408796331484 0.21799725150041815
0.7705735570855683 0.8245012232504619 0.20264375763570183
0.7998883525083164 0.898876455212994 0.30883042265499006
0.9174807103259423 0.8089476796136869 0.29445679787526285
0.8997080689187762 0.9289408796331484 0.21799725150041815
-0.029426442914431777 0.02450122325046199 0.40264375763570187
-0.00011164749168367406 0.09887645521299389 0.5088304226549901
0.11748071032594215 0.008947679613686773 0.49445679787526287
0.0997080689187761 0.12894087963314846 0.4179972515004182
0.17057355708556823 0.02450122325046199 0.40264375763570187
0.19988835250831635 0.09887645521299389 0.5088304226549901
0.31748071032594216 0.008947679613686773 0.49445679787526287
0.29970806891877605 0.12894087963314846 0.4179972515004182
0.3705735570855682 0.02450122325046199 0.40264375763570187
0.39988835250831634 0.09887645521299389 0.5088304226549901
0.5174807103259422 0.008947679613686773 0.49445679787526287
0.49970806891877606 0.12894087963314846 0.4179972515004182
0.5705735570855682 0.02450122325046199 0.40264375763570187
0.5998883525083163 0.09887645521299389 0.5088304226549901
0.7174807103259422 0.008947679613686773 0.49445679787526287
0.6997080689187761 0.12894087963314846 0.4179972515004182
0.7705735570855683 0.02450122325046199 0.40264375763570187
0.7998883525083164 0.09887645521299389 0.5088304226549901
0.9174807103259423 0.008947679613686773 0.49445679787526287
0.8997080689187762 0.12894087963314846 0.4179972515004182
-0.029426442914431777 0.224501223250462 0.40264375763570187
-0.00011164749168367406 0.2988764552129939 0.5088304226549901
0.11748071032594215 0.2089476796136868 0.49445679787526287
0.0997080689187761 0.3289408796331485 0.4179972515004182
0.17057355708556823 0.224501223250462 0.40264375763570187
0.19988835250831635 0.2988764552129939 0.5088304226549901
0.31748071032594216 0.2089476796136868 0.49445679787526287
0.29970806891877605 0.3289408796331485 0.4179972515004182
0.3705735570855682 0.224501223250462 0.40264375763570187
0.39988835250831634 0.2988764552129939 0.5088304226549901
0.5174807103259422 0.2089476796136868 0.49445679787526287
0.49970806891877606 0.3289408796331485 0.4179972515004182
0.5705735570855682 0.224501223250462 0.40264375763570187
0.5998883525083163 0.2988764552129939 0.5088304226549901
0.7174807103259422 0.2089476796136868 0.49445679787526287
0.6997080689187761 0.3289408796331485 0.4179972515004182
0.7705735570855683 0.224501223250462 0.40264375763570187
0.7998883525083164 0.2988764552129939 0.5088304226549901
0.9174807103259423 0.2089476796136868 0.49445679787526287
0.8997080689187762 0.3289408796331485 0.4179972515004182
-0.029426442914431777 0.424501223250462 0.40264375763570187
-0.00011164749168367406 0.4988764552129939 0.5088304226549901
0.11748071032594215 0.40894767961368683 0.49445679787526287
0.0997080689187761 0.5289408796331484 0.4179972515004182
0.17057355708556823 0.424501223250462 0.40264375763570187
0.19988835250831635 0.4988764552129939 0.5088304226549901
0.31748071032594216 0.40894767961368683 0.49445679787526287
0.29970806891877605 0.5289408796331484 0.4179972515004182
0.3705735570855682 0.424501223250462 0.40264375763570187
0.39988835250831634 0.4988764552129939 0.5088304226549901
0.5174807103259422 0.40894767961368683 0.49445679787526287
0.49970806891877606 0.5289408796331484 0.4179972515004182
0.5705735570855682 0.424501223250462 0.40264375763570187
0.5998883525083163 0.4988764552129939 0.5088304226549901
0.7174807103259422 0.40894767961368683 0.49445679787526287
0.6997080689187761 0.5289408796331484 0.4179972515004182
0.7705735570855683 0.424501223250462 0.40264375763570187
0.7998883525083164 0.4988764552129939 0.5088304226549901
0.9174807103259423 0.40894767961368683 0.49445679787526287
0.8997080689187762 0.5289408796331484 0.4179972515004182
-0.029426442914431777 0.6245012232504621 0.40264375763570187
-0.00011164749168367406 0.6988764552129939 0.5088304226549901
0.11748071032594215 0.6089476796136868 0.49445679787526287
0.0997080689187761 0.7289408796331485 0.4179972515004182
0.17057355708556823 0.6245012232504621 0.40264375763570187
0.19988835250831635 0.6988764552129939 0.5088304226549901
0.31748071032594216 0.6089476796136868 0.49445679787526287
0.29970806891877605 0.7289408796331485 0.4179972515004182
0.3705735570855682 0.6245012232504621 0.40264375763570187
0.39988835250831634 0.6988764552129939 0.5088304226549901
0.5174807103259422 0.6089476796136868 0.49445679787526287
0.49970806891877606 0.7289408796331485 0.4179972515004182
0.5705735570855682 0.6245012232504621 0.40264375763570187
0.5998883525083163 0.6988764552129939 0.5088304226549901
0.7174807103259422 0.6089476796136868 0.49445679787526287
0.6997080689187761 0.7289408796331485 0.4179972515004182
0.7705735570855683 0.6245012232504621 0.40264375763570187
0.7998883525083164 0.6988764552129939 0.5088304226549901
0.9174807103259423 0.6089476796136868 0.49445679787526287
0.8997080689187762 0.7289408796331485 0.4179972515004182
-0.029426442914431777 0.8245012232504619 0.40264375763570187
-0.00011164749168367406 0.898876455212994 0.5088304226549901
0.11748071032594215 0.8089476796136869 0.49445679787526287
0.0997080689187761 0.9289408796331484 0.4179972515004182
0.17057355708556823 0.8245012232504619 0.40264375763570187
0.19988835250831635 0.898876455212994 0.5088304226549901
0.31748071032594216 0.8089476796136869 0.49445679787526287
0.29970806891877605 0.9289408796331484 0.4179972515004182
0.3705735570855682 0.8245012232504619 0.40264375763570187
0.39988835250831634 0.898876455212994 0.5088304226549901
0.5174807103259422 0.8089476796136869 0.49445679787526287
0.49970806891877606 0.9289408796331484 0.4179972515004182
0.5705735570855682 0.8245012232504619 0.40264375763570187
0.5998883525083163 0.898876455212994 0.5088304226549901
0.7174807103259422 0.8089476796136869 0.49445679787526287
0.6997080689187761 0.9289408796331484 0.4179972515004182
0.7705735570855683 0.8245012232504619 0.40264375763570187
0.7998883525083164 0.898876455212994 0.5088304226549901
0.9174807103259423 0.8089476796136869 0.49445679787526287
0.8997080689187762 0.9289408796331484 0.4179972515004182
-0.029426442914431777 0.02450122325046199 0.6026437576357019
-0.00011164749168367406 0.09887645521299389 0.7088304226549901
0.11748071032594215 0.008947679613686773 0.6944567978752629
0.0997080689187761 0.12894087963314846 0.6179972515004182
0.17057355708556823 0.02450122325046199 0.6026437576357019
0.19988835250831635 0.09887645521299389 0.7088304226549901
0.31748071032594216 0.008947679613686773 0.6944567978752629
0.29970806891877605 0.12894087963314846 0.6179972515004182
0.3705735570855682 0.02450122325046199 0.6026437576357019
0.39988835250831634 0.09887645521299389 0.7088304226549901
0.5174807103259422 0.008947679613686773 0.6944567978752629
0.49970806891877606 0.12894087963314846 0.6179972515004182
0.5705735570855682 0.02450122325046199 0.6026437576357019
0.5998883525083163 0.09887645521299389 0.7088304226549901
0.7174807103259422 0.008947679613686773 0.6944567978752629
0.6997080689187761 0.12894087963314846 0.6179972515004182
0.7705735570855683 0.02450122325046199 0.6026437576357019
0.7998883525083164 0.09887645521299389 0.7088304226549901
0.9174807103259423 0.008947679613686773 0.6944567978752629
0.8997080689187762 0.12894087963314846 0.6179972515004182
-0.029426442914431777 0.224501223250462 0.6026437576357019
-0.00011164749168367406 0.2988764552129939 0.7088304226549901
0.11748071032594215 0.2089476796136868 0.6944567978752629
0.0997080689187761 0.3289408796331485 0.6179972515004182
0.17057355708556823 0.224501223250462 0.6026437576357019
0.19988835250831635 0.2988764552129939 0.7088304226549901
0.31748071032594216 0.2089476796136868 0.6944567978752629
0.29970806891877605 0.3289408796331485 0.6179972515004182
0.3705735570855682 0.224501223250462 0.6026437576357019
0.39988835250831634 0.2988764552129939 0.7088304226549901
0.5174807103259422 0.2089476796136868 0.6944567978752629
0.49970806891877606 0.3289408796331485 0.6179972515004182
0.5705735570855682 0.224501223250462 0.6026437576357019
0.5998883525083163 0.2988764552129939 0.7088304226549901
0.7174807103259422 0.2089476796136868 0.6944567978752629
0.6997080689187761 0.3289408796331485 0.6179972515004182
0.7705735570855683 0.224501223250462 0.6026437576357019
0.7998883525083164 0.2988764552129939 0.7088304226549901
0.9174807103259423 0.2089476796136868 0.6944567978752629
0.8997080689187762 0.3289408796331485 0.6179972515004182
-0.029426442914431777 0.424501223250462 0.6026437576357019
-0.00011164749168367406 0.4988764552129939 0.7088304226549901
0.11748071032594215 0.40894767961368683 0.6944567978752629
0.0997080689187761 0.5289408796331484 0.6179972515004182
0.17057355708556823 0.424501223250462 0.6026437576357019
0.19988835250831635 0.4988764552129939 0.7088304226549901
0.31748071032594216 0.40894767961368683 0.6944567978752629
0.29970806891877605 0.5289408796331484 0.6179972515004182
0.3705735570855682 0.424501223250462 0.6026437576357019
0.39988835250831634 0.4988764552129939 0.7088304226549901
0.5174807103259422 0.40894767961368683 0.6944567978752629
0.49970806891877606 0.5289408796331484 0.6179972515004182
0.5705735570855682 0.424501223250462 0.6026437576357019
0.5998883525083163 0.4988764552129939 0.7088304226549901
0.7174807103259422 0.40894767961368683 0.6944567978752629
0.6997080689187761 0.5289408796331484 0.6179972515004182
0.7705735570855683 0.424501223250462 0.6026437576357019
0.7998883525083164 0.4988764552129939 0.7088304226549901
0.9174807103259423 0.40894767961368683 0.6944567978752629
0.8997080689187762 0.5289408796331484 0.6179972515004182
-0.029426442914431777 0.6245012232504621 0.6026437576357019
-0.00011164749168367406 0.6988764552129939 0.7088304226549901
0.11748071032594215 0.6089476796136868 0.6944567978752629
0.0997080689187761 0.7289408796331485 0.6179972515004182
0.17057355708556823 0.6245012232504621 0.6026437576357019
0.19988835250831635 0.6988764552129939 0.7088304226549901
0.31748071032594216 0.6089476796136868 0.6944567978752629
0.29970806891877605 0.7289408796331485 0.6179972515004182
0.3705735570855682 0.6245012232504621 0.6026437576357019
0.39988835250831634 0.6988764552129939 0.7088304226549901
0.5174807103259422 0.6089476796136868 0.6944567978752629
0.49970806891877606 0.7289408796331485 0.6179972515004182
0.5705735570855682 0.6245012232504621 0.6026437576357019
0.5998883525083163 0.6988764552129939 0.7088304226549901
0.7174807103259422 0.6089476796136868 0.6944567978752629
0.6997080689187761 0.7289408796331485 0.6179972515004182
0.7705735570855683 0.6245012232504621 0.6026437576357019
0.7998883525083164 0.6988764552129939 0.7088304226549901
0.9174807103259423 0.6089476796136868 0.6944567978752629
0.8997080689187762 0.7289408796331485 0.6179972515004182
-0.029426442914431777 0.8245012232504619 0.6026437576357019
-0.00011164749168367406 0.898876455212994 0.7088304226549901
0.11748071032594215 0.8089476796136869 0.6944567978752629
0.0997080689187761 0.9289408796331484 0.6179972515004182
0.17057355708556823 0.8245012232504619 0.6026437576357019
0.19988835250831635 0.898876455212994 0.7088304226549901
0.31748071032594216 0.8089476796136869 0.6944567978752629
0.29970806891877605 0.9289408796331484 0.6179972515004182
0.3705735570855682 0.8245012232504619 0.6026437576357019
0.39988835250831634 0.898876455212994 0.7088304226549901
0.5174807103259422 0.8089476796136869 0.6944567978752629
0.49970806891877606 0.9289408796331484 0.6179972515004182
0.5705735570855682 0.8245012232504619 0.6026437576357019
0.5998883525083163 0.898876455212994 0.7088304226549901
0.7174807103259422 0.8089476796136869 0.6944567978752629
0.6997080689187761 0.9289408796331484 0.6179972515004182
0.7705735570855683 0.8245012232504619 0.6026437576357019
0.7998883525083164 0.898876455212994 0.7088304226549901
0.9174807103259423 0.8089476796136869 0.6944567978752629
0.8997080689187762 0.9289408796331484 0.6179972515004182
-0.029426442914431777 0.02450122325046199 0.802643757635702
-0.00011164749168367406 0.09887645521299389 0.9088304226549901
0.11748071032594215 0.008947679613686773 0.8944567978752629
0.0997080689187761 0.12894087963314846 0.8179972515004181
0.17057355708556823 0.02450122325046199 0.802643757635702
0.19988835250831635 0.09887645521299389 0.9088304226549901
0.31748071032594216 0.008947679613686773 0.8944567978752629
0.29970806891877605 0.12894087963314846 0.8179972515004181
0.3705735570855682 0.02450122325046199 0.802643757635702
0.39988835250831634 0.09887645521299389 0.9088304226549901
0.5174807103259422 0.008947679613686773 0.8944567978752629
0.49970806891877606 0.12894087963314846 0.8179972515004181
0.5705735570855682 0.02450122325046199 0.802643757635702
0.5998883525083163 0.09887645521299389 0.9088304226549901
0.7174807103259422 0.008947679613686773 0.8944567978752629
0.6997080689187761 0.12894087963314846 0.8179972515004181
0.7705735570855683 0.02450122325046199 0.802643757635702
0.7998883525083164 0.09887645521299389 0.9088304226549901
0.9174807103259423 0.008947679613686773 0.8944567978752629
0.8997080689187762 0.12894087963314846 0.8179972515004181
-0.029426442914431777 0.224501223250462 0.802643757635702
-0.00011164749168367406 0.2988764552129939 0.9088304226549901
0.11748071032594215 0.2089476796136868 0.8944567978752629
0.0997080689187761 0.3289408796331485 0.8179972515004181
0.17057355708556823 0.224501223250462 0.802643757635702
0.19988835250831635 0.2988764552129939 0.9088304226549901
0.31748071032594216 0.2089476796136868 0.8944567978752629
0.29970806891877605 0.3289408796331485 0.8179972515004181
0.3705735570855682 0.224501223250462 0.802643757635702
0.39988835250831634 0.2988764552129939 0.9088304226549901
0.5174807103259422 0.2089476796136868 0.8944567978752629
0.49970806891877606 0.3289408796331485 0.8179972515004181
0.5705735570855682 0.224501223250462 0.802643757635702
0.5998883525083163 0.2988764552129939 0.9088304226549901
0.7174807103259422 0.2089476796136868 0.8944567978752629
0.6997080689187761 0.3289408796331485 0.8179972515004181
0.7705735570855683 0.224501223250462 0.802643757635702
0.7998883525083164 0.2988764552129939 0.9088304226549901
0.9174807103259423 0.2089476796136868 0.8944567978752629
0.8997080689187762 0.3289408796331485 0.8179972515004181
-0.029426442914431777 0.424501223250462 0.802643757635702
-0.00011164749168367406 0.4988764552129939 0.9088304226549901
0.11748071032594215 0.40894767961368683 0.8944567978752629
0.0997080689187761 0.5289408796331484 0.8179972515004181
0.17057355708556823 0.424501223250462 0.802643757635702
0.19988835250831635 0.4988764552129939 0.9088304226549901
0.31748071032594216 0.40894767961368683 0.8944567978752629
0.29970806891877605 0.5289408796331484 0.8179972515004181
0.3705735570855682 0.424501223250462 0.802643757635702
0.39988835250831634 0.4988764552129939 0.9088304226549901
0.5174807103259422 0.40894767961368683 0.8944567978752629
0.49970806891877606 0.5289408796331484 0.8179972515004181
0.5705735570855682 0.424501223250462 0.802643757635702
0.5998883525083163 0.4988764552129939 0.9088304226549901
0.7174807103259422 0.40894767961368683 0.8944567978752629
0.6997080689187761 0.5289408796331484 0.8179972515004181
0.7705735570855683 0.424501223250462 0.802643757635702
0.7998883525083164 0.4988764552129939 0.9088304226549901
0.9174807103259423 0.40894767961368683 0.8944567978752629
0.8997080689187762 0.5289408796331484 0.8179972515004181
-0.029426442914431777 0.6245012232504621 0.802643757635702
-0.00011164749168367406 0.6988764552129939 0.9088304226549901
0.11748071032594215 0.6089476796136868 0.8944567978752629
0.0997080689187761 0.7289408796331485 0.8179972515004181
0.17057355708556823 0.6245012232504621 0.802643757635702
0.19988835250831635 0.6988764552129939 0.9088304226549901
0.31748071032594216 0.6089476796136868 0.8944567978752629
0.29970806891877605 0.7289408796331485 0.8179972515004181
0.3705735570855682 0.6245012232504621 0.802643757635702
0.39988835250831634 0.6988764552129939 0.9088304226549901
0.5174807103259422 0.6089476796136868 0.8944567978752629
0.49970806891877606 0.7289408796331485 0.8179972515004181
0.5705735570855682 0.6245012232504621 0.802643757635702
0.5998883525083163 0.6988764552129939 0.9088304226549901
0.7174807103259422 0.6089476796136868 0.8944567978752629
0.6997080689187761 0.7289408796331485 0.8179972515004181
0.7705735570855683 0.6245012232504621 0.802643757635702
0.7998883525083164 0.6988764552129939 0.9088304226549901
0.9174807103259423 0.6089476796136868 0.8944567978752629
0.8997080689187762 0.7289408796331485 0.8179972515004181
-0.029426442914431777 0.8245012232504619 0.802643757635702
-0.00011164749168367406 0.898876455212994 0.9088304226549901
0.11748071032594215 0.8089476796136869 0.8944567978752629
0.0997080689187761 0.9289408796331484 0.8179972515004181
0.17057355708556823 0.8245012232504619 0.802643757635702
0.19988835250831635 0.898876455212994 0.9088304226549901
0.31748071032594216 0.8089476796136869 0.8944567978752629
0.29970806891877605 0.9289408796331484 0.8179972515004181
0.3705735570855682 0.8245012232504619 0.802643757635702
0.39988835250831634 0.898876455212994 0.9088304226549901
0.5174807103259422 0.8089476796136869 0.8944567978752629
0.49970806891877606 0.9289408796331484 0.8179972515004181
0.5705735570855682 0.8245012232504619 0.802643757635702
0.5998883525083163 0.898876455212994 0.9088304226549901
0.7174807103259422 0.8089476796136869 0.8944567978752629
0.6997080689187761 0.9289408796331484 0.8179972515004181
0.7705735570855683 0.8245012232504619 0.802643757635702
0.7998883525083164 0.898876455212994 0.9088304226549901
0.9174807103259423 0.8089476796136869 0.8944567978752629
0.8997080689187762 0.9289408796331484 0.8179972515004181
0.12440063204672198 -0.014146346633453287 0.01005475115581699
0.021274477479600623 0.1262711996689561 0.007055342830029661
-0.003763106121084598 0.0016172461060573818 0.08398627776023733
0.11313622737864829 0.1090088465177601 0.12085814398045983
0.324400632046722 -0.014146346633453287 0.01005475115581699
0.22127447747960063 0.1262711996689561 0.007055342830029661
0.1962368938789154 0.0016172461060573818 0.08398627776023733
0.31313622737864827 0.1090088465177601 0.12085814398045983
0.5244006320467219 -0.014146346633453287 0.01005475115581699
0.4212744774796006 0.1262711996689561 0.007055342830029661
0.3962368938789154 0.0016172461060573818 0.08398627776023733
0.5131362273786483 0.1090088465177601 0.12085814398045983
0.724400632046722 -0.014146346633453287 0.01005475115581699
0.6212744774796006 0.1262711996689561 0.007055342830029661
0.5962368938789154 0.0016172461060573818 0.08398627776023733
0.7131362273786483 0.1090088465177601 0.12085814398045983
0.924400632046722 -0.014146346633453287 0.01005475115581699
0.8212744774796006 0.1262711996689561 0.007055342830029661
0.7962368938789154 0.0016172461060573818 0.08398627776023733
0.9131362273786483 0.1090088465177601 0.12085814398045983
0.12440063204672198 0.18585365336654672 0.01005475115581699
0.021274477479600623 0.3262711996689561 0.007055342830029661
-0.003763106121084598 0.20161724610605739 0.08398627776023733
0.11313622737864829 0.3090088465177601 0.12085814398045983
0.324400632046722 0.18585365336654672 0.01005475115581699
0.22127447747960063 0.3262711996689561 0.007055342830029661
0.1962368938789154 0.20161724610605739 0.08398627776023733
0.31313622737864827 0.3090088465177601 0.12085814398045983
0.5244006320467219 0.18585365336654672 0.01005475115581699
0.4212744774796006 0.3262711996689561 0.007055342830029661
0.3962368938789154 0.20161724610605739 0.08398627776023733
0.5131362273786483 0.3090088465177601 0.12085814398045983
0.724400632046722 0.18585365336654672 0.01005475115581699
0.6212744774796006 0.3262711996689561 0.007055342830029661
0.5962368938789154 0.20161724610605739 0.08398627776023733
0.7131362273786483 0.3090088465177601 0.12085814398045983
0.924400632046722 0.18585365336654672 0.01005475115581699
0.8212744774796006 0.3262711996689561 0.007055342830029661
0.7962368938789154 0.20161724610605739 0.08398627776023733
0.9131362273786483 0.3090088465177601 0.12085814398045983
0.12440063204672198 0.38585365336654676 0.01005475115581699
0.021274477479600623 0.5262711996689561 0.007055342830029661
-0.003763106121084598 0.4016172461060574 0.08398627776023733
0.11313622737864829 0.5090088465177601 0.12085814398045983
0.324400632046722 0.38585365336654676 0.01005475115581699
0.22127447747960063 0.5262711996689561 0.007055342830029661
0.1962368938789154 0.4016172461060574 0.08398627776023733
0.31313622737864827 0.5090088465177601 0.12085814398045983
0.5244006320467219 0.38585365336654676 0.01005475115581699
0.4212744774796006 0.5262711996689561 0.007055342830029661
0.3962368938789154 0.4016172461060574 0.08398627776023733
0.5131362273786483 0.5090088465177601 0.12085814398045983
0.724400632046722 0.38585365336654676 0.01005475115581699
0.6212744774796006 0.5262711996689561 0.007055342830029661
0.5962368938789154 0.4016172461060574 0.08398627776023733
0.7131362273786483 0.5090088465177601 0.12085814398045983
0.924400632046722 0.38585365336654676 0.01005475115581699
0.8212744774796006 0.5262711996689561 0.007055342830029661
0.7962368938789154 0.4016172461060574 0.08398627776023733
0.9131362273786483 0.5090088465177601 0.12085814398045983
0.12440063204672198 0.5858536533665467 0.01005475115581699
0.021274477479600623 0.7262711996689561 0.007055342830029661
-0.003763106121084598 0.6016172461060574 0.08398627776023733
0.11313622737864829 0.7090088465177602 0.12085814398045983
0.324400632046722 0.5858536533665467 0.01005475115581699
0.22127447747960063 0.7262711996689561 0.007055342830029661
0.1962368938789154 0.6016172461060574 0.08398627776023733
0.31313622737864827 0.7090088465177602 0.12085814398045983
0.5244006320467219 0.5858536533665467 0.01005475115581699
0.4212744774796006 0.7262711996689561 0.007055342830029661
0.3962368938789154 0.6016172461060574 0.08398627776023733
0.5131362273786483 0.7090088465177602 0.12085814398045983
0.724400632046722 0.5858536533665467 0.01005475115581699
0.6212744774796006 0.7262711996689561 0.007055342830029661
0.5962368938789154 0.6016172461060574 0.08398627776023733
0.7131362273786483 0.7090088465177602 0.12085814398045983
0.924400632046722 0.5858536533665467 0.01005475115581699
0.8212744774796006 0.7262711996689561 0.007055342830029661
0.7962368938789154 0.6016172461060574 0.08398627776023733
0.9131362273786483 0.7090088465177602 0.12085814398045983
0.12440063204672198 0.7858536533665468 0.01005475115581699
0.021274477479600623 0.9262711996689561 0.007055342830029661
-0.003763106121084598 0.8016172461060574 0.08398627776023733
0.11313622737864829 0.9090088465177601 0.12085814398045983
0.324400632046722 0.7858536533665468 0.01005475115581699
0.22127447747960063 0.9262711996689561 0.007055342830029661
0.1962368938789154 0.8016172461060574 0.08398627776023733
0.31313622737864827 0.9090088465177601 0.12085814398045983
0.5244006320467219 0.7858536533665468 0.01005475115581699
0.4212744774796006 0.9262711996689561 0.007055342830029661
0.3962368938789154 0.8016172461060574 0.08398627776023733
0.5131362273786483 0.9090088465177601 0.12085814398045983
0.724400632046722 0.7858536533665468 0.01005475115581699
0.6212744774796006 0.9262711996689561 0.007055342830029661
0.5962368938789154 0.8016172461060574 0.08398627776023733
0.7131362273786483 0.9090088465177601 0.12085814398045983
0.924400632046722 0.7858536533665468 0.01005475115581699
0.8212744774796006 0.9262711996689561 0.007055342830029661
0.7962368938789154 0.8016172461060574 0.08398627776023733
0.9131362273786483 0.9090088465177601 0.12085814398045983
0.12440063204672198 -0.014146346633453287 0.21005475115581698
0.021274477479600623 0.1262711996689561 0.20705534283002966
-0.003763106121084598 0.0016172461060573818 0.2839862777602373
0.11313622737864829 0.1090088465177601 0.32085814398045986
0.324400632046722 -0.014146346633453287 0.21005475115581698
0.22127447747960063 0.1262711996689561 0.20705534283002966
0.1962368938789154 0.0016172461060573818 0.2839862777602373
0.31313622737864827 0.1090088465177601 0.32085814398045986
0.5244006320467219 -0.014146346633453287 0.21005475115581698
0.4212744774796006 0.1262711996689561 0.20705534283002966
0.3962368938789154 0.0016172461060573818 0.2839862777602373
0.5131362273786483 0.1090088465177601 0.32085814398045986
0.724400632046722 -0.014146346633453287 0.21005475115581698
0.6212744774796006 0.1262711996689561 0.20705534283002966
0.5962368938789154 0.0016172461060573818 0.2839862777602373
0.7131362273786483 0.1090088465177601 0.32085814398045986
0.924400632046722 -0.014146346633453287 0.21005475115581698
0.8212744774796006 0.1262711996689561 0.20705534283002966
0.7962368938789154 0.0016172461060573818 0.2839862777602373
0.9131362273786483 0.1090088465177601 0.32085814398045986
0.12440063204672198 0.18585365336654672 0.21005475115581698
0.021274477479600623 0.3262711996689561 0.20705534283002966
-0.003763106121084598 0.20161724610605739 0.2839862777602373
0.11313622737864829 0.3090088465177601 0.32085814398045986
0.324400632046722 0.18585365336654672 0.21005475115581698
0.22127447747960063 0.3262711996689561 0.20705534283002966
0.1962368938789154 0.20161724610605739 0.2839862777602373
0.31313622737864827 0.3090088465177601 0.32085814398045986
0.5244006320467219 0.18585365336654672 0.21005475115581698
0.4212744774796006 0.3262711996689561 0.20705534283002966
0.3962368938789154 0.20161724610605739 0.2839862777602373
0.5131362273786483 0.3090088465177601 0.32085814398045986
0.724400632046722 0.18585365336654672 0.21005475115581698
0.6212744774796006 0.3262711996689561 0.20705534283002966
0.5962368938789154 0.20161724610605739 0.2839862777602373
0.7131362273786483 0.3090088465177601 0.32085814398045986
0.924400632046722 0.18585365336654672 0.21005475115581698
0.8212744774796006 0.3262711996689561 0.20705534283002966
0.7962368938789154 0.20161724610605739 0.2839862777602373
0.9131362273786483 0.3090088465177601 0.32085814398045986
0.12440063204672198 0.38585365336654676 0.21005475115581698
0.021274477479600623 0.5262711996689561 0.20705534283002966
-0.003763106121084598 0.4016172461060574 0.2839862777602373
0.11313622737864829 0.5090088465177601 0.32085814398045986
0.324400632046722 0.38585365336654676 0.21005475115581698
0.22127447747960063 0.5262711996689561 0.20705534283002966
0.1962368938789154 0.4016172461060574 0.2839862777602373
0.31313622737864827 0.5090088465177601 0.32085814398045986
0.5244006320467219 0.38585365336654676 0.21005475115581698
0.4212744774796006 0.5262711996689561 0.20705534283002966
0.3962368938789154 0.4016172461060574 0.2839862777602373
0.5131362273786483 0.5090088465177601 0.32085814398045986
0.724400632046722 0.38585365336654676 0.21005475115581698
0.6212744774796006 0.5262711996689561 0.20705534283002966
0.5962368938789154 0.4016172461060574 0.2839862777602373
0.7131362273786483 0.5090088465177601 0.32085814398045986
0.924400632046722 0.38585365336654676 0.21005475115581698
0.8212744774796006 0.5262711996689561 0.20705534283002966
0.7962368938789154 0.4016172461060574 0.2839862777602373
0.9131362273786483 0.5090088465177601 0.32085814398045986
0.12440063204672198 0.5858536533665467 0.21005475115581698
0.021274477479600623 0.7262711996689561 0.20705534283002966
-0.003763106121084598 0.6016172461060574 0.2839862777602373
0.11313622737864829 0.7090088465177602 0.32085814398045986
0.324400632046722 0.5858536533665467 0.21005475115581698
0.22127447747960063 0.7262711996689561 0.20705534283002966
0.1962368938789154 0.6016172461060574 0.2839862777602373
0.31313622737864827 0.7090088465177602 0.32085814398045986
0.5244006320467219 0.5858536533665467 0.21005475115581698
0.4212744774796006 0.7262711996689561 0.20705534283002966
0.3962368938789154 0.6016172461060574 0.2839862777602373
0.5131362273786483 0.7090088465177602 0.32085814398045986
0.724400632046722 0.5858536533665467 0.21005475115581698
0.6212744774796006 0.7262711996689561 0.20705534283002966
0.5962368938789154 0.6016172461060574 0.2839862777602373
0.7131362273786483 0.7090088465177602 0.32085814398045986
0.924400632046722 0.5858536533665467 0.21005475115581698
0.8212744774796006 0.7262711996689561 0.20705534283002966
0.7962368938789154 0.6016172461060574 0.2839862777602373
0.9131362273786483 0.7090088465177602 0.32085814398045986
0.12440063204672198 0.7858536533665468 0.21005475115581698
0.021274477479600623 0.9262711996689561 0.20705534283002966
-0.003763106121084598 0.8016172461060574 0.2839862777602373
0.11313622737864829 0.9090088465177601 0.32085814398045986
0.324400632046722 0.7858536533665468 0.21005475115581698
0.22127447747960063 0.9262711996689561 0.20705534283002966
0.1962368938789154 0.8016172461060574 0.2839862777602373
0.31313622737864827 0.9090088465177601 0.32085814398045986
0.5244006320467219 0.7858536533665468 0.21005475115581698
0.4212744774796006 0.9262711996689561 0.20705534283002966
0.3962368938789154 0.8016172461060574 0.2839862777602373
0.5131362273786483 0.9090088465177601 0.32085814398045986
0.724400632046722 0.7858536533665468 0.21005475115581698
0.6212744774796006 0.9262711996689561 0.20705534283002966
0.5962368938789154 0.8016172461060574 0.2839862777602373
0.7131362273786483 0.9090088465177601 0.32085814398045986
0.924400632046722 0.7858536533665468 0.21005475115581698
0.8212744774796006 0.9262711996689561 0.20705534283002966
0.7962368938789154 0.8016172461060574 0.2839862777602373
0.9131362273786483 0.9090088465177601 0.32085814398045986
0.12440063204672198 -0.014146346633453287 0.410054751155817
0.021274477479600623 0.1262711996689561 0.4070553428300297
-0.003763106121084598 0.0016172461060573818 0.4839862777602374
0.11313622737864829 0.1090088465177601 0.5208581439804599
0.324400632046722 -0.014146346633453287 0.410054751155817
0.22127447747960063 0.1262711996689561 0.4070553428300297
0.1962368938789154 0.0016172461060573818 0.4839862777602374
0.31313622737864827 0.1090088465177601 0.5208581439804599
0.5244006320467219 -0.014146346633453287 0.410054751155817
0.4212744774796006 0.1262711996689561 0.4070553428300297
0.3962368938789154 0.0016172461060573818 0.4839862777602374
0.5131362273786483 0.1090088465177601 0.5208581439804599
0.724400632046722 -0.014146346633453287 0.410054751155817
0.6212744774796006 0.1262711996689561 0.4070553428300297
0.5962368938789154 0.0016172461060573818 0.4839862777602374
0.7131362273786483 0.1090088465177601 0.5208581439804599
0.924400632046722 -0.014146346633453287 0.410054751155817
0.8212744774796006 0.1262711996689561 0.4070553428300297
0.7962368938789154 0.0016172461060573818 0.4839862777602374
0.9131362273786483 0.1090088465177601 0.5208581439804599
0.12440063204672198 0.18585365336654672 0.410054751155817
0.021274477479600623 0.3262711996689561 0.4070553428300297
-0.003763106121084598 0.20161724610605739 0.4839862777602374
0.11313622737864829 0.3090088465177601 0.5208581439804599
0.324400632046722 0.18585365336654672 0.410054751155817
0.22127447747960063 0.3262711996689561 0.4070553428300297
0.1962368938789154 0.20161724610605739 0.4839862777602374
0.31313622737864827 0.3090088465177601 0.5208581439804599
0.5244006320467219 0.18585365336654672 0.410054751155817
0.4212744774796006 0.3262711996689561 0.4070553428300297
0.3962368938789154 0.20161724610605739 0.4839862777602374
0.5131362273786483 0.3090088465177601 0.5208581439804599
0.724400632046722 0.18585365336654672 0.410054751155817
0.6212744774796006 0.3262711996689561 0.4070553428300297
0.5962368938789154 0.20161724610605739 0.4839862777602374
0.7131362273786483 0.3090088465177601 0.5208581439804599
0.924400632046722 0.18585365336654672 0.410054751155817
0.8212744774796006 0.3262711996689561 0.4070553428300297
0.7962368938789154 0.20161724610605739 0.4839862777602374
0.9131362273786483 0.3090088465177601 0.5208581439804599
0.12440063204672198 0.38585365336654676 0.410054751155817
0.021274477479600623 0.5262711996689561 0.4070553428300297
-0.003763106121084598 0.4016172461060574 0.4839862777602374
0.11313622737864829 0.5090088465177601 0.5208581439804599
0.324400632046722 0.38585365336654676 0.410054751155817
0.22127447747960063 0.5262711996689561 0.4070553428300297
0.1962368938789154 0.4016172461060574 0.4839862777602374
0.31313622737864827 0.5090088465177601 0.5208581439804599
0.5244006320467219 0.38585365336654676 0.410054751155817
0.4212744774796006 0.5262711996689561 0.4070553428300297
0.3962368938789154 0.4016172461060574 0.4839862777602374
0.5131362273786483 0.5090088465177601 0.5208581439804599
0.724400632046722 0.38585365336654676 0.410054751155817
0.6212744774796006 0.5262711996689561 0.4070553428300297
0.5962368938789154 0.4016172461060574 0.4839862777602374
0.7131362273786483 0.5090088465177601 0.5208581439804599
0.924400632046722 0.38585365336654676 0.410054751155817
0.8212744774796006 0.5262711996689561 0.4070553428300297
0.7962368938789154 0.4016172461060574 0.4839862777602374
0.9131362273786483 0.5090088465177601 0.5208581439804599
0.12440063204672198 0.5858536533665467 0.410054751155817
0.021274477479600623 0.7262711996689561 0.4070553428300297
-0.003763106121084598 0.6016172461060574 0.4839862777602374
0.11313622737864829 0.7090088465177602 0.5208581439804599
0.324400632046722 0.5858536533665467 0.410054751155817
0.22127447747960063 0.7262711996689561 0.4070553428300297
0.1962368938789154 0.6016172461060574 0.4839862777602374
0.31313622737864827 0.7090088465177602 0.5208581439804599
0.5244006320467219 0.5858536533665467 0.410054751155817
0.4212744774796006 0.7262711996689561 0.4070553428300297
0.3962368938789154 0.6016172461060574 0.4839862777602374
0.5131362273786483 0.7090088465177602 0.5208581439804599
0.724400632046722 0.5858536533665467 0.410054751155817
0.6212744774796006 0.7262711996689561 0.4070553428300297
0.5962368938789154 0.6016172461060574 0.4839862777602374
0.7131362273786483 0.7090088465177602 0.5208581439804599
0.924400632046722 0.5858536533665467 0.410054751155817
0.8212744774796006 0.7262711996689561 0.4070553428300297
0.7962368938789154 0.6016172461060574 0.4839862777602374
0.9131362273786483 0.7090088465177602 0.5208581439804599
0.12440063204672198 0.7858536533665468 0.410054751155817
0.021274477479600623 0.9262711996689561 0.4070553428300297
-0.003763106121084598 0.8016172461060574 0.4839862777602374
0.11313622737864829 0.9090088465177601 0.5208581439804599
0.324400632046722 0.7858536533665468 0.410054751155817
0.22127447747960063 0.9262711996689561 0.4070553428300297
0.1962368938789154 0.8016172461060574 0.4839862777602374
0.31313622737864827 0.9090088465177601 0.5208581439804599
0.5244006320467219 0.7858536533665468 0.410054751155817
0.4212744774796006 0.9262711996689561 0.4070553428300297
0.3962368938789154 0.8016172461060574 0.4839862777602374
0.5131362273786483 0.9090088465177601 0.5208581439804599
0.724400632046722 0.7858536533665468 0.410054751155817
0.6212744774796006 0.9262711996689561 0.4070553428300297
0.5962368938789154 0.8016172461060574 0.4839862777602374
0.7131362273786483 0.9090088465177601 0.5208581439804599
0.924400632046722 0.7858536533665468 0.410054751155817
0.8212744774796006 0.9262711996689561 0.4070553428300297
0.7962368938789154 0.8016172461060574 0.4839862777602374
0.9131362273786483 0.9090088465177601 0.5208581439804599
0.12440063204672198 -0.014146346633453287 0.610054751155817
0.021274477479600623 0.1262711996689561 0.6070553428300297
-0.003763106121084598 0.0016172461060573818 0.6839862777602375
0.11313622737864829 0.1090088465177601 0.7208581439804599
0.324400632046722 -0.014146346633453287 0.610054751155817
0.22127447747960063 0.1262711996689561 0.6070553428300297
0.1962368938789154 0.0016172461060573818 0.6839862777602375
0.31313622737864827 0.1090088465177601 0.7208581439804599
0.5244006320467219 -0.014146346633453287 0.610054751155817
0.4212744774796006 0.1262711996689561 0.6070553428300297
0.3962368938789154 0.0016172461060573818 0.6839862777602375
0.5131362273786483 0.1090088465177601 0.7208581439804599
0.724400632046722 -0.014146346633453287 0.610054751155817
0.6212744774796006 0.1262711996689561 0.6070553428300297
0.5962368938789154 0.0016172461060573818 0.6839862777602375
0.7131362273786483 0.1090088465177601 0.7208581439804599
0.924400632046722 -0.014146346633453287 0.610054751155817
0.8212744774796006 0.1262711996689561 0.6070553428300297
0.7962368938789154 0.0016172461060573818 0.6839862777602375
0.9131362273786483 0.1090088465177601 0.7208581439804599
0.12440063204672198 0.18585365336654672 0.610054751155817
0.021274477479600623 0.3262711996689561 0.6070553428300297
-0.003763106121084598 0.20161724610605739 0.6839862777602375
0.11313622737864829 0.3090088465177601 0.7208581439804599
0.324400632046722 0.18585365336654672 0.610054751155817
0.22127447747960063 0.3262711996689561 0.6070553428300297
0.1962368938789154 0.20161724610605739 0.6839862777602375
0.31313622737864827 0.3090088465177601 0.7208581439804599
0.5244006320467219 0.18585365336654672 0.610054751155817
0.4212744774796006 0.3262711996689561 0.6070553428300297
0.3962368938789154 0.20161724610605739 0.6839862777602375
0.5131362273786483 0.3090088465177601 0.7208581439804599
0.724400632046722 0.18585365336654672 0.610054751155817
0.6212744774796006 0.3262711996689561 0.6070553428300297
0.5962368938789154 0.20161724610605739 0.6839862777602375
0.7131362273786483 0.3090088465177601 0.7208581439804599
0.924400632046722 0.18585365336654672 0.610054751155817
0.8212744774796006 0.3262711996689561 0.6070553428300297
0.7962368938789154 0.20161724610605739 0.6839862777602375
0.9131362273786483 0.3090088465177601 0.7208581439804599
0.12440063204672198 0.38585365336654676 0.610054751155817
0.021274477479600623 0.5262711996689561 0.6070553428300297
-0.003763106121084598 0.4016172461060574 0.6839862777602375
0.11313622737864829 0.5090088465177601 0.7208581439804599
0.324400632046722 0.38585365336654676 0.610054751155817
0.22127447747960063 0.5262711996689561 0.6070553428300297
0.1962368938789154 0.4016172461060574 0.6839862777602375
0.31313622737864827 0.5090088465177601 0.7208581439804599
0.5244006320467219 0.38585365336654676 0.610054751155817
0.4212744774796006 0.5262711996689561 0.6070553428300297
0.3962368938789154 0.4016172461060574 0.6839862777602375
0.5131362273786483 0.5090088465177601 0.7208581439804599
0.724400632046722 0.38585365336654676 0.610054751155817
0.6212744774796006 0.5262711996689561 0.6070553428300297
0.5962368938789154 0.4016172461060574 0.6839862777602375
0.7131362273786483 0.5090088465177601 0.7208581439804599
0.924400632046722 0.38585365336654676 0.610054751155817
0.8212744774796006 0.5262711996689561 0.6070553428300297
0.7962368938789154 0.4016172461060574 0.6839862777602375
0.9131362273786483 0.5090088465177601 0.7208581439804599
0.12440063204672198 0.5858536533665467 0.610054751155817
0.021274477479600623 0.7262711996689561 0.6070553428300297
-0.003763106121084598 0.6016172461060574 0.6839862777602375
0.11313622737864829 0.7090088465177602 0.7208581439804599
0.324400632046722 0.5858536533665467 0.610054751155817
0.22127447747960063 0.7262711996689561 0.6070553428300297
0.1962368938789154 0.6016172461060574 0.6839862777602375
0.31313622737864827 0.7090088465177602 0.7208581439804599
0.5244006320467219 0.5858536533665467 0.610054751155817
0.4212744774796006 0.7262711996689561 0.6070553428300297
0.3962368938789154 0.6016172461060574 0.6839862777602375
0.5131362273786483 0.7090088465177602 0.7208581439804599
0.724400632046722 0.5858536533665467 0.610054751155817
0.6212744774796006 0.7262711996689561 0.6070553428300297
0.5962368938789154 0.6016172461060574 0.6839862777602375
0.7131362273786483 0.7090088465177602 0.7208581439804599
0.924400632046722 0.5858536533665467 0.610054751155817
0.8212744774796006 0.7262711996689561 0.6070553428300297
0.7962368938789154 0.6016172461060574 0.6839862777602375
0.9131362273786483 0.7090088465177602 0.7208581439804599
0.12440063204672198 0.7858536533665468 0.610054751155817
0.021274477479600623 0.9262711996689561 0.6070553428300297
-0.003763106121084598 0.8016172461060574 0.6839862777602375
0.11313622737864829 0.9090088465177601 0.7208581439804599
0.324400632046722 0.7858536533665468 0.610054751155817
0.22127447747960063 0.9262711996689561 0.6070553428300297
0.1962368938789154 0.8016172461060574 0.6839862777602375
0.31313622737864827 0.9090088465177601 0.7208581439804599
0.5244006320467219 0.7858536533665468 0.610054751155817
0.4212744774796006 0.9262711996689561 0.6070553428300297
0.3962368938789154 0.8016172461060574 0.6839862777602375
0.5131362273786483 0.9090088465177601 0.7208581439804599
0.724400632046722 0.7858536533665468 0.610054751155817
0.6212744774796006 0.9262711996689561 0.6070553428300297
0.5962368938789154 0.8016172461060574 0.6839862777602375
0.7131362273786483 0.9090088465177601 0.7208581439804599
0.924400632046722 0.7858536533665468 0.610054751155817
0.8212744774796006 0.9262711996689561 0.6070553428300297
0.7962368938789154 0.8016172461060574 0.6839862777602375
0.9131362273786483 0.9090088465177601 0.7208581439804599
0.12440063204672198 -0.014146346633453287 0.8100547511558172
0.021274477479600623 0.1262711996689561 0.8070553428300298
-0.003763106121084598 0.0016172461060573818 0.8839862777602374
0.11313622737864829 0.1090088465177601 0.92085814398046
0.324400632046722 -0.014146346633453287 0.8100547511558172
0.22127447747960063 0.1262711996689561 0.8070553428300298
0.1962368938789154 0.0016172461060573818 0.8839862777602374
0.31313622737864827 0.1090088465177601 0.92085814398046
0.5244006320467219 -0.014146346633453287 0.8100547511558172
0.4212744774796006 0.1262711996689561 0.8070553428300298
0.3962368938789154 0.0016172461060573818 0.8839862777602374
0.5131362273786483 0.1090088465177601 0.92085814398046
0.724400632046722 -0.014146346633453287 0.8100547511558172
0.6212744774796006 0.1262711996689561 0.8070553428300298
0.5962368938789154 0.0016172461060573818 0.8839862777602374
0.7131362273786483 0.1090088465177601 0.92085814398046
0.924400632046722 -0.014146346633453287 0.8100547511558172
0.8212744774796006 0.1262711996689561 0.8070553428300298
0.7962368938789154 0.0016172461060573818 0.8839862777602374
0.9131362273786483 0.1090088465177601 0.92085814398046
0.12440063204672198 0.18585365336654672 0.8100547511558172
0.021274477479600623 0.3262711996689561 0.8070553428300298
-0.003763106121084598 0.20161724610605739 0.8839862777602374
0.11313622737864829 0.3090088465177601 0.92085814398046
0.324400632046722 0.18585365336654672 0.8100547511558172
0.22127447747960063 0.3262711996689561 0.8070553428300298
0.1962368938789154 0.20161724610605739 0.8839862777602374
0.31313622737864827 0.3090088465177601 0.92085814398046
0.5244006320467219 0.18585365336654672 0.8100547511558172
0.4212744774796006 0.3262711996689561 0.8070553428300298
0.3962368938789154 0.20161724610605739 0.8839862777602374
0.5131362273786483 0.3090088465177601 0.92085814398046
0.724400632046722 0.18585365336654672 0.8100547511558172
0.6212744774796006 0.3262711996689561 0.8070553428300298
0.5962368938789154 0.20161724610605739 0.8839862777602374
0.7131362273786483 0.3090088465177601 0.92085814398046
0.924400632046722 0.18585365336654672 0.8100547511558172
0.8212744774796006 0.3262711996689561 0.8070553428300298
0.7962368938789154 0.20161724610605739 0.8839862777602374
0.9131362273786483 0.3090088465177601 0.92085814398046
0.12440063204672198 0.38585365336654676 0.8100547511558172
0.021274477479600623 0.5262711996689561 0.8070553428300298
-0.003763106121084598 0.4016172461060574 0.8839862777602374
0.11313622737864829 0.5090088465177601 0.92085814398046
0.324400632046722 0.38585365336654676 0.8100547511558172
0.22127447747960063 0.5262711996689561 0.8070553428300298
0.1962368938789154 0.4016172461060574 0.8839862777602374
0.31313622737864827 0.5090088465177601 0.92085814398046
0.5244006320467219 0.38585365336654676 0.8100547511558172
0.4212744774796006 0.5262711996689561 0.8070553428300298
0.3962368938789154 0.4016172461060574 0.8839862777602374
0.5131362273786483 0.5090088465177601 0.92085814398046
0.724400632046722 0.38585365336654676 0.8100547511558172
0.6212744774796006 0.5262711996689561 0.8070553428300298
0.5962368938789154 0.4016172461060574 0.8839862777602374
0.7131362273786483 0.5090088465177601 0.92085814398046
0.924400632046722 0.38585365336654676 0.8100547511558172
0.8212744774796006 0.5262711996689561 0.8070553428300298
0.7962368938789154 0.4016172461060574 0.8839862777602374
0.9131362273786483 0.5090088465177601 0.92085814398046
0.12440063204672198 0.5858536533665467 0.8100547511558172
0.021274477479600623 0.7262711996689561 0.8070553428300298
-0.003763106121084598 0.6016172461060574 0.8839862777602374
0.11313622737864829 0.7090088465177602 0.92085814398046
0.324400632046722 0.5858536533665467 0.8100547511558172
0.22127447747960063 0.7262711996689561 0.8070553428300298
0.1962368938789154 0.6016172461060574 0.8839862777602374
0.31313622737864827 0.7090088465177602 0.92085814398046
0.5244006320467219 0.5858536533665467 0.8100547511558172
0.4212744774796006 0.7262711996689561 0.8070553428300298
0.3962368938789154 0.6016172461060574 0.8839862777602374
0.5131362273786483 0.7090088465177602 0.92085814398046
0.724400632046722 0.5858536533665467 0.8100547511558172
0.6212744774796006 0.7262711996689561 0.8070553428300298
0.5962368938789154 0.6016172461060574 0.8839862777602374
0.7131362273786483 0.7090088465177602 0.92085814398046
0.924400632046722 0.5858536533665467 0.8100547511558172
0.8212744774796006 0.7262711996689561 0.8070553428300298
0.7962368938789154 0.6016172461060574 0.8839862777602374
0.9131362273786483 0.7090088465177602 0.92085814398046
0.12440063204672198 0.7858536533665468 0.8100547511558172
0.021274477479600623 0.9262711996689561 0.8070553428300298
-0.003763106121084598 0.8016172461060574 0.8839862777602374
0.11313622737864829 0.9090088465177601 0.92085814398046
0.324400632046722 0.7858536533665468 0.8100547511558172
0.22127447747960063 0.9262711996689561 0.8070553428300298
0.1962368938789154 0.8016172461060574 0.8839862777602374
0.31313622737864827 0.9090088465177601 0.92085814398046
0.5244006320467219 0.7858536533665468 0.8100547511558172
0.4212744774796006 0.9262711996689561 0.8070553428300298
0.3962368938789154 0.8016172461060574 0.8839862777602374
0.5131362273786483 0.9090088465177601 0.92085814398046
0.724400632046722 0.7858536533665468 0.8100547511558172
0.6212744774796006 0.9262711996689561 0.8070553428300298
0.5962368938789154 0.8016172461060574 0.8839862777602374
0.7131362273786483 0.9090088465177601 0.92085814398046
0.924400632046722 0.7858536533665468 0.8100547511558172
0.8212744774796006 0.9262711996689561 0.8070553428300298
0.7962368938789154 0.8016172461060574 0.8839862777602374
0.9131362273786483 0.9090088465177601 0.92085814398046
