FCC BaO
5.61604
3.0 0.0 0.0
0.0 3.0 0.0
0.0 0.0 3.0
Ba O 
108 108 
Direct
-0.18187369336633455 0.020935820032619935 0.14742029322544023
-0.039621370953498394 0.22836323267502626 0.27256318593261075
-0.014980285424273675 0.07733303117865385 0.15779437751049274
0.3774402475003496 0.2716507955830645 -0.23178378137892225
0.15145963996699877 0.020935820032619935 0.14742029322544023
0.29371196237983493 0.22836323267502626 0.27256318593261075
0.3183530479090596 0.07733303117865385 0.15779437751049274
0.710773580833683 0.2716507955830645 -0.23178378137892225
0.4847929733003321 0.020935820032619935 0.14742029322544023
0.6270452957131682 0.22836323267502626 0.27256318593261075
0.651686381242393 0.07733303117865385 0.15779437751049274
1.0441069141670163 0.2716507955830645 -0.23178378137892225
-0.18187369336633455 0.35426915336595327 0.14742029322544023
-0.039621370953498394 0.5616965660083595 0.27256318593261075
-0.014980285424273675 0.4106663645119871 0.15779437751049274
0.3774402475003496 0.6049841289163977 -0.23178378137892225
0.15145963996699877 0.35426915336595327 0.14742029322544023
0.29371196237983493 0.5616965660083595 0.27256318593261075
0.3183530479090596 0.4106663645119871 0.15779437751049274
0.710773580833683 0.6049841289163977 -0.23178378137892225
0.4847929733003321 0.35426915336595327 0.14742029322544023
0.6270452957131682 0.5616965660083595 0.27256318593261075
0.651686381242393 0.4106663645119871 0.15779437751049274
1.0441069141670163 0.6049841289163977 -0.23178378137892225
-0.18187369336633455 0.6876024866992865 0.14742029322544023
-0.039621370953498394 0.8950298993416929 0.27256318593261075
-0.014980285424273675 0.7439996978453205 0.15779437751049274
0.3774402475003496 0.9383174622497311 -0.23178378137892225
0.15145963996699877 0.6876024866992865 0.14742029322544023
0.29371196237983493 0.8950298993416929 0.27256318593261075
0.3183530479090596 0.7439996978453205 0.15779437751049274
0.710773580833683 0.9383174622497311 -0.23178378137892225
0.4847929733003321 0.6876024866992865 0.14742029322544023
0.6270452957131682 0.8950298993416929 0.27256318593261075
0.651686381242393 0.7439996978453205 0.15779437751049274
1.0441069141670163 0.9383174622497311 -0.23178378137892225
-0.18187369336633455 0.020935820032619935 0.4807536265587736
-0.039621370953498394 0.22836323267502626 0.605896519265944
-0.014980285424273675 0.07733303117865385 0.4911277108438261
0.3774402475003496 0.2716507955830645 0.10154955195441107
0.15145963996699877 0.020935820032619935 0.4807536265587736
0.29371196237983493 0.22836323267502626 0.605896519265944
0.3183530479090596 0.07733303117865385 0.4911277108438261
0.710773580833683 0.2716507955830645 0.10154955195441107
0.4847929733003321 0.020935820032619935 0.4807536265587736
0.6270452957131682 0.22836323267502626 0.605896519265944
0.651686381242393 0.07733303117865385 0.4911277108438261
1.0441069141670163 0.2716507955830645 0.10154955195441107
-0.18187369336633455 0.35426915336595327 0.4807536265587736
-0.039621370953498394 0.5616965660083595 0.605896519265944
-0.014980285424273675 0.4106663645119871 0.4911277108438261
0.3774402475003496 0.6049841289163977 0.10154955195441107
0.15145963996699877 0.35426915336595327 0.4807536265587736
0.29371196237983493 0.5616965660083595 0.605896519265944
0.3183530479090596 0.4106663645119871 0.4911277108438261
0.710773580833683 0.6049841289163977 0.10154955195441107
0.4847929733003321 0.35426915336595327 0.4807536265587736
0.6270452957131682 0.5616965660083595 0.605896519265944
0.651686381242393 0.4106663645119871 0.4911277108438261
1.0441069141670163 0.6049841289163977 0.10154955195441107
-0.18187369336633455 0.6876024866992865 0.4807536265587736
-0.039621370953498394 0.8950298993416929 0.605896519265944
-0.014980285424273675 0.7439996978453205 0.4911277108438261
0.3774402475003496 0.9383174622497311 0.10154955195441107
0.15145963996699877 0.6876024866992865 0.4807536265587736
0.29371196237983493 0.8950298993416929 0.605896519265944
0.3183530479090596 0.7439996978453205 0.4911277108438261
0.710773580833683 0.9383174622497311 0.10154955195441107
0.4847929733003321 0.6876024866992865 0.4807536265587736
0.6270452957131682 0.8950298993416929 0.605896519265944
0.651686381242393 0.7439996978453205 0.4911277108438261
1.0441069141670163 0.9383174622497311 0.10154955195441107
-0.18187369336633455 0.020935820032619935 0.8140869598921069
-0.039621370953498394 0.22836323267502626 0.9392298525992775
-0.014980285424273675 0.07733303117865385 0.8244610441771594
0.3774402475003496 0.2716507955830645 0.43488288528774444
0.15145963996699877 0.020935820032619935 0.8140869598921069
0.29371196237983493 0.22836323267502626 0.9392298525992775
0.3183530479090596 0.07733303117865385 0.8244610441771594
0.710773580833683 0.2716507955830645 0.43488288528774444
0.4847929733003321 0.020935820032619935 0.8140869598921069
0.6270452957131682 0.22836323267502626 0.9392298525992775
0.651686381242393 0.07733303117865385 0.8244610441771594
1.0441069141670163 0.2716507955830645 0.43488288528774444
-0.18187369336633455 0.35426915336595327 0.8140869598921069
-0.039621370953498394 0.5616965660083595 0.9392298525992775
-0.014980285424273675 0.4106663645119871 0.8244610441771594
0.3774402475003496 0.6049841289163977 0.43488288528774444
0.15145963996699877 0.35426915336595327 0.8140869598921069
0.29371196237983493 0.5616965660083595 0.9392298525992775
0.3183530479090596 0.4106663645119871 0.8244610441771594
0.710773580833683 0.6049841289163977 0.43488288528774444
0.4847929733003321 0.35426915336595327 0.8140869598921069
0.6270452957131682 0.5616965660083595 0.9392298525992775
0.651686381242393 0.4106663645119871 0.8244610441771594
1.0441069141670163 0.6049841289163977 0.43488288528774444
-0.18187369336633455 0.6876024866992865 0.8140869598921069
-0.039621370953498394 0.8950298993416929 0.9392298525992775
-0.014980285424273675 0.7439996978453205 0.8244610441771594
0.3774402475003496 0.9383174622497311 0.43488288528774444
0.15145963996699877 0.6876024866992865 0.8140869598921069
0.29371196237983493 0.8950298993416929 0.9392298525992775
0.3183530479090596 0.7439996978453205 0.8244610441771594
0.710773580833683 0.9383174622497311 0.43488288528774444
0.4847929733003321 0.6876024866992865 0.8140869598921069
0.6270452957131682 0.8950298993416929 0.9392298525992775
0.651686381242393 0.7439996978453205 0.8244610441771594
1.0441069141670163 0.9383174622497311 0.43488288528774444
0.1999456766072331 0.16950699990965423 0.04377440490465839
0.06178088660335538 0.16747236058558146 -0.1685823568851209
-0.09891408471164867 0.10800288599361466 0.3925029189942888
0.11233891740952014 0.14229332577650688 0.037169161630205796
0.5332790099405664 0.16950699990965423 0.04377440490465839
0.39511421993668866 0.16747236058558146 -0.1685823568851209
0.23441924862168464 0.10800288599361466 0.3925029189942888
0.4456722507428535 0.14229332577650688 0.037169161630205796
0.8666123432738997 0.16950699990965423 0.04377440490465839
0.728447553270022 0.16747236058558146 -0.1685823568851209
0.567752581955018 0.10800288599361466 0.3925029189942888
0.7790055840761868 0.14229332577650688 0.037169161630205796
0.1999456766072331 0.5028403332429875 0.04377440490465839
0.06178088660335538 0.5008056939189147 -0.1685823568851209
-0.09891408471164867 0.441336219326948 0.3925029189942888
0.11233891740952014 0.4756266591098402 0.037169161630205796
0.5332790099405664 0.5028403332429875 0.04377440490465839
0.39511421993668866 0.5008056939189147 -0.1685823568851209
0.23441924862168464 0.441336219326948 0.3925029189942888
0.4456722507428535 0.4756266591098402 0.037169161630205796
0.8666123432738997 0.5028403332429875 0.04377440490465839
0.728447553270022 0.5008056939189147 -0.1685823568851209
0.567752581955018 0.441336219326948 0.3925029189942888
0.7790055840761868 0.4756266591098402 0.037169161630205796
0.1999456766072331 0.8361736665763209 0.04377440490465839
0.06178088660335538 0.8341390272522481 -0.1685823568851209
-0.09891408471164867 0.7746695526602814 0.3925029189942888
0.11233891740952014 0.8089599924431736 0.037169161630205796
0.5332790099405664 0.8361736665763209 0.04377440490465839
0.39511421993668866 0.8341390272522481 -0.1685823568851209
0.23441924862168464 0.7746695526602814 0.3925029189942888
0.4456722507428535 0.8089599924431736 0.037169161630205796
0.8666123432738997 0.8361736665763209 0.04377440490465839
0.728447553270022 0.8341390272522481 -0.1685823568851209
0.567752581955018 0.7746695526602814 0.3925029189942888
0.7790055840761868 0.8089599924431736 0.037169161630205796
0.1999456766072331 0.16950699990965423 0.3771077382379917
0.06178088660335538 0.16747236058558146 0.1647509764482124
-0.09891408471164867 0.10800288599361466 0.7258362523276221
0.11233891740952014 0.14229332577650688 0.37050249496353915
0.5332790099405664 0.16950699990965423 0.3771077382379917
0.39511421993668866 0.16747236058558146 0.1647509764482124
0.23441924862168464 0.10800288599361466 0.7258362523276221
0.4456722507428535 0.14229332577650688 0.37050249496353915
0.8666123432738997 0.16950699990965423 0.3771077382379917
0.728447553270022 0.16747236058558146 0.1647509764482124
0.567752581955018 0.10800288599361466 0.7258362523276221
0.7790055840761868 0.14229332577650688 0.37050249496353915
0.1999456766072331 0.5028403332429875 0.3771077382379917
0.06178088660335538 0.5008056939189147 0.1647509764482124
-0.09891408471164867 0.441336219326948 0.7258362523276221
0.11233891740952014 0.4756266591098402 0.37050249496353915
0.5332790099405664 0.5028403332429875 0.3771077382379917
0.39511421993668866 0.5008056939189147 0.1647509764482124
0.23441924862168464 0.441336219326948 0.7258362523276221
0.4456722507428535 0.4756266591098402 0.37050249496353915
0.8666123432738997 0.5028403332429875 0.3771077382379917
0.728447553270022 0.5008056939189147 0.1647509764482124
0.567752581955018 0.441336219326948 0.7258362523276221
0.7790055840761868 0.4756266591098402 0.37050249496353915
0.1999456766072331 0.8361736665763209 0.3771077382379917
0.06178088660335538 0.8341390272522481 0.1647509764482124
-0.09891408471164867 0.7746695526602814 0.7258362523276221
0.11233891740952014 0.8089599924431736 0.37050249496353915
0.5332790099405664 0.8361736665763209 0.3771077382379917
0.39511421993668866 0.8341390272522481 0.1647509764482124
0.23441924862168464 0.7746695526602814 0.7258362523276221
0.4456722507428535 0.8089599924431736 0.37050249496353915
0.8666123432738997 0.8361736665763209 0.3771077382379917
0.728447553270022 0.8341390272522481 0.1647509764482124
0.567752581955018 0.7746695526602814 0.7258362523276221
0.7790055840761868 0.8089599924431736 0.37050249496353915
0.1999456766072331 0.16950699990965423 0.710441071571325
0.06178088660335538 0.16747236058558146 0.4980843097815457
-0.09891408471164867 0.10800288599361466 1.0591695856609553
0.11233891740952014 0.14229332577650688 0.7038358282968724
0.5332790099405664 0.16950699990965423 0.710441071571325
0.39511421993668866 0.16747236058558146 0.4980843097815457
0.23441924862168464 0.10800288599361466 1.0591695856609553
0.4456722507428535 0.14229332577650688 0.7038358282968724
0.8666123432738997 0.16950699990965423 0.710441071571325
0.728447553270022 0.16747236058558146 0.4980843097815457
0.567752581955018 0.10800288599361466 1.0591695856609553
0.7790055840761868 0.14229332577650688 0.7038358282968724
0.1999456766072331 0.5028403332429875 0.710441071571325
0.06178088660335538 0.5008056939189147 0.4980843097815457
-0.09891408471164867 0.441336219326948 1.0591695856609553
0.11233891740952014 0.4756266591098402 0.7038358282968724
0.5332790099405664 0.5028403332429875 0.710441071571325
0.39511421993668866 0.5008056939189147 0.4980843097815457
0.23441924862168464 0.441336219326948 1.0591695856609553
0.4456722507428535 0.4756266591098402 0.7038358282968724
0.8666123432738997 0.5028403332429875 0.710441071571325
0.728447553270022 0.5008056939189147 0.4980843097815457
0.567752581955018 0.441336219326948 1.0591695856609553
0.7790055840761868 0.4756266591098402 0.7038358282968724
0.1999456766072331 0.8361736665763209 0.710441071571325
0.06178088660335538 0.8341390272522481 0.4980843097815457
-0.09891408471164867 0.7746695526602814 1.0591695856609553
0.11233891740952014 0.8089599924431736 0.7038358282968724
0.5332790099405664 0.8361736665763209 0.710441071571325
0.39511421993668866 0.8341390272522481 0.4980843097815457
0.23441924862168464 0.7746695526602814 1.0591695856609553
0.4456722507428535 0.8089599924431736 0.7038358282968724
0.8666123432738997 0.8361736665763209 0.710441071571325
0.728447553270022 0.8341390272522481 0.4980843097815457
0.567752581955018 0.7746695526602814 1.0591695856609553
0.7790055840761868 0.8089599924431736 0.7038358282968724
