FCC BaO
3.971
5.0 0.0 0.0
0.0 5.0 0.0
0.0 0.0 5.0
Ba O 
500 500 
Direct
-0.0043549811698131565 0.00047206626014893895 -0.006732645705300303
0.007348742436851914 0.10770703961212236 0.1219691819705036
0.07551228999988197 0.00912486994037719 0.11226835101438244
0.07986114168800058 0.10800991758717216 0.009611788075351594
0.19564501883018684 0.00047206626014893895 -0.006732645705300303
0.20734874243685192 0.10770703961212236 0.1219691819705036
0.275512289999882 0.00912486994037719 0.11226835101438244
0.2798611416880006 0.10800991758717216 0.009611788075351594
0.3956450188301869 0.00047206626014893895 -0.006732645705300303
0.40734874243685193 0.10770703961212236 0.1219691819705036
0.475512289999882 0.00912486994037719 0.11226835101438244
0.47986114168800054 0.10800991758717216 0.009611788075351594
0.5956450188301868 0.00047206626014893895 -0.006732645705300303
0.607348742436852 0.10770703961212236 0.1219691819705036
0.675512289999882 0.00912486994037719 0.11226835101438244
0.6798611416880006 0.10800991758717216 0.009611788075351594
0.7956450188301869 0.00047206626014893895 -0.006732645705300303
0.807348742436852 0.10770703961212236 0.1219691819705036
0.8755122899998821 0.00912486994037719 0.11226835101438244
0.8798611416880006 0.10800991758717216 0.009611788075351594
-0.0043549811698131565 0.20047206626014896 -0.006732645705300303
0.007348742436851914 0.3077070396121224 0.1219691819705036
0.07551228999988197 0.2091248699403772 0.11226835101438244
0.07986114168800058 0.30800991758717217 0.009611788075351594
0.19564501883018684 0.20047206626014896 -0.006732645705300303
0.20734874243685192 0.3077070396121224 0.1219691819705036
0.275512289999882 0.2091248699403772 0.11226835101438244
0.2798611416880006 0.30800991758717217 0.009611788075351594
0.3956450188301869 0.20047206626014896 -0.006732645705300303
0.40734874243685193 0.3077070396121224 0.1219691819705036
0.475512289999882 0.2091248699403772 0.11226835101438244
0.47986114168800054 0.30800991758717217 0.009611788075351594
0.5956450188301868 0.20047206626014896 -0.006732645705300303
0.607348742436852 0.3077070396121224 0.1219691819705036
0.675512289999882 0.2091248699403772 0.11226835101438244
0.6798611416880006 0.30800991758717217 0.009611788075351594
0.7956450188301869 0.20047206626014896 -0.006732645705300303
0.807348742436852 0.3077070396121224 0.1219691819705036
0.8755122899998821 0.2091248699403772 0.11226835101438244
0.8798611416880006 0.30800991758717217 0.009611788075351594
-0.0043549811698131565 0.4004720662601489 -0.006732645705300303
0.007348742436851914 0.5077070396121224 0.1219691819705036
0.07551228999988197 0.40912486994037717 0.11226835101438244
0.07986114168800058 0.5080099175871722 0.009611788075351594
0.19564501883018684 0.4004720662601489 -0.006732645705300303
0.20734874243685192 0.5077070396121224 0.1219691819705036
0.275512289999882 0.40912486994037717 0.11226835101438244
0.2798611416880006 0.5080099175871722 0.009611788075351594
0.3956450188301869 0.4004720662601489 -0.006732645705300303
0.40734874243685193 0.5077070396121224 0.1219691819705036
0.475512289999882 0.40912486994037717 0.11226835101438244
0.47986114168800054 0.5080099175871722 0.009611788075351594
0.5956450188301868 0.4004720662601489 -0.006732645705300303
0.607348742436852 0.5077070396121224 0.1219691819705036
0.675512289999882 0.40912486994037717 0.11226835101438244
0.6798611416880006 0.5080099175871722 0.009611788075351594
0.7956450188301869 0.4004720662601489 -0.006732645705300303
0.807348742436852 0.5077070396121224 0.1219691819705036
0.8755122899998821 0.40912486994037717 0.11226835101438244
0.8798611416880006 0.5080099175871722 0.009611788075351594
-0.0043549811698131565 0.6004720662601489 -0.006732645705300303
0.007348742436851914 0.7077070396121224 0.1219691819705036
0.07551228999988197 0.6091248699403772 0.11226835101438244
0.07986114168800058 0.7080099175871721 0.009611788075351594
0.19564501883018684 0.6004720662601489 -0.006732645705300303
0.20734874243685192 0.7077070396121224 0.1219691819705036
0.275512289999882 0.6091248699403772 0.11226835101438244
0.2798611416880006 0.7080099175871721 0.009611788075351594
0.3956450188301869 0.6004720662601489 -0.006732645705300303
0.40734874243685193 0.7077070396121224 0.1219691819705036
0.475512289999882 0.6091248699403772 0.11226835101438244
0.47986114168800054 0.7080099175871721 0.009611788075351594
0.5956450188301868 0.6004720662601489 -0.006732645705300303
0.607348742436852 0.7077070396121224 0.1219691819705036
0.675512289999882 0.6091248699403772 0.11226835101438244
0.6798611416880006 0.7080099175871721 0.009611788075351594
0.7956450188301869 0.6004720662601489 -0.006732645705300303
0.807348742436852 0.7077070396121224 0.1219691819705036
0.8755122899998821 0.6091248699403772 0.11226835101438244
0.8798611416880006 0.7080099175871721 0.009611788075351594
-0.0043549811698131565 0.800472066260149 -0.006732645705300303
0.007348742436851914 0.9077070396121224 0.1219691819705036
0.07551228999988197 0.8091248699403772 0.11226835101438244
0.07986114168800058 0.9080099175871722 0.009611788075351594
0.19564501883018684 0.800472066260149 -0.006732645705300303
0.20734874243685192 0.9077070396121224 0.1219691819705036
0.275512289999882 0.8091248699403772 0.11226835101438244
0.2798611416880006 0.9080099175871722 0.009611788075351594
0.3956450188301869 0.800472066260149 -0.006732645705300303
0.40734874243685193 0.9077070396121224 0.1219691819705036
0.475512289999882 0.8091248699403772 0.11226835101438244
0.47986114168800054 0.9080099175871722 0.009611788075351594
0.5956450188301868 0.800472066260149 -0.006732645705300303
0.607348742436852 0.9077070396121224 0.1219691819705036
0.675512289999882 0.8091248699403772 0.11226835101438244
0.6798611416880006 0.9080099175871722 0.009611788075351594
0.7956450188301869 0.800472066260149 -0.006732645705300303
0.807348742436852 0.9077070396121224 0.1219691819705036
0.8755122899998821 0.8091248699403772 0.11226835101438244
0.8798611416880006 0.9080099175871722 0.009611788075351594
-0.0043549811698131565 0.00047206626014893895 0.1932673542946997
0.007348742436851914 0.10770703961212236 0.3219691819705036
0.07551228999988197 0.00912486994037719 0.31226835101438244
0.07986114168800058 0.10800991758717216 0.2096117880753516
0.19564501883018684 0.00047206626014893895 0.1932673542946997
0.20734874243685192 0.10770703961212236 0.3219691819705036
0.275512289999882 0.00912486994037719 0.31226835101438244
0.2798611416880006 0.10800991758717216 0.2096117880753516
0.3956450188301869 0.00047206626014893895 0.1932673542946997
0.40734874243685193 0.10770703961212236 0.3219691819705036
0.475512289999882 0.00912486994037719 0.31226835101438244
0.47986114168800054 0.10800991758717216 0.2096117880753516
0.5956450188301868 0.00047206626014893895 0.1932673542946997
0.607348742436852 0.10770703961212236 0.3219691819705036
0.675512289999882 0.00912486994037719 0.31226835101438244
0.6798611416880006 0.10800991758717216 0.2096117880753516
0.7956450188301869 0.00047206626014893895 0.1932673542946997
0.807348742436852 0.10770703961212236 0.3219691819705036
0.8755122899998821 0.00912486994037719 0.31226835101438244
0.8798611416880006 0.10800991758717216 0.2096117880753516
-0.0043549811698131565 0.20047206626014896 0.1932673542946997
0.007348742436851914 0.3077070396121224 0.3219691819705036
0.07551228999988197 0.2091248699403772 0.31226835101438244
0.07986114168800058 0.30800991758717217 0.2096117880753516
0.19564501883018684 0.20047206626014896 0.1932673542946997
0.20734874243685192 0.3077070396121224 0.3219691819705036
0.275512289999882 0.2091248699403772 0.31226835101438244
0.2798611416880006 0.30800991758717217 0.2096117880753516
0.3956450188301869 0.20047206626014896 0.1932673542946997
0.40734874243685193 0.3077070396121224 0.3219691819705036
0.475512289999882 0.2091248699403772 0.31226835101438244
0.47986114168800054 0.30800991758717217 0.2096117880753516
0.5956450188301868 0.20047206626014896 0.1932673542946997
0.607348742436852 0.3077070396121224 0.3219691819705036
0.675512289999882 0.2091248699403772 0.31226835101438244
0.6798611416880006 0.30800991758717217 0.2096117880753516
0.7956450188301869 0.20047206626014896 0.1932673542946997
0.807348742436852 0.3077070396121224 0.3219691819705036
0.8755122899998821 0.2091248699403772 0.31226835101438244
0.8798611416880006 0.30800991758717217 0.2096117880753516
-0.0043549811698131565 0.4004720662601489 0.1932673542946997
0.007348742436851914 0.5077070396121224 0.3219691819705036
0.07551228999988197 0.40912486994037717 0.31226835101438244
0.07986114168800058 0.5080099175871722 0.2096117880753516
0.19564501883018684 0.4004720662601489 0.1932673542946997
0.20734874243685192 0.5077070396121224 0.3219691819705036
0.275512289999882 0.40912486994037717 0.31226835101438244
0.2798611416880006 0.5080099175871722 0.2096117880753516
0.3956450188301869 0.4004720662601489 0.1932673542946997
0.40734874243685193 0.5077070396121224 0.3219691819705036
0.475512289999882 0.40912486994037717 0.31226835101438244
0.47986114168800054 0.5080099175871722 0.2096117880753516
0.5956450188301868 0.4004720662601489 0.1932673542946997
0.607348742436852 0.5077070396121224 0.3219691819705036
0.675512289999882 0.40912486994037717 0.31226835101438244
0.6798611416880006 0.5080099175871722 0.2096117880753516
0.7956450188301869 0.4004720662601489 0.1932673542946997
0.807348742436852 0.5077070396121224 0.3219691819705036
0.8755122899998821 0.40912486994037717 0.31226835101438244
0.8798611416880006 0.5080099175871722 0.2096117880753516
-0.0043549811698131565 0.6004720662601489 0.1932673542946997
0.007348742436851914 0.7077070396121224 0.3219691819705036
0.07551228999988197 0.6091248699403772 0.31226835101438244
0.07986114168800058 0.7080099175871721 0.2096117880753516
0.19564501883018684 0.6004720662601489 0.1932673542946997
0.20734874243685192 0.7077070396121224 0.3219691819705036
0.275512289999882 0.6091248699403772 0.31226835101438244
0.2798611416880006 0.7080099175871721 0.2096117880753516
0.3956450188301869 0.6004720662601489 0.1932673542946997
0.40734874243685193 0.7077070396121224 0.3219691819705036
0.475512289999882 0.6091248699403772 0.31226835101438244
0.47986114168800054 0.7080099175871721 0.2096117880753516
0.5956450188301868 0.6004720662601489 0.1932673542946997
0.607348742436852 0.7077070396121224 0.3219691819705036
0.675512289999882 0.6091248699403772 0.31226835101438244
0.6798611416880006 0.7080099175871721 0.2096117880753516
0.7956450188301869 0.6004720662601489 0.1932673542946997
0.807348742436852 0.7077070396121224 0.3219691819705036
0.8755122899998821 0.6091248699403772 0.31226835101438244
0.8798611416880006 0.7080099175871721 0.2096117880753516
-0.0043549811698131565 0.800472066260149 0.1932673542946997
0.007348742436851914 0.9077070396121224 0.3219691819705036
0.07551228999988197 0.8091248699403772 0.31226835101438244
0.07986114168800058 0.9080099175871722 0.2096117880753516
0.19564501883018684 0.800472066260149 0.1932673542946997
0.20734874243685192 0.9077070396121224 0.3219691819705036
0.275512289999882 0.8091248699403772 0.31226835101438244
0.2798611416880006 0.9080099175871722 0.2096117880753516
0.3956450188301869 0.800472066260149 0.1932673542946997
0.40734874243685193 0.9077070396121224 0.3219691819705036
0.475512289999882 0.8091248699403772 0.31226835101438244
0.47986114168800054 0.9080099175871722 0.2096117880753516
0.5956450188301868 0.800472066260149 0.1932673542946997
0.607348742436852 0.9077070396121224 0.3219691819705036
0.675512289999882 0.8091248699403772 0.31226835101438244
0.6798611416880006 0.9080099175871722 0.2096117880753516
0.7956450188301869 0.800472066260149 0.1932673542946997
0.807348742436852 0.9077070396121224 0.3219691819705036
0.8755122899998821 0.8091248699403772 0.31226835101438244
0.8798611416880006 0.9080099175871722 0.2096117880753516
-0.0043549811698131565 0.00047206626014893895 0.3932673542946997
0.007348742436851914 0.10770703961212236 0.5219691819705036
0.07551228999988197 0.00912486994037719 0.5122683510143825
0.07986114168800058 0.10800991758717216 0.4096117880753516
0.19564501883018684 0.00047206626014893895 0.3932673542946997
0.20734874243685192 0.10770703961212236 0.5219691819705036
0.275512289999882 0.00912486994037719 0.5122683510143825
0.2798611416880006 0.10800991758717216 0.4096117880753516
0.3956450188301869 0.00047206626014893895 0.3932673542946997
0.40734874243685193 0.10770703961212236 0.5219691819705036
0.475512289999882 0.00912486994037719 0.5122683510143825
0.47986114168800054 0.10800991758717216 0.4096117880753516
0.5956450188301868 0.00047206626014893895 0.3932673542946997
0.607348742436852 0.10770703961212236 0.5219691819705036
0.675512289999882 0.00912486994037719 0.5122683510143825
0.6798611416880006 0.10800991758717216 0.4096117880753516
0.7956450188301869 0.00047206626014893895 0.3932673542946997
0.807348742436852 0.10770703961212236 0.5219691819705036
0.8755122899998821 0.00912486994037719 0.5122683510143825
0.8798611416880006 0.10800991758717216 0.4096117880753516
-0.0043549811698131565 0.20047206626014896 0.3932673542946997
0.007348742436851914 0.3077070396121224 0.5219691819705036
0.07551228999988197 0.2091248699403772 0.5122683510143825
0.07986114168800058 0.30800991758717217 0.4096117880753516
0.19564501883018684 0.20047206626014896 0.3932673542946997
0.20734874243685192 0.3077070396121224 0.5219691819705036
0.275512289999882 0.2091248699403772 0.5122683510143825
0.2798611416880006 0.30800991758717217 0.4096117880753516
0.3956450188301869 0.20047206626014896 0.3932673542946997
0.40734874243685193 0.3077070396121224 0.5219691819705036
0.475512289999882 0.2091248699403772 0.5122683510143825
0.47986114168800054 0.30800991758717217 0.4096117880753516
0.5956450188301868 0.20047206626014896 0.3932673542946997
0.607348742436852 0.3077070396121224 0.5219691819705036
0.675512289999882 0.2091248699403772 0.5122683510143825
0.6798611416880006 0.30800991758717217 0.4096117880753516
0.7956450188301869 0.20047206626014896 0.3932673542946997
0.807348742436852 0.3077070396121224 0.5219691819705036
0.8755122899998821 0.2091248699403772 0.5122683510143825
0.8798611416880006 0.30800991758717217 0.4096117880753516
-0.0043549811698131565 0.4004720662601489 0.3932673542946997
0.007348742436851914 0.5077070396121224 0.5219691819705036
0.07551228999988197 0.40912486994037717 0.5122683510143825
0.07986114168800058 0.5080099175871722 0.4096117880753516
0.19564501883018684 0.4004720662601489 0.3932673542946997
0.20734874243685192 0.5077070396121224 0.5219691819705036
0.275512289999882 0.40912486994037717 0.5122683510143825
0.2798611416880006 0.5080099175871722 0.4096117880753516
0.3956450188301869 0.4004720662601489 0.3932673542946997
0.40734874243685193 0.5077070396121224 0.5219691819705036
0.475512289999882 0.40912486994037717 0.5122683510143825
0.47986114168800054 0.5080099175871722 0.4096117880753516
0.5956450188301868 0.4004720662601489 0.3932673542946997
0.607348742436852 0.5077070396121224 0.5219691819705036
0.675512289999882 0.40912486994037717 0.5122683510143825
0.6798611416880006 0.5080099175871722 0.4096117880753516
0.7956450188301869 0.4004720662601489 0.3932673542946997
0.807348742436852 0.5077070396121224 0.5219691819705036
0.8755122899998821 0.40912486994037717 0.5122683510143825
0.8798611416880006 0.5080099175871722 0.4096117880753516
-0.0043549811698131565 0.6004720662601489 0.3932673542946997
0.007348742436851914 0.7077070396121224 0.5219691819705036
0.07551228999988197 0.6091248699403772 0.5122683510143825
0.07986114168800058 0.7080099175871721 0.4096117880753516
0.19564501883018684 0.6004720662601489 0.3932673542946997
0.20734874243685192 0.7077070396121224 0.5219691819705036
0.275512289999882 0.6091248699403772 0.5122683510143825
0.2798611416880006 0.7080099175871721 0.4096117880753516
0.3956450188301869 0.6004720662601489 0.3932673542946997
0.40734874243685193 0.7077070396121224 0.5219691819705036
0.475512289999882 0.6091248699403772 0.5122683510143825
0.47986114168800054 0.7080099175871721 0.4096117880753516
0.5956450188301868 0.6004720662601489 0.3932673542946997
0.607348742436852 0.7077070396121224 0.5219691819705036
0.675512289999882 0.6091248699403772 0.5122683510143825
0.6798611416880006 0.7080099175871721 0.4096117880753516
0.7956450188301869 0.6004720662601489 0.3932673542946997
0.807348742436852 0.7077070396121224 0.5219691819705036
0.8755122899998821 0.6091248699403772 0.5122683510143825
0.8798611416880006 0.7080099175871721 0.4096117880753516
-0.0043549811698131565 0.800472066260149 0.3932673542946997
0.007348742436851914 0.9077070396121224 0.5219691819705036
0.07551228999988197 0.8091248699403772 0.5122683510143825
0.07986114168800058 0.9080099175871722 0.4096117880753516
0.19564501883018684 0.800472066260149 0.3932673542946997
0.20734874243685192 0.9077070396121224 0.5219691819705036
0.275512289999882 0.8091248699403772 0.5122683510143825
0.2798611416880006 0.9080099175871722 0.4096117880753516
0.3956450188301869 0.800472066260149 0.3932673542946997
0.40734874243685193 0.9077070396121224 0.5219691819705036
0.475512289999882 0.8091248699403772 0.5122683510143825
0.47986114168800054 0.9080099175871722 0.4096117880753516
0.5956450188301868 0.800472066260149 0.3932673542946997
0.607348742436852 0.9077070396121224 0.5219691819705036
0.675512289999882 0.8091248699403772 0.5122683510143825
0.6798611416880006 0.9080099175871722 0.4096117880753516
0.7956450188301869 0.800472066260149 0.3932673542946997
0.807348742436852 0.9077070396121224 0.5219691819705036
0.8755122899998821 0.8091248699403772 0.5122683510143825
0.8798611416880006 0.9080099175871722 0.4096117880753516
-0.0043549811698131565 0.00047206626014893895 0.5932673542946997
0.007348742436851914 0.10770703961212236 0.7219691819705036
0.07551228999988197 0.00912486994037719 0.7122683510143825
0.07986114168800058 0.10800991758717216 0.6096117880753517
0.19564501883018684 0.00047206626014893895 0.5932673542946997
0.20734874243685192 0.10770703961212236 0.7219691819705036
0.275512289999882 0.00912486994037719 0.7122683510143825
0.2798611416880006 0.10800991758717216 0.6096117880753517
0.3956450188301869 0.00047206626014893895 0.5932673542946997
0.40734874243685193 0.10770703961212236 0.7219691819705036
0.475512289999882 0.00912486994037719 0.7122683510143825
0.47986114168800054 0.10800991758717216 0.6096117880753517
0.5956450188301868 0.00047206626014893895 0.5932673542946997
0.607348742436852 0.10770703961212236 0.7219691819705036
0.675512289999882 0.00912486994037719 0.7122683510143825
0.6798611416880006 0.10800991758717216 0.6096117880753517
0.7956450188301869 0.00047206626014893895 0.5932673542946997
0.807348742436852 0.10770703961212236 0.7219691819705036
0.8755122899998821 0.00912486994037719 0.7122683510143825
0.8798611416880006 0.10800991758717216 0.6096117880753517
-0.0043549811698131565 0.20047206626014896 0.5932673542946997
0.007348742436851914 0.3077070396121224 0.7219691819705036
0.07551228999988197 0.2091248699403772 0.7122683510143825
0.07986114168800058 0.30800991758717217 0.6096117880753517
0.19564501883018684 0.20047206626014896 0.5932673542946997
0.20734874243685192 0.3077070396121224 0.7219691819705036
0.275512289999882 0.2091248699403772 0.7122683510143825
0.2798611416880006 0.30800991758717217 0.6096117880753517
0.3956450188301869 0.20047206626014896 0.5932673542946997
0.40734874243685193 0.3077070396121224 0.7219691819705036
0.475512289999882 0.2091248699403772 0.7122683510143825
0.47986114168800054 0.30800991758717217 0.6096117880753517
0.5956450188301868 0.20047206626014896 0.5932673542946997
0.607348742436852 0.3077070396121224 0.7219691819705036
0.675512289999882 0.2091248699403772 0.7122683510143825
0.6798611416880006 0.30800991758717217 0.6096117880753517
0.7956450188301869 0.20047206626014896 0.5932673542946997
0.807348742436852 0.3077070396121224 0.7219691819705036
0.8755122899998821 0.2091248699403772 0.7122683510143825
0.8798611416880006 0.30800991758717217 0.6096117880753517
-0.0043549811698131565 0.4004720662601489 0.5932673542946997
0.007348742436851914 0.5077070396121224 0.7219691819705036
0.07551228999988197 0.40912486994037717 0.7122683510143825
0.07986114168800058 0.5080099175871722 0.6096117880753517
0.19564501883018684 0.4004720662601489 0.5932673542946997
0.20734874243685192 0.5077070396121224 0.7219691819705036
0.275512289999882 0.40912486994037717 0.7122683510143825
0.2798611416880006 0.5080099175871722 0.6096117880753517
0.3956450188301869 0.4004720662601489 0.5932673542946997
0.40734874243685193 0.5077070396121224 0.7219691819705036
0.475512289999882 0.40912486994037717 0.7122683510143825
0.47986114168800054 0.5080099175871722 0.6096117880753517
0.5956450188301868 0.4004720662601489 0.5932673542946997
0.607348742436852 0.5077070396121224 0.7219691819705036
0.675512289999882 0.40912486994037717 0.7122683510143825
0.6798611416880006 0.5080099175871722 0.6096117880753517
0.7956450188301869 0.4004720662601489 0.5932673542946997
0.807348742436852 0.5077070396121224 0.7219691819705036
0.8755122899998821 0.40912486994037717 0.7122683510143825
0.8798611416880006 0.5080099175871722 0.6096117880753517
-0.0043549811698131565 0.6004720662601489 0.5932673542946997
0.007348742436851914 0.7077070396121224 0.7219691819705036
0.07551228999988197 0.6091248699403772 0.7122683510143825
0.07986114168800058 0.7080099175871721 0.6096117880753517
0.19564501883018684 0.6004720662601489 0.5932673542946997
0.20734874243685192 0.7077070396121224 0.7219691819705036
0.275512289999882 0.6091248699403772 0.7122683510143825
0.2798611416880006 0.7080099175871721 0.6096117880753517
0.3956450188301869 0.6004720662601489 0.5932673542946997
0.40734874243685193 0.7077070396121224 0.7219691819705036
0.475512289999882 0.6091248699403772 0.7122683510143825
0.47986114168800054 0.7080099175871721 0.6096117880753517
0.5956450188301868 0.6004720662601489 0.5932673542946997
0.607348742436852 0.7077070396121224 0.7219691819705036
0.675512289999882 0.6091248699403772 0.7122683510143825
0.6798611416880006 0.7080099175871721 0.6096117880753517
0.7956450188301869 0.6004720662601489 0.5932673542946997
0.807348742436852 0.7077070396121224 0.7219691819705036
0.8755122899998821 0.6091248699403772 0.7122683510143825
0.8798611416880006 0.7080099175871721 0.6096117880753517
-0.0043549811698131565 0.800472066260149 0.5932673542946997
0.007348742436851914 0.9077070396121224 0.7219691819705036
0.07551228999988197 0.8091248699403772 0.7122683510143825
0.07986114168800058 0.9080099175871722 0.6096117880753517
0.19564501883018684 0.800472066260149 0.5932673542946997
0.20734874243685192 0.9077070396121224 0.7219691819705036
0.275512289999882 0.8091248699403772 0.7122683510143825
0.2798611416880006 0.9080099175871722 0.6096117880753517
0.3956450188301869 0.800472066260149 0.5932673542946997
0.40734874243685193 0.9077070396121224 0.7219691819705036
0.475512289999882 0.8091248699403772 0.7122683510143825
0.47986114168800054 0.9080099175871722 0.6096117880753517
0.5956450188301868 0.800472066260149 0.5932673542946997
0.607348742436852 0.9077070396121224 0.7219691819705036
0.675512289999882 0.8091248699403772 0.7122683510143825
0.6798611416880006 0.9080099175871722 0.6096117880753517
0.7956450188301869 0.800472066260149 0.5932673542946997
0.807348742436852 0.9077070396121224 0.7219691819705036
0.8755122899998821 0.8091248699403772 0.7122683510143825
0.8798611416880006 0.9080099175871722 0.6096117880753517
-0.0043549811698131565 0.00047206626014893895 0.7932673542946997
0.007348742436851914 0.10770703961212236 0.9219691819705036
0.07551228999988197 0.00912486994037719 0.9122683510143825
0.07986114168800058 0.10800991758717216 0.8096117880753516
0.19564501883018684 0.00047206626014893895 0.7932673542946997
0.20734874243685192 0.10770703961212236 0.9219691819705036
0.275512289999882 0.00912486994037719 0.9122683510143825
0.2798611416880006 0.10800991758717216 0.8096117880753516
0.3956450188301869 0.00047206626014893895 0.7932673542946997
0.40734874243685193 0.10770703961212236 0.9219691819705036
0.475512289999882 0.00912486994037719 0.9122683510143825
0.47986114168800054 0.10800991758717216 0.8096117880753516
0.5956450188301868 0.00047206626014893895 0.7932673542946997
0.607348742436852 0.10770703961212236 0.9219691819705036
0.675512289999882 0.00912486994037719 0.9122683510143825
0.6798611416880006 0.10800991758717216 0.8096117880753516
0.7956450188301869 0.00047206626014893895 0.7932673542946997
0.807348742436852 0.10770703961212236 0.9219691819705036
0.8755122899998821 0.00912486994037719 0.9122683510143825
0.8798611416880006 0.10800991758717216 0.8096117880753516
-0.0043549811698131565 0.20047206626014896 0.7932673542946997
0.007348742436851914 0.3077070396121224 0.9219691819705036
0.07551228999988197 0.2091248699403772 0.9122683510143825
0.07986114168800058 0.30800991758717217 0.8096117880753516
0.19564501883018684 0.20047206626014896 0.7932673542946997
0.20734874243685192 0.3077070396121224 0.9219691819705036
0.275512289999882 0.2091248699403772 0.9122683510143825
0.2798611416880006 0.30800991758717217 0.8096117880753516
0.3956450188301869 0.20047206626014896 0.7932673542946997
0.40734874243685193 0.3077070396121224 0.9219691819705036
0.475512289999882 0.2091248699403772 0.9122683510143825
0.47986114168800054 0.30800991758717217 0.8096117880753516
0.5956450188301868 0.20047206626014896 0.7932673542946997
0.607348742436852 0.3077070396121224 0.9219691819705036
0.675512289999882 0.2091248699403772 0.9122683510143825
0.6798611416880006 0.30800991758717217 0.8096117880753516
0.7956450188301869 0.20047206626014896 0.7932673542946997
0.807348742436852 0.3077070396121224 0.9219691819705036
0.8755122899998821 0.2091248699403772 0.9122683510143825
0.8798611416880006 0.30800991758717217 0.8096117880753516
-0.0043549811698131565 0.4004720662601489 0.7932673542946997
0.007348742436851914 0.5077070396121224 0.9219691819705036
0.07551228999988197 0.40912486994037717 0.9122683510143825
0.07986114168800058 0.5080099175871722 0.8096117880753516
0.19564501883018684 0.4004720662601489 0.7932673542946997
0.20734874243685192 0.5077070396121224 0.9219691819705036
0.275512289999882 0.40912486994037717 0.9122683510143825
0.2798611416880006 0.5080099175871722 0.8096117880753516
0.3956450188301869 0.4004720662601489 0.7932673542946997
0.40734874243685193 0.5077070396121224 0.9219691819705036
0.475512289999882 0.40912486994037717 0.9122683510143825
0.47986114168800054 0.5080099175871722 0.8096117880753516
0.5956450188301868 0.4004720662601489 0.7932673542946997
0.607348742436852 0.5077070396121224 0.9219691819705036
0.675512289999882 0.40912486994037717 0.9122683510143825
0.6798611416880006 0.5080099175871722 0.8096117880753516
0.7956450188301869 0.4004720662601489 0.7932673542946997
0.807348742436852 0.5077070396121224 0.9219691819705036
0.8755122899998821 0.40912486994037717 0.9122683510143825
0.8798611416880006 0.5080099175871722 0.8096117880753516
-0.0043549811698131565 0.6004720662601489 0.7932673542946997
0.007348742436851914 0.7077070396121224 0.9219691819705036
0.07551228999988197 0.6091248699403772 0.9122683510143825
0.07986114168800058 0.7080099175871721 0.8096117880753516
0.19564501883018684 0.6004720662601489 0.7932673542946997
0.20734874243685192 0.7077070396121224 0.9219691819705036
0.275512289999882 0.6091248699403772 0.9122683510143825
0.2798611416880006 0.7080099175871721 0.8096117880753516
0.3956450188301869 0.6004720662601489 0.7932673542946997
0.40734874243685193 0.7077070396121224 0.9219691819705036
0.475512289999882 0.6091248699403772 0.9122683510143825
0.47986114168800054 0.7080099175871721 0.8096117880753516
0.5956450188301868 0.6004720662601489 0.7932673542946997
0.607348742436852 0.7077070396121224 0.9219691819705036
0.675512289999882 0.6091248699403772 0.9122683510143825
0.6798611416880006 0.7080099175871721 0.8096117880753516
0.7956450188301869 0.6004720662601489 0.7932673542946997
0.807348742436852 0.7077070396121224 0.9219691819705036
0.8755122899998821 0.6091248699403772 0.9122683510143825
0.8798611416880006 0.7080099175871721 0.8096117880753516
-0.0043549811698131565 0.800472066260149 0.7932673542946997
0.007348742436851914 0.9077070396121224 0.9219691819705036
0.07551228999988197 0.8091248699403772 0.9122683510143825
0.07986114168800058 0.9080099175871722 0.8096117880753516
0.19564501883018684 0.800472066260149 0.7932673542946997
0.20734874243685192 0.9077070396121224 0.9219691819705036
0.275512289999882 0.8091248699403772 0.9122683510143825
0.2798611416880006 0.9080099175871722 0.8096117880753516
0.3956450188301869 0.800472066260149 0.7932673542946997
0.40734874243685193 0.9077070396121224 0.9219691819705036
0.475512289999882 0.8091248699403772 0.9122683510143825
0.47986114168800054 0.9080099175871722 0.8096117880753516
0.5956450188301868 0.800472066260149 0.7932673542946997
0.607348742436852 0.9077070396121224 0.9219691819705036
0.675512289999882 0.8091248699403772 0.9122683510143825
0.6798611416880006 0.9080099175871722 0.8096117880753516
0.7956450188301869 0.800472066260149 0.7932673542946997
0.807348742436852 0.9077070396121224 0.9219691819705036
0.8755122899998821 0.8091248699403772 0.9122683510143825
0.8798611416880006 0.9080099175871722 0.8096117880753516
0.07961529640561744 0.005787985607935662 -0.00998180701547843
-0.020837978094158174 0.07045398011453134 0.003601855809017942
0.0034421478499867247 -0.0165925823803559 0.10386683986129526
0.1008879784738282 0.12301061644522822 0.12435978105734323
0.2796152964056175 0.005787985607935662 -0.00998180701547843
0.17916202190584185 0.07045398011453134 0.003601855809017942
0.20344214784998674 -0.0165925823803559 0.10386683986129526
0.3008879784738282 0.12301061644522822 0.12435978105734323
0.4796152964056175 0.005787985607935662 -0.00998180701547843
0.3791620219058418 0.07045398011453134 0.003601855809017942
0.4034421478499868 -0.0165925823803559 0.10386683986129526
0.5008879784738282 0.12301061644522822 0.12435978105734323
0.6796152964056175 0.005787985607935662 -0.00998180701547843
0.5791620219058419 0.07045398011453134 0.003601855809017942
0.6034421478499867 -0.0165925823803559 0.10386683986129526
0.7008879784738282 0.12301061644522822 0.12435978105734323
0.8796152964056175 0.005787985607935662 -0.00998180701547843
0.7791620219058419 0.07045398011453134 0.003601855809017942
0.8034421478499868 -0.0165925823803559 0.10386683986129526
0.9008879784738282 0.12301061644522822 0.12435978105734323
0.07961529640561744 0.20578798560793565 -0.00998180701547843
-0.020837978094158174 0.2704539801145313 0.003601855809017942
0.0034421478499867247 0.1834074176196441 0.10386683986129526
0.1008879784738282 0.3230106164452282 0.12435978105734323
0.2796152964056175 0.20578798560793565 -0.00998180701547843
0.17916202190584185 0.2704539801145313 0.003601855809017942
0.20344214784998674 0.1834074176196441 0.10386683986129526
0.3008879784738282 0.3230106164452282 0.12435978105734323
0.4796152964056175 0.20578798560793565 -0.00998180701547843
0.3791620219058418 0.2704539801145313 0.003601855809017942
0.4034421478499868 0.1834074176196441 0.10386683986129526
0.5008879784738282 0.3230106164452282 0.12435978105734323
0.6796152964056175 0.20578798560793565 -0.00998180701547843
0.5791620219058419 0.2704539801145313 0.003601855809017942
0.6034421478499867 0.1834074176196441 0.10386683986129526
0.7008879784738282 0.3230106164452282 0.12435978105734323
0.8796152964056175 0.20578798560793565 -0.00998180701547843
0.7791620219058419 0.2704539801145313 0.003601855809017942
0.8034421478499868 0.1834074176196441 0.10386683986129526
0.9008879784738282 0.3230106164452282 0.12435978105734323
0.07961529640561744 0.40578798560793566 -0.00998180701547843
-0.020837978094158174 0.4704539801145313 0.003601855809017942
0.0034421478499867247 0.38340741761964414 0.10386683986129526
0.1008879784738282 0.5230106164452283 0.12435978105734323
0.2796152964056175 0.40578798560793566 -0.00998180701547843
0.17916202190584185 0.4704539801145313 0.003601855809017942
0.20344214784998674 0.38340741761964414 0.10386683986129526
0.3008879784738282 0.5230106164452283 0.12435978105734323
0.4796152964056175 0.40578798560793566 -0.00998180701547843
0.3791620219058418 0.4704539801145313 0.003601855809017942
0.4034421478499868 0.38340741761964414 0.10386683986129526
0.5008879784738282 0.5230106164452283 0.12435978105734323
0.6796152964056175 0.40578798560793566 -0.00998180701547843
0.5791620219058419 0.4704539801145313 0.003601855809017942
0.6034421478499867 0.38340741761964414 0.10386683986129526
0.7008879784738282 0.5230106164452283 0.12435978105734323
0.8796152964056175 0.40578798560793566 -0.00998180701547843
0.7791620219058419 0.4704539801145313 0.003601855809017942
0.8034421478499868 0.38340741761964414 0.10386683986129526
0.9008879784738282 0.5230106164452283 0.12435978105734323
0.07961529640561744 0.6057879856079357 -0.00998180701547843
-0.020837978094158174 0.6704539801145314 0.003601855809017942
0.0034421478499867247 0.5834074176196441 0.10386683986129526
0.1008879784738282 0.7230106164452282 0.12435978105734323
0.2796152964056175 0.6057879856079357 -0.00998180701547843
0.17916202190584185 0.6704539801145314 0.003601855809017942
0.20344214784998674 0.5834074176196441 0.10386683986129526
0.3008879784738282 0.7230106164452282 0.12435978105734323
0.4796152964056175 0.6057879856079357 -0.00998180701547843
0.3791620219058418 0.6704539801145314 0.003601855809017942
0.4034421478499868 0.5834074176196441 0.10386683986129526
0.5008879784738282 0.7230106164452282 0.12435978105734323
0.6796152964056175 0.6057879856079357 -0.00998180701547843
0.5791620219058419 0.6704539801145314 0.003601855809017942
0.6034421478499867 0.5834074176196441 0.10386683986129526
0.7008879784738282 0.7230106164452282 0.12435978105734323
0.8796152964056175 0.6057879856079357 -0.00998180701547843
0.7791620219058419 0.6704539801145314 0.003601855809017942
0.8034421478499868 0.5834074176196441 0.10386683986129526
0.9008879784738282 0.7230106164452282 0.12435978105734323
0.07961529640561744 0.8057879856079357 -0.00998180701547843
-0.020837978094158174 0.8704539801145315 0.003601855809017942
0.0034421478499867247 0.7834074176196442 0.10386683986129526
0.1008879784738282 0.9230106164452283 0.12435978105734323
0.2796152964056175 0.8057879856079357 -0.00998180701547843
0.17916202190584185 0.8704539801145315 0.003601855809017942
0.20344214784998674 0.7834074176196442 0.10386683986129526
0.3008879784738282 0.9230106164452283 0.12435978105734323
0.4796152964056175 0.8057879856079357 -0.00998180701547843
0.3791620219058418 0.8704539801145315 0.003601855809017942
0.4034421478499868 0.7834074176196442 0.10386683986129526
0.5008879784738282 0.9230106164452283 0.12435978105734323
0.6796152964056175 0.8057879856079357 -0.00998180701547843
0.5791620219058419 0.8704539801145315 0.003601855809017942
0.6034421478499867 0.7834074176196442 0.10386683986129526
0.7008879784738282 0.9230106164452283 0.12435978105734323
0.8796152964056175 0.8057879856079357 -0.00998180701547843
0.7791620219058419 0.8704539801145315 0.003601855809017942
0.8034421478499868 0.7834074176196442 0.10386683986129526
0.9008879784738282 0.9230106164452283 0.12435978105734323
0.07961529640561744 0.005787985607935662 0.19001819298452158
-0.020837978094158174 0.07045398011453134 0.20360185580901793
0.0034421478499867247 -0.0165925823803559 0.3038668398612953
0.1008879784738282 0.12301061644522822 0.32435978105734325
0.2796152964056175 0.005787985607935662 0.19001819298452158
0.17916202190584185 0.07045398011453134 0.20360185580901793
0.20344214784998674 -0.0165925823803559 0.3038668398612953
0.3008879784738282 0.12301061644522822 0.32435978105734325
0.4796152964056175 0.005787985607935662 0.19001819298452158
0.3791620219058418 0.07045398011453134 0.20360185580901793
0.4034421478499868 -0.0165925823803559 0.3038668398612953
0.5008879784738282 0.12301061644522822 0.32435978105734325
0.6796152964056175 0.005787985607935662 0.19001819298452158
0.5791620219058419 0.07045398011453134 0.20360185580901793
0.6034421478499867 -0.0165925823803559 0.3038668398612953
0.7008879784738282 0.12301061644522822 0.32435978105734325
0.8796152964056175 0.005787985607935662 0.19001819298452158
0.7791620219058419 0.07045398011453134 0.20360185580901793
0.8034421478499868 -0.0165925823803559 0.3038668398612953
0.9008879784738282 0.12301061644522822 0.32435978105734325
0.07961529640561744 0.20578798560793565 0.19001819298452158
-0.020837978094158174 0.2704539801145313 0.20360185580901793
0.0034421478499867247 0.1834074176196441 0.3038668398612953
0.1008879784738282 0.3230106164452282 0.32435978105734325
0.2796152964056175 0.20578798560793565 0.19001819298452158
0.17916202190584185 0.2704539801145313 0.20360185580901793
0.20344214784998674 0.1834074176196441 0.3038668398612953
0.3008879784738282 0.3230106164452282 0.32435978105734325
0.4796152964056175 0.20578798560793565 0.19001819298452158
0.3791620219058418 0.2704539801145313 0.20360185580901793
0.4034421478499868 0.1834074176196441 0.3038668398612953
0.5008879784738282 0.3230106164452282 0.32435978105734325
0.6796152964056175 0.20578798560793565 0.19001819298452158
0.5791620219058419 0.2704539801145313 0.20360185580901793
0.6034421478499867 0.1834074176196441 0.3038668398612953
0.7008879784738282 0.3230106164452282 0.32435978105734325
0.8796152964056175 0.20578798560793565 0.19001819298452158
0.7791620219058419 0.2704539801145313 0.20360185580901793
0.8034421478499868 0.1834074176196441 0.3038668398612953
0.9008879784738282 0.3230106164452282 0.32435978105734325
0.07961529640561744 0.40578798560793566 0.19001819298452158
-0.020837978094158174 0.4704539801145313 0.20360185580901793
0.0034421478499867247 0.38340741761964414 0.3038668398612953
0.1008879784738282 0.5230106164452283 0.32435978105734325
0.2796152964056175 0.40578798560793566 0.19001819298452158
0.17916202190584185 0.4704539801145313 0.20360185580901793
0.20344214784998674 0.38340741761964414 0.3038668398612953
0.3008879784738282 0.5230106164452283 0.32435978105734325
0.4796152964056175 0.40578798560793566 0.19001819298452158
0.3791620219058418 0.4704539801145313 0.20360185580901793
0.4034421478499868 0.38340741761964414 0.3038668398612953
0.5008879784738282 0.5230106164452283 0.32435978105734325
0.6796152964056175 0.40578798560793566 0.19001819298452158
0.5791620219058419 0.4704539801145313 0.20360185580901793
0.6034421478499867 0.38340741761964414 0.3038668398612953
0.7008879784738282 0.5230106164452283 0.32435978105734325
0.8796152964056175 0.40578798560793566 0.19001819298452158
0.7791620219058419 0.4704539801145313 0.20360185580901793
0.8034421478499868 0.38340741761964414 0.3038668398612953
0.9008879784738282 0.5230106164452283 0.32435978105734325
0.07961529640561744 0.6057879856079357 0.19001819298452158
-0.020837978094158174 0.6704539801145314 0.20360185580901793
0.0034421478499867247 0.5834074176196441 0.3038668398612953
0.1008879784738282 0.7230106164452282 0.32435978105734325
0.2796152964056175 0.6057879856079357 0.19001819298452158
0.17916202190584185 0.6704539801145314 0.20360185580901793
0.20344214784998674 0.5834074176196441 0.3038668398612953
0.3008879784738282 0.7230106164452282 0.32435978105734325
0.4796152964056175 0.6057879856079357 0.19001819298452158
0.3791620219058418 0.6704539801145314 0.20360185580901793
0.4034421478499868 0.5834074176196441 0.3038668398612953
0.5008879784738282 0.7230106164452282 0.32435978105734325
0.6796152964056175 0.6057879856079357 0.19001819298452158
0.5791620219058419 0.6704539801145314 0.20360185580901793
0.6034421478499867 0.5834074176196441 0.3038668398612953
0.7008879784738282 0.7230106164452282 0.32435978105734325
0.8796152964056175 0.6057879856079357 0.19001819298452158
0.7791620219058419 0.6704539801145314 0.20360185580901793
0.8034421478499868 0.5834074176196441 0.3038668398612953
0.9008879784738282 0.7230106164452282 0.32435978105734325
0.07961529640561744 0.8057879856079357 0.19001819298452158
-0.020837978094158174 0.8704539801145315 0.20360185580901793
0.0034421478499867247 0.7834074176196442 0.3038668398612953
0.1008879784738282 0.9230106164452283 0.32435978105734325
0.2796152964056175 0.8057879856079357 0.19001819298452158
0.17916202190584185 0.8704539801145315 0.20360185580901793
0.20344214784998674 0.7834074176196442 0.3038668398612953
0.3008879784738282 0.9230106164452283 0.32435978105734325
0.4796152964056175 0.8057879856079357 0.19001819298452158
0.3791620219058418 0.8704539801145315 0.20360185580901793
0.4034421478499868 0.7834074176196442 0.3038668398612953
0.5008879784738282 0.9230106164452283 0.32435978105734325
0.6796152964056175 0.8057879856079357 0.19001819298452158
0.5791620219058419 0.8704539801145315 0.20360185580901793
0.6034421478499867 0.7834074176196442 0.3038668398612953
0.7008879784738282 0.9230106164452283 0.32435978105734325
0.8796152964056175 0.8057879856079357 0.19001819298452158
0.7791620219058419 0.8704539801145315 0.20360185580901793
0.8034421478499868 0.7834074176196442 0.3038668398612953
0.9008879784738282 0.9230106164452283 0.32435978105734325
0.07961529640561744 0.005787985607935662 0.3900181929845216
-0.020837978094158174 0.07045398011453134 0.403601855809018
0.0034421478499867247 -0.0165925823803559 0.5038668398612953
0.1008879784738282 0.12301061644522822 0.5243597810573432
0.2796152964056175 0.005787985607935662 0.3900181929845216
0.17916202190584185 0.07045398011453134 0.403601855809018
0.20344214784998674 -0.0165925823803559 0.5038668398612953
0.3008879784738282 0.12301061644522822 0.5243597810573432
0.4796152964056175 0.005787985607935662 0.3900181929845216
0.3791620219058418 0.07045398011453134 0.403601855809018
0.4034421478499868 -0.0165925823803559 0.5038668398612953
0.5008879784738282 0.12301061644522822 0.5243597810573432
0.6796152964056175 0.005787985607935662 0.3900181929845216
0.5791620219058419 0.07045398011453134 0.403601855809018
0.6034421478499867 -0.0165925823803559 0.5038668398612953
0.7008879784738282 0.12301061644522822 0.5243597810573432
0.8796152964056175 0.005787985607935662 0.3900181929845216
0.7791620219058419 0.07045398011453134 0.403601855809018
0.8034421478499868 -0.0165925823803559 0.5038668398612953
0.9008879784738282 0.12301061644522822 0.5243597810573432
0.07961529640561744 0.20578798560793565 0.3900181929845216
-0.020837978094158174 0.2704539801145313 0.403601855809018
0.0034421478499867247 0.1834074176196441 0.5038668398612953
0.1008879784738282 0.3230106164452282 0.5243597810573432
0.2796152964056175 0.20578798560793565 0.3900181929845216
0.17916202190584185 0.2704539801145313 0.403601855809018
0.20344214784998674 0.1834074176196441 0.5038668398612953
0.3008879784738282 0.3230106164452282 0.5243597810573432
0.4796152964056175 0.20578798560793565 0.3900181929845216
0.3791620219058418 0.2704539801145313 0.403601855809018
0.4034421478499868 0.1834074176196441 0.5038668398612953
0.5008879784738282 0.3230106164452282 0.5243597810573432
0.6796152964056175 0.20578798560793565 0.3900181929845216
0.5791620219058419 0.2704539801145313 0.403601855809018
0.6034421478499867 0.1834074176196441 0.5038668398612953
0.7008879784738282 0.3230106164452282 0.5243597810573432
0.8796152964056175 0.20578798560793565 0.3900181929845216
0.7791620219058419 0.2704539801145313 0.403601855809018
0.8034421478499868 0.1834074176196441 0.5038668398612953
0.9008879784738282 0.3230106164452282 0.5243597810573432
0.07961529640561744 0.40578798560793566 0.3900181929845216
-0.020837978094158174 0.4704539801145313 0.403601855809018
0.0034421478499867247 0.38340741761964414 0.5038668398612953
0.1008879784738282 0.5230106164452283 0.5243597810573432
0.2796152964056175 0.40578798560793566 0.3900181929845216
0.17916202190584185 0.4704539801145313 0.403601855809018
0.20344214784998674 0.38340741761964414 0.5038668398612953
0.3008879784738282 0.5230106164452283 0.5243597810573432
0.4796152964056175 0.40578798560793566 0.3900181929845216
0.3791620219058418 0.4704539801145313 0.403601855809018
0.4034421478499868 0.38340741761964414 0.5038668398612953
0.5008879784738282 0.5230106164452283 0.5243597810573432
0.6796152964056175 0.40578798560793566 0.3900181929845216
0.5791620219058419 0.4704539801145313 0.403601855809018
0.6034421478499867 0.38340741761964414 0.5038668398612953
0.7008879784738282 0.5230106164452283 0.5243597810573432
0.8796152964056175 0.40578798560793566 0.3900181929845216
0.7791620219058419 0.4704539801145313 0.403601855809018
0.8034421478499868 0.38340741761964414 0.5038668398612953
0.9008879784738282 0.5230106164452283 0.5243597810573432
0.07961529640561744 0.6057879856079357 0.3900181929845216
-0.020837978094158174 0.6704539801145314 0.403601855809018
0.0034421478499867247 0.5834074176196441 0.5038668398612953
0.1008879784738282 0.7230106164452282 0.5243597810573432
0.2796152964056175 0.6057879856079357 0.3900181929845216
0.17916202190584185 0.6704539801145314 0.403601855809018
0.20344214784998674 0.5834074176196441 0.5038668398612953
0.3008879784738282 0.7230106164452282 0.5243597810573432
0.4796152964056175 0.6057879856079357 0.3900181929845216
0.3791620219058418 0.6704539801145314 0.403601855809018
0.4034421478499868 0.5834074176196441 0.5038668398612953
0.5008879784738282 0.7230106164452282 0.5243597810573432
0.6796152964056175 0.6057879856079357 0.3900181929845216
0.5791620219058419 0.6704539801145314 0.403601855809018
0.6034421478499867 0.5834074176196441 0.5038668398612953
0.7008879784738282 0.7230106164452282 0.5243597810573432
0.8796152964056175 0.6057879856079357 0.3900181929845216
0.7791620219058419 0.6704539801145314 0.403601855809018
0.8034421478499868 0.5834074176196441 0.5038668398612953
0.9008879784738282 0.7230106164452282 0.5243597810573432
0.07961529640561744 0.8057879856079357 0.3900181929845216
-0.020837978094158174 0.8704539801145315 0.403601855809018
0.0034421478499867247 0.7834074176196442 0.5038668398612953
0.1008879784738282 0.9230106164452283 0.5243597810573432
0.2796152964056175 0.8057879856079357 0.3900181929845216
0.17916202190584185 0.8704539801145315 0.403601855809018
0.20344214784998674 0.7834074176196442 0.5038668398612953
0.3008879784738282 0.9230106164452283 0.5243597810573432
0.4796152964056175 0.8057879856079357 0.3900181929845216
0.3791620219058418 0.8704539801145315 0.403601855809018
0.4034421478499868 0.7834074176196442 0.5038668398612953
0.5008879784738282 0.9230106164452283 0.5243597810573432
0.6796152964056175 0.8057879856079357 0.3900181929845216
0.5791620219058419 0.8704539801145315 0.403601855809018
0.6034421478499867 0.7834074176196442 0.5038668398612953
0.7008879784738282 0.9230106164452283 0.5243597810573432
0.8796152964056175 0.8057879856079357 0.3900181929845216
0.7791620219058419 0.8704539801145315 0.403601855809018
0.8034421478499868 0.7834074176196442 0.5038668398612953
0.9008879784738282 0.9230106164452283 0.5243597810573432
0.07961529640561744 0.005787985607935662 0.5900181929845216
-0.020837978094158174 0.07045398011453134 0.603601855809018
0.0034421478499867247 -0.0165925823803559 0.7038668398612953
0.1008879784738282 0.12301061644522822 0.7243597810573432
0.2796152964056175 0.005787985607935662 0.5900181929845216
0.17916202190584185 0.07045398011453134 0.603601855809018
0.20344214784998674 -0.0165925823803559 0.7038668398612953
0.3008879784738282 0.12301061644522822 0.7243597810573432
0.4796152964056175 0.005787985607935662 0.5900181929845216
0.3791620219058418 0.07045398011453134 0.603601855809018
0.4034421478499868 -0.0165925823803559 0.7038668398612953
0.5008879784738282 0.12301061644522822 0.7243597810573432
0.6796152964056175 0.005787985607935662 0.5900181929845216
0.5791620219058419 0.07045398011453134 0.603601855809018
0.6034421478499867 -0.0165925823803559 0.7038668398612953
0.7008879784738282 0.12301061644522822 0.7243597810573432
0.8796152964056175 0.005787985607935662 0.5900181929845216
0.7791620219058419 0.07045398011453134 0.603601855809018
0.8034421478499868 -0.0165925823803559 0.7038668398612953
0.9008879784738282 0.12301061644522822 0.7243597810573432
0.07961529640561744 0.20578798560793565 0.5900181929845216
-0.020837978094158174 0.2704539801145313 0.603601855809018
0.0034421478499867247 0.1834074176196441 0.7038668398612953
0.1008879784738282 0.3230106164452282 0.7243597810573432
0.2796152964056175 0.20578798560793565 0.5900181929845216
0.17916202190584185 0.2704539801145313 0.603601855809018
0.20344214784998674 0.1834074176196441 0.7038668398612953
0.3008879784738282 0.3230106164452282 0.7243597810573432
0.4796152964056175 0.20578798560793565 0.5900181929845216
0.3791620219058418 0.2704539801145313 0.603601855809018
0.4034421478499868 0.1834074176196441 0.7038668398612953
0.5008879784738282 0.3230106164452282 0.7243597810573432
0.6796152964056175 0.20578798560793565 0.5900181929845216
0.5791620219058419 0.2704539801145313 0.603601855809018
0.6034421478499867 0.1834074176196441 0.7038668398612953
0.7008879784738282 0.3230106164452282 0.7243597810573432
0.8796152964056175 0.20578798560793565 0.5900181929845216
0.7791620219058419 0.2704539801145313 0.603601855809018
0.8034421478499868 0.1834074176196441 0.7038668398612953
0.9008879784738282 0.3230106164452282 0.7243597810573432
0.07961529640561744 0.40578798560793566 0.5900181929845216
-0.020837978094158174 0.4704539801145313 0.603601855809018
0.0034421478499867247 0.38340741761964414 0.7038668398612953
0.1008879784738282 0.5230106164452283 0.7243597810573432
0.2796152964056175 0.40578798560793566 0.5900181929845216
0.17916202190584185 0.4704539801145313 0.603601855809018
0.20344214784998674 0.38340741761964414 0.7038668398612953
0.3008879784738282 0.5230106164452283 0.7243597810573432
0.4796152964056175 0.40578798560793566 0.5900181929845216
0.3791620219058418 0.4704539801145313 0.603601855809018
0.4034421478499868 0.38340741761964414 0.7038668398612953
0.5008879784738282 0.5230106164452283 0.7243597810573432
0.6796152964056175 0.40578798560793566 0.5900181929845216
0.5791620219058419 0.4704539801145313 0.603601855809018
0.6034421478499867 0.38340741761964414 0.7038668398612953
0.7008879784738282 0.5230106164452283 0.7243597810573432
0.8796152964056175 0.40578798560793566 0.5900181929845216
0.7791620219058419 0.4704539801145313 0.603601855809018
0.8034421478499868 0.38340741761964414 0.7038668398612953
0.9008879784738282 0.5230106164452283 0.7243597810573432
0.07961529640561744 0.6057879856079357 0.5900181929845216
-0.020837978094158174 0.6704539801145314 0.603601855809018
0.0034421478499867247 0.5834074176196441 0.7038668398612953
0.1008879784738282 0.7230106164452282 0.7243597810573432
0.2796152964056175 0.6057879856079357 0.5900181929845216
0.17916202190584185 0.6704539801145314 0.603601855809018
0.20344214784998674 0.5834074176196441 0.7038668398612953
0.3008879784738282 0.7230106164452282 0.7243597810573432
0.4796152964056175 0.6057879856079357 0.5900181929845216
0.3791620219058418 0.6704539801145314 0.603601855809018
0.4034421478499868 0.5834074176196441 0.7038668398612953
0.5008879784738282 0.7230106164452282 0.7243597810573432
0.6796152964056175 0.6057879856079357 0.5900181929845216
0.5791620219058419 0.6704539801145314 0.603601855809018
0.6034421478499867 0.5834074176196441 0.7038668398612953
0.7008879784738282 0.7230106164452282 0.7243597810573432
0.8796152964056175 0.6057879856079357 0.5900181929845216
0.7791620219058419 0.6704539801145314 0.603601855809018
0.8034421478499868 0.5834074176196441 0.7038668398612953
0.9008879784738282 0.7230106164452282 0.7243597810573432
0.07961529640561744 0.8057879856079357 0.5900181929845216
-0.020837978094158174 0.8704539801145315 0.603601855809018
0.0034421478499867247 0.7834074176196442 0.7038668398612953
0.1008879784738282 0.9230106164452283 0.7243597810573432
0.2796152964056175 0.8057879856079357 0.5900181929845216
0.17916202190584185 0.8704539801145315 0.603601855809018
0.20344214784998674 0.7834074176196442 0.7038668398612953
0.3008879784738282 0.9230106164452283 0.7243597810573432
0.4796152964056175 0.8057879856079357 0.5900181929845216
0.3791620219058418 0.8704539801145315 0.603601855809018
0.4034421478499868 0.7834074176196442 0.7038668398612953
0.5008879784738282 0.9230106164452283 0.7243597810573432
0.6796152964056175 0.8057879856079357 0.5900181929845216
0.5791620219058419 0.8704539801145315 0.603601855809018
0.6034421478499867 0.7834074176196442 0.7038668398612953
0.7008879784738282 0.9230106164452283 0.7243597810573432
0.8796152964056175 0.8057879856079357 0.5900181929845216
0.7791620219058419 0.8704539801145315 0.603601855809018
0.8034421478499868 0.7834074176196442 0.7038668398612953
0.9008879784738282 0.9230106164452283 0.7243597810573432
0.07961529640561744 0.005787985607935662 0.7900181929845216
-0.020837978094158174 0.07045398011453134 0.8036018558090179
0.0034421478499867247 -0.0165925823803559 0.9038668398612952
0.1008879784738282 0.12301061644522822 0.9243597810573432
0.2796152964056175 0.005787985607935662 0.7900181929845216
0.17916202190584185 0.07045398011453134 0.8036018558090179
0.20344214784998674 -0.0165925823803559 0.9038668398612952
0.3008879784738282 0.12301061644522822 0.9243597810573432
0.4796152964056175 0.005787985607935662 0.7900181929845216
0.3791620219058418 0.07045398011453134 0.8036018558090179
0.4034421478499868 -0.0165925823803559 0.9038668398612952
0.5008879784738282 0.12301061644522822 0.9243597810573432
0.6796152964056175 0.005787985607935662 0.7900181929845216
0.5791620219058419 0.07045398011453134 0.8036018558090179
0.6034421478499867 -0.0165925823803559 0.9038668398612952
0.7008879784738282 0.12301061644522822 0.9243597810573432
0.8796152964056175 0.005787985607935662 0.7900181929845216
0.7791620219058419 0.07045398011453134 0.8036018558090179
0.8034421478499868 -0.0165925823803559 0.9038668398612952
0.9008879784738282 0.12301061644522822 0.9243597810573432
0.07961529640561744 0.20578798560793565 0.7900181929845216
-0.020837978094158174 0.2704539801145313 0.8036018558090179
0.0034421478499867247 0.1834074176196441 0.9038668398612952
0.1008879784738282 0.3230106164452282 0.9243597810573432
0.2796152964056175 0.20578798560793565 0.7900181929845216
0.17916202190584185 0.2704539801145313 0.8036018558090179
0.20344214784998674 0.1834074176196441 0.9038668398612952
0.3008879784738282 0.3230106164452282 0.9243597810573432
0.4796152964056175 0.20578798560793565 0.7900181929845216
0.3791620219058418 0.2704539801145313 0.8036018558090179
0.4034421478499868 0.1834074176196441 0.9038668398612952
0.5008879784738282 0.3230106164452282 0.9243597810573432
0.6796152964056175 0.20578798560793565 0.7900181929845216
0.5791620219058419 0.2704539801145313 0.8036018558090179
0.6034421478499867 0.1834074176196441 0.9038668398612952
0.7008879784738282 0.3230106164452282 0.9243597810573432
0.8796152964056175 0.20578798560793565 0.7900181929845216
0.7791620219058419 0.2704539801145313 0.8036018558090179
0.8034421478499868 0.1834074176196441 0.9038668398612952
0.9008879784738282 0.3230106164452282 0.9243597810573432
0.07961529640561744 0.40578798560793566 0.7900181929845216
-0.020837978094158174 0.4704539801145313 0.8036018558090179
0.0034421478499867247 0.38340741761964414 0.9038668398612952
0.1008879784738282 0.5230106164452283 0.9243597810573432
0.2796152964056175 0.40578798560793566 0.7900181929845216
0.17916202190584185 0.4704539801145313 0.8036018558090179
0.20344214784998674 0.38340741761964414 0.9038668398612952
0.3008879784738282 0.5230106164452283 0.9243597810573432
0.4796152964056175 0.40578798560793566 0.7900181929845216
0.3791620219058418 0.4704539801145313 0.8036018558090179
0.4034421478499868 0.38340741761964414 0.9038668398612952
0.5008879784738282 0.5230106164452283 0.9243597810573432
0.6796152964056175 0.40578798560793566 0.7900181929845216
0.5791620219058419 0.4704539801145313 0.8036018558090179
0.6034421478499867 0.38340741761964414 0.9038668398612952
0.7008879784738282 0.5230106164452283 0.9243597810573432
0.8796152964056175 0.40578798560793566 0.7900181929845216
0.7791620219058419 0.4704539801145313 0.8036018558090179
0.8034421478499868 0.38340741761964414 0.9038668398612952
0.9008879784738282 0.5230106164452283 0.9243597810573432
0.07961529640561744 0.6057879856079357 0.7900181929845216
-0.020837978094158174 0.6704539801145314 0.8036018558090179
0.0034421478499867247 0.5834074176196441 0.9038668398612952
0.1008879784738282 0.7230106164452282 0.9243597810573432
0.2796152964056175 0.6057879856079357 0.7900181929845216
0.17916202190584185 0.6704539801145314 0.8036018558090179
0.20344214784998674 0.5834074176196441 0.9038668398612952
0.3008879784738282 0.7230106164452282 0.9243597810573432
0.4796152964056175 0.6057879856079357 0.7900181929845216
0.3791620219058418 0.6704539801145314 0.8036018558090179
0.4034421478499868 0.5834074176196441 0.9038668398612952
0.5008879784738282 0.7230106164452282 0.9243597810573432
0.6796152964056175 0.6057879856079357 0.7900181929845216
0.5791620219058419 0.6704539801145314 0.8036018558090179
0.6034421478499867 0.5834074176196441 0.9038668398612952
0.7008879784738282 0.7230106164452282 0.9243597810573432
0.8796152964056175 0.6057879856079357 0.7900181929845216
0.7791620219058419 0.6704539801145314 0.8036018558090179
0.8034421478499868 0.5834074176196441 0.9038668398612952
0.9008879784738282 0.7230106164452282 0.9243597810573432
0.07961529640561744 0.8057879856079357 0.7900181929845216
-0.020837978094158174 0.8704539801145315 0.8036018558090179
0.0034421478499867247 0.7834074176196442 0.9038668398612952
0.1008879784738282 0.9230106164452283 0.9243597810573432
0.2796152964056175 0.8057879856079357 0.7900181929845216
0.17916202190584185 0.8704539801145315 0.8036018558090179
0.20344214784998674 0.7834074176196442 0.9038668398612952
0.3008879784738282 0.9230106164452283 0.9243597810573432
0.4796152964056175 0.8057879856079357 0.7900181929845216
0.3791620219058418 0.8704539801145315 0.8036018558090179
0.4034421478499868 0.7834074176196442 0.9038668398612952
0.5008879784738282 0.9230106164452283 0.9243597810573432
0.6796152964056175 0.8057879856079357 0.7900181929845216
0.5791620219058419 0.8704539801145315 0.8036018558090179
0.6034421478499867 0.7834074176196442 0.9038668398612952
0.7008879784738282 0.9230106164452283 0.9243597810573432
0.8796152964056175 0.8057879856079357 0.7900181929845216
0.7791620219058419 0.8704539801145315 0.8036018558090179
0.8034421478499868 0.7834074176196442 0.9038668398612952
0.9008879784738282 0.9230106164452283 0.9243597810573432
