FCC BaO
5.61604
3.0 0.0 0.0
0.0 3.0 0.0
0.0 0.0 3.0
Ba O 
108 108 
Direct
0.3668084252224025 -0.03140590053949192 0.3932830070841412
-0.4959901006005339 -1.0569822233469504 -0.47587521155428353
0.8988611303887157 -0.5834420058258605 0.3440900044116513
0.1718040981987829 0.26950459283183037 -1.0377851447039008
0.7001417585557359 -0.03140590053949192 0.3932830070841412
-0.16265676726720057 -1.0569822233469504 -0.47587521155428353
1.232194463722049 -0.5834420058258605 0.3440900044116513
0.5051374315321162 0.26950459283183037 -1.0377851447039008
1.0334750918890692 -0.03140590053949192 0.3932830070841412
0.17067656606613274 -1.0569822233469504 -0.47587521155428353
1.5655277970553823 -0.5834420058258605 0.3440900044116513
0.8384707648654495 0.26950459283183037 -1.0377851447039008
0.3668084252224025 0.3019274327938414 0.3932830070841412
-0.4959901006005339 -0.723648890013617 -0.47587521155428353
0.8988611303887157 -0.2501086724925272 0.3440900044116513
0.1718040981987829 0.6028379261651637 -1.0377851447039008
0.7001417585557359 0.3019274327938414 0.3932830070841412
-0.16265676726720057 -0.723648890013617 -0.47587521155428353
1.232194463722049 -0.2501086724925272 0.3440900044116513
0.5051374315321162 0.6028379261651637 -1.0377851447039008
1.0334750918890692 0.3019274327938414 0.3932830070841412
0.17067656606613274 -0.723648890013617 -0.47587521155428353
1.5655277970553823 -0.2501086724925272 0.3440900044116513
0.8384707648654495 0.6028379261651637 -1.0377851447039008
0.3668084252224025 0.6352607661271747 0.3932830070841412
-0.4959901006005339 -0.39031555668028367 -0.47587521155428353
0.8988611303887157 0.08322466084080611 0.3440900044116513
0.1718040981987829 0.936171259498497 -1.0377851447039008
0.7001417585557359 0.6352607661271747 0.3932830070841412
-0.16265676726720057 -0.39031555668028367 -0.47587521155428353
1.232194463722049 0.08322466084080611 0.3440900044116513
0.5051374315321162 0.936171259498497 -1.0377851447039008
1.0334750918890692 0.6352607661271747 0.3932830070841412
0.17067656606613274 -0.39031555668028367 -0.47587521155428353
1.5655277970553823 0.08322466084080611 0.3440900044116513
0.8384707648654495 0.936171259498497 -1.0377851447039008
0.3668084252224025 -0.03140590053949192 0.7266163404174746
-0.4959901006005339 -1.0569822233469504 -0.1425418782209502
0.8988611303887157 -0.5834420058258605 0.6774233377449846
0.1718040981987829 0.26950459283183037 -0.7044518113705674
0.7001417585557359 -0.03140590053949192 0.7266163404174746
-0.16265676726720057 -1.0569822233469504 -0.1425418782209502
1.232194463722049 -0.5834420058258605 0.6774233377449846
0.5051374315321162 0.26950459283183037 -0.7044518113705674
1.0334750918890692 -0.03140590053949192 0.7266163404174746
0.17067656606613274 -1.0569822233469504 -0.1425418782209502
1.5655277970553823 -0.5834420058258605 0.6774233377449846
0.8384707648654495 0.26950459283183037 -0.7044518113705674
0.3668084252224025 0.3019274327938414 0.7266163404174746
-0.4959901006005339 -0.723648890013617 -0.1425418782209502
0.8988611303887157 -0.2501086724925272 0.6774233377449846
0.1718040981987829 0.6028379261651637 -0.7044518113705674
0.7001417585557359 0.3019274327938414 0.7266163404174746
-0.16265676726720057 -0.723648890013617 -0.1425418782209502
1.232194463722049 -0.2501086724925272 0.6774233377449846
0.5051374315321162 0.6028379261651637 -0.7044518113705674
1.0334750918890692 0.3019274327938414 0.7266163404174746
0.17067656606613274 -0.723648890013617 -0.1425418782209502
1.5655277970553823 -0.2501086724925272 0.6774233377449846
0.8384707648654495 0.6028379261651637 -0.7044518113705674
0.3668084252224025 0.6352607661271747 0.7266163404174746
-0.4959901006005339 -0.39031555668028367 -0.1425418782209502
0.8988611303887157 0.08322466084080611 0.6774233377449846
0.1718040981987829 0.936171259498497 -0.7044518113705674
0.7001417585557359 0.6352607661271747 0.7266163404174746
-0.16265676726720057 -0.39031555668028367 -0.1425418782209502
1.232194463722049 0.08322466084080611 0.6774233377449846
0.5051374315321162 0.936171259498497 -0.7044518113705674
1.0334750918890692 0.6352607661271747 0.7266163404174746
0.17067656606613274 -0.39031555668028367 -0.1425418782209502
1.5655277970553823 0.08322466084080611 0.6774233377449846
0.8384707648654495 0.936171259498497 -0.7044518113705674
0.3668084252224025 -0.03140590053949192 1.0599496737508078
-0.4959901006005339 -1.0569822233469504 0.1907914551123831
0.8988611303887157 -0.5834420058258605 1.010756671078318
0.1718040981987829 0.26950459283183037 -0.37111847803723413
0.7001417585557359 -0.03140590053949192 1.0599496737508078
-0.16265676726720057 -1.0569822233469504 0.1907914551123831
1.232194463722049 -0.5834420058258605 1.010756671078318
0.5051374315321162 0.26950459283183037 -0.37111847803723413
1.0334750918890692 -0.03140590053949192 1.0599496737508078
0.17067656606613274 -1.0569822233469504 0.1907914551123831
1.5655277970553823 -0.5834420058258605 1.010756671078318
0.8384707648654495 0.26950459283183037 -0.37111847803723413
0.3668084252224025 0.3019274327938414 1.0599496737508078
-0.4959901006005339 -0.723648890013617 0.1907914551123831
0.8988611303887157 -0.2501086724925272 1.010756671078318
0.1718040981987829 0.6028379261651637 -0.37111847803723413
0.7001417585557359 0.3019274327938414 1.0599496737508078
-0.16265676726720057 -0.723648890013617 0.1907914551123831
1.232194463722049 -0.2501086724925272 1.010756671078318
0.5051374315321162 0.6028379261651637 -0.37111847803723413
1.0334750918890692 0.3019274327938414 1.0599496737508078
0.17067656606613274 -0.723648890013617 0.1907914551123831
1.5655277970553823 -0.2501086724925272 1.010756671078318
0.8384707648654495 0.6028379261651637 -0.37111847803723413
0.3668084252224025 0.6352607661271747 1.0599496737508078
-0.4959901006005339 -0.39031555668028367 0.1907914551123831
0.8988611303887157 0.08322466084080611 1.010756671078318
0.1718040981987829 0.936171259498497 -0.37111847803723413
0.7001417585557359 0.6352607661271747 1.0599496737508078
-0.16265676726720057 -0.39031555668028367 0.1907914551123831
1.232194463722049 0.08322466084080611 1.010756671078318
0.5051374315321162 0.936171259498497 -0.37111847803723413
1.0334750918890692 0.6352607661271747 1.0599496737508078
0.17067656606613274 -0.39031555668028367 0.1907914551123831
1.5655277970553823 0.08322466084080611 1.010756671078318
0.8384707648654495 0.936171259498497 -0.37111847803723413
-0.37881565025606634 -0.7487966597985848 0.20706672752390246
-0.40948214412909867 -0.7145219263664364 -0.020611440806440597
0.7177763318140631 -0.31999979671361867 -0.4160498374699362
0.5109406355234989 0.823529927761905 0.5804236289617489
-0.04548231692273304 -0.7487966597985848 0.20706672752390246
-0.07614881079576537 -0.7145219263664364 -0.020611440806440597
1.0511096651473963 -0.31999979671361867 -0.4160498374699362
0.8442739688568324 0.823529927761905 0.5804236289617489
0.2878510164106003 -0.7487966597985848 0.20706672752390246
0.25718452253756796 -0.7145219263664364 -0.020611440806440597
1.3844429984807296 -0.31999979671361867 -0.4160498374699362
1.1776073021901656 0.823529927761905 0.5804236289617489
-0.37881565025606634 -0.41546332646525147 0.20706672752390246
-0.40948214412909867 -0.38118859303310304 -0.020611440806440597
0.7177763318140631 0.013333536619714629 -0.4160498374699362
0.5109406355234989 1.1568632610952383 0.5804236289617489
-0.04548231692273304 -0.41546332646525147 0.20706672752390246
-0.07614881079576537 -0.38118859303310304 -0.020611440806440597
1.0511096651473963 0.013333536619714629 -0.4160498374699362
0.8442739688568324 1.1568632610952383 0.5804236289617489
0.2878510164106003 -0.41546332646525147 0.20706672752390246
0.25718452253756796 -0.38118859303310304 -0.020611440806440597
1.3844429984807296 0.013333536619714629 -0.4160498374699362
1.1776073021901656 1.1568632610952383 0.5804236289617489
-0.37881565025606634 -0.08212999313191816 0.20706672752390246
-0.40948214412909867 -0.04785525969976974 -0.020611440806440597
0.7177763318140631 0.34666686995304796 -0.4160498374699362
0.5109406355234989 1.4901965944285718 0.5804236289617489
-0.04548231692273304 -0.08212999313191816 0.20706672752390246
-0.07614881079576537 -0.04785525969976974 -0.020611440806440597
1.0511096651473963 0.34666686995304796 -0.4160498374699362
0.8442739688568324 1.4901965944285718 0.5804236289617489
0.2878510164106003 -0.08212999313191816 0.20706672752390246
0.25718452253756796 -0.04785525969976974 -0.020611440806440597
1.3844429984807296 0.34666686995304796 -0.4160498374699362
1.1776073021901656 1.4901965944285718 0.5804236289617489
-0.37881565025606634 -0.7487966597985848 0.5404000608572358
-0.40948214412909867 -0.7145219263664364 0.3127218925268927
0.7177763318140631 -0.31999979671361867 -0.08271650413660284
0.5109406355234989 0.823529927761905 0.9137569622950823
-0.04548231692273304 -0.7487966597985848 0.5404000608572358
-0.07614881079576537 -0.7145219263664364 0.3127218925268927
1.0511096651473963 -0.31999979671361867 -0.08271650413660284
0.8442739688568324 0.823529927761905 0.9137569622950823
0.2878510164106003 -0.7487966597985848 0.5404000608572358
0.25718452253756796 -0.7145219263664364 0.3127218925268927
1.3844429984807296 -0.31999979671361867 -0.08271650413660284
1.1776073021901656 0.823529927761905 0.9137569622950823
-0.37881565025606634 -0.41546332646525147 0.5404000608572358
-0.40948214412909867 -0.38118859303310304 0.3127218925268927
0.7177763318140631 0.013333536619714629 -0.08271650413660284
0.5109406355234989 1.1568632610952383 0.9137569622950823
-0.04548231692273304 -0.41546332646525147 0.5404000608572358
-0.07614881079576537 -0.38118859303310304 0.3127218925268927
1.0511096651473963 0.013333536619714629 -0.08271650413660284
0.8442739688568324 1.1568632610952383 0.9137569622950823
0.2878510164106003 -0.41546332646525147 0.5404000608572358
0.25718452253756796 -0.38118859303310304 0.3127218925268927
1.3844429984807296 0.013333536619714629 -0.08271650413660284
1.1776073021901656 1.1568632610952383 0.9137569622950823
-0.37881565025606634 -0.08212999313191816 0.5404000608572358
-0.40948214412909867 -0.04785525969976974 0.3127218925268927
0.7177763318140631 0.34666686995304796 -0.08271650413660284
0.5109406355234989 1.4901965944285718 0.9137569622950823
-0.04548231692273304 -0.08212999313191816 0.5404000608572358
-0.07614881079576537 -0.04785525969976974 0.3127218925268927
1.0511096651473963 0.34666686995304796 -0.08271650413660284
0.8442739688568324 1.4901965944285718 0.9137569622950823
0.2878510164106003 -0.08212999313191816 0.5404000608572358
0.25718452253756796 -0.04785525969976974 0.3127218925268927
1.3844429984807296 0.34666686995304796 -0.08271650413660284
1.1776073021901656 1.4901965944285718 0.9137569622950823
-0.37881565025606634 -0.7487966597985848 0.8737333941905692
-0.40948214412909867 -0.7145219263664364 0.646055225860226
0.7177763318140631 -0.31999979671361867 0.25061682919673045
0.5109406355234989 0.823529927761905 1.2470902956284156
-0.04548231692273304 -0.7487966597985848 0.8737333941905692
-0.07614881079576537 -0.7145219263664364 0.646055225860226
1.0511096651473963 -0.31999979671361867 0.25061682919673045
0.8442739688568324 0.823529927761905 1.2470902956284156
0.2878510164106003 -0.7487966597985848 0.8737333941905692
0.25718452253756796 -0.7145219263664364 0.646055225860226
1.3844429984807296 -0.31999979671361867 0.25061682919673045
1.1776073021901656 0.823529927761905 1.2470902956284156
-0.37881565025606634 -0.41546332646525147 0.8737333941905692
-0.40948214412909867 -0.38118859303310304 0.646055225860226
0.7177763318140631 0.013333536619714629 0.25061682919673045
0.5109406355234989 1.1568632610952383 1.2470902956284156
-0.04548231692273304 -0.41546332646525147 0.8737333941905692
-0.07614881079576537 -0.38118859303310304 0.646055225860226
1.0511096651473963 0.013333536619714629 0.25061682919673045
0.8442739688568324 1.1568632610952383 1.2470902956284156
0.2878510164106003 -0.41546332646525147 0.8737333941905692
0.25718452253756796 -0.38118859303310304 0.646055225860226
1.3844429984807296 0.013333536619714629 0.25061682919673045
1.1776073021901656 1.1568632610952383 1.2470902956284156
-0.37881565025606634 -0.08212999313191816 0.8737333941905692
-0.40948214412909867 -0.04785525969976974 0.646055225860226
0.7177763318140631 0.34666686995304796 0.25061682919673045
0.5109406355234989 1.4901965944285718 1.2470902956284156
-0.04548231692273304 -0.08212999313191816 0.8737333941905692
-0.07614881079576537 -0.04785525969976974 0.646055225860226
1.0511096651473963 0.34666686995304796 0.25061682919673045
0.8442739688568324 1.4901965944285718 1.2470902956284156
0.2878510164106003 -0.08212999313191816 0.8737333941905692
0.25718452253756796 -0.04785525969976974 0.646055225860226
1.3844429984807296 0.34666686995304796 0.25061682919673045
1.1776073021901656 1.4901965944285718 1.2470902956284156
