FCC BaO
3.971
5.0 0.0 0.0
0.0 5.0 0.0
0.0 0.0 5.0
Ba O 
500 500 
Direct
-0.005958031938656543 0.014150202201108065 -0.022178903667606505
-0.008748228518671122 0.10509779828074398 0.08557063657474717
0.08666106582894845 -0.02459429579117116 0.11223902718850959
0.07255660932629437 0.12034839429008218 -0.012738836793424253
0.19404196806134347 0.014150202201108065 -0.022178903667606505
0.19125177148132888 0.10509779828074398 0.08557063657474717
0.28666106582894846 -0.02459429579117116 0.11223902718850959
0.2725566093262944 0.12034839429008218 -0.012738836793424253
0.39404196806134345 0.014150202201108065 -0.022178903667606505
0.3912517714813289 0.10509779828074398 0.08557063657474717
0.4866610658289485 -0.02459429579117116 0.11223902718850959
0.4725566093262944 0.12034839429008218 -0.012738836793424253
0.5940419680613435 0.014150202201108065 -0.022178903667606505
0.5912517714813289 0.10509779828074398 0.08557063657474717
0.6866610658289485 -0.02459429579117116 0.11223902718850959
0.6725566093262945 0.12034839429008218 -0.012738836793424253
0.7940419680613435 0.014150202201108065 -0.022178903667606505
0.791251771481329 0.10509779828074398 0.08557063657474717
0.8866610658289485 -0.02459429579117116 0.11223902718850959
0.8725566093262945 0.12034839429008218 -0.012738836793424253
-0.005958031938656543 0.21415020220110806 -0.022178903667606505
-0.008748228518671122 0.30509779828074396 0.08557063657474717
0.08666106582894845 0.17540570420882884 0.11223902718850959
0.07255660932629437 0.3203483942900822 -0.012738836793424253
0.19404196806134347 0.21415020220110806 -0.022178903667606505
0.19125177148132888 0.30509779828074396 0.08557063657474717
0.28666106582894846 0.17540570420882884 0.11223902718850959
0.2725566093262944 0.3203483942900822 -0.012738836793424253
0.39404196806134345 0.21415020220110806 -0.022178903667606505
0.3912517714813289 0.30509779828074396 0.08557063657474717
0.4866610658289485 0.17540570420882884 0.11223902718850959
0.4725566093262944 0.3203483942900822 -0.012738836793424253
0.5940419680613435 0.21415020220110806 -0.022178903667606505
0.5912517714813289 0.30509779828074396 0.08557063657474717
0.6866610658289485 0.17540570420882884 0.11223902718850959
0.6725566093262945 0.3203483942900822 -0.012738836793424253
0.7940419680613435 0.21415020220110806 -0.022178903667606505
0.791251771481329 0.30509779828074396 0.08557063657474717
0.8866610658289485 0.17540570420882884 0.11223902718850959
0.8725566093262945 0.3203483942900822 -0.012738836793424253
-0.005958031938656543 0.4141502022011081 -0.022178903667606505
-0.008748228518671122 0.505097798280744 0.08557063657474717
0.08666106582894845 0.37540570420882885 0.11223902718850959
0.07255660932629437 0.5203483942900822 -0.012738836793424253
0.19404196806134347 0.4141502022011081 -0.022178903667606505
0.19125177148132888 0.505097798280744 0.08557063657474717
0.28666106582894846 0.37540570420882885 0.11223902718850959
0.2725566093262944 0.5203483942900822 -0.012738836793424253
0.39404196806134345 0.4141502022011081 -0.022178903667606505
0.3912517714813289 0.505097798280744 0.08557063657474717
0.4866610658289485 0.37540570420882885 0.11223902718850959
0.4725566093262944 0.5203483942900822 -0.012738836793424253
0.5940419680613435 0.4141502022011081 -0.022178903667606505
0.5912517714813289 0.505097798280744 0.08557063657474717
0.6866610658289485 0.37540570420882885 0.11223902718850959
0.6725566093262945 0.5203483942900822 -0.012738836793424253
0.7940419680613435 0.4141502022011081 -0.022178903667606505
0.791251771481329 0.505097798280744 0.08557063657474717
0.8866610658289485 0.37540570420882885 0.11223902718850959
0.8725566093262945 0.5203483942900822 -0.012738836793424253
-0.005958031938656543 0.6141502022011082 -0.022178903667606505
-0.008748228518671122 0.705097798280744 0.08557063657474717
0.08666106582894845 0.5754057042088289 0.11223902718850959
0.07255660932629437 0.7203483942900822 -0.012738836793424253
0.19404196806134347 0.6141502022011082 -0.022178903667606505
0.19125177148132888 0.705097798280744 0.08557063657474717
0.28666106582894846 0.5754057042088289 0.11223902718850959
0.2725566093262944 0.7203483942900822 -0.012738836793424253
0.39404196806134345 0.6141502022011082 -0.022178903667606505
0.3912517714813289 0.705097798280744 0.08557063657474717
0.4866610658289485 0.5754057042088289 0.11223902718850959
0.4725566093262944 0.7203483942900822 -0.012738836793424253
0.5940419680613435 0.6141502022011082 -0.022178903667606505
0.5912517714813289 0.705097798280744 0.08557063657474717
0.6866610658289485 0.5754057042088289 0.11223902718850959
0.6725566093262945 0.7203483942900822 -0.012738836793424253
0.7940419680613435 0.6141502022011082 -0.022178903667606505
0.791251771481329 0.705097798280744 0.08557063657474717
0.8866610658289485 0.5754057042088289 0.11223902718850959
0.8725566093262945 0.7203483942900822 -0.012738836793424253
-0.005958031938656543 0.814150202201108 -0.022178903667606505
-0.008748228518671122 0.9050977982807441 0.08557063657474717
0.08666106582894845 0.7754057042088289 0.11223902718850959
0.07255660932629437 0.9203483942900821 -0.012738836793424253
0.19404196806134347 0.814150202201108 -0.022178903667606505
0.19125177148132888 0.9050977982807441 0.08557063657474717
0.28666106582894846 0.7754057042088289 0.11223902718850959
0.2725566093262944 0.9203483942900821 -0.012738836793424253
0.39404196806134345 0.814150202201108 -0.022178903667606505
0.3912517714813289 0.9050977982807441 0.08557063657474717
0.4866610658289485 0.7754057042088289 0.11223902718850959
0.4725566093262944 0.9203483942900821 -0.012738836793424253
0.5940419680613435 0.814150202201108 -0.022178903667606505
0.5912517714813289 0.9050977982807441 0.08557063657474717
0.6866610658289485 0.7754057042088289 0.11223902718850959
0.6725566093262945 0.9203483942900821 -0.012738836793424253
0.7940419680613435 0.814150202201108 -0.022178903667606505
0.791251771481329 0.9050977982807441 0.08557063657474717
0.8866610658289485 0.7754057042088289 0.11223902718850959
0.8725566093262945 0.9203483942900821 -0.012738836793424253
-0.005958031938656543 0.014150202201108065 0.1778210963323935
-0.008748228518671122 0.10509779828074398 0.2855706365747472
0.08666106582894845 -0.02459429579117116 0.3122390271885096
0.07255660932629437 0.12034839429008218 0.18726116320657576
0.19404196806134347 0.014150202201108065 0.1778210963323935
0.19125177148132888 0.10509779828074398 0.2855706365747472
0.28666106582894846 -0.02459429579117116 0.3122390271885096
0.2725566093262944 0.12034839429008218 0.18726116320657576
0.39404196806134345 0.014150202201108065 0.1778210963323935
0.3912517714813289 0.10509779828074398 0.2855706365747472
0.4866610658289485 -0.02459429579117116 0.3122390271885096
0.4725566093262944 0.12034839429008218 0.18726116320657576
0.5940419680613435 0.014150202201108065 0.1778210963323935
0.5912517714813289 0.10509779828074398 0.2855706365747472
0.6866610658289485 -0.02459429579117116 0.3122390271885096
0.6725566093262945 0.12034839429008218 0.18726116320657576
0.7940419680613435 0.014150202201108065 0.1778210963323935
0.791251771481329 0.10509779828074398 0.2855706365747472
0.8866610658289485 -0.02459429579117116 0.3122390271885096
0.8725566093262945 0.12034839429008218 0.18726116320657576
-0.005958031938656543 0.21415020220110806 0.1778210963323935
-0.008748228518671122 0.30509779828074396 0.2855706365747472
0.08666106582894845 0.17540570420882884 0.3122390271885096
0.07255660932629437 0.3203483942900822 0.18726116320657576
0.19404196806134347 0.21415020220110806 0.1778210963323935
0.19125177148132888 0.30509779828074396 0.2855706365747472
0.28666106582894846 0.17540570420882884 0.3122390271885096
0.2725566093262944 0.3203483942900822 0.18726116320657576
0.39404196806134345 0.21415020220110806 0.1778210963323935
0.3912517714813289 0.30509779828074396 0.2855706365747472
0.4866610658289485 0.17540570420882884 0.3122390271885096
0.4725566093262944 0.3203483942900822 0.18726116320657576
0.5940419680613435 0.21415020220110806 0.1778210963323935
0.5912517714813289 0.30509779828074396 0.2855706365747472
0.6866610658289485 0.17540570420882884 0.3122390271885096
0.6725566093262945 0.3203483942900822 0.18726116320657576
0.7940419680613435 0.21415020220110806 0.1778210963323935
0.791251771481329 0.30509779828074396 0.2855706365747472
0.8866610658289485 0.17540570420882884 0.3122390271885096
0.8725566093262945 0.3203483942900822 0.18726116320657576
-0.005958031938656543 0.4141502022011081 0.1778210963323935
-0.008748228518671122 0.505097798280744 0.2855706365747472
0.08666106582894845 0.37540570420882885 0.3122390271885096
0.07255660932629437 0.5203483942900822 0.18726116320657576
0.19404196806134347 0.4141502022011081 0.1778210963323935
0.19125177148132888 0.505097798280744 0.2855706365747472
0.28666106582894846 0.37540570420882885 0.3122390271885096
0.2725566093262944 0.5203483942900822 0.18726116320657576
0.39404196806134345 0.4141502022011081 0.1778210963323935
0.3912517714813289 0.505097798280744 0.2855706365747472
0.4866610658289485 0.37540570420882885 0.3122390271885096
0.4725566093262944 0.5203483942900822 0.18726116320657576
0.5940419680613435 0.4141502022011081 0.1778210963323935
0.5912517714813289 0.505097798280744 0.2855706365747472
0.6866610658289485 0.37540570420882885 0.3122390271885096
0.6725566093262945 0.5203483942900822 0.18726116320657576
0.7940419680613435 0.4141502022011081 0.1778210963323935
0.791251771481329 0.505097798280744 0.2855706365747472
0.8866610658289485 0.37540570420882885 0.3122390271885096
0.8725566093262945 0.5203483942900822 0.18726116320657576
-0.005958031938656543 0.6141502022011082 0.1778210963323935
-0.008748228518671122 0.705097798280744 0.2855706365747472
0.08666106582894845 0.5754057042088289 0.3122390271885096
0.07255660932629437 0.7203483942900822 0.18726116320657576
0.19404196806134347 0.6141502022011082 0.1778210963323935
0.19125177148132888 0.705097798280744 0.2855706365747472
0.28666106582894846 0.5754057042088289 0.3122390271885096
0.2725566093262944 0.7203483942900822 0.18726116320657576
0.39404196806134345 0.6141502022011082 0.1778210963323935
0.3912517714813289 0.705097798280744 0.2855706365747472
0.4866610658289485 0.5754057042088289 0.3122390271885096
0.4725566093262944 0.7203483942900822 0.18726116320657576
0.5940419680613435 0.6141502022011082 0.1778210963323935
0.5912517714813289 0.705097798280744 0.2855706365747472
0.6866610658289485 0.5754057042088289 0.3122390271885096
0.6725566093262945 0.7203483942900822 0.18726116320657576
0.7940419680613435 0.6141502022011082 0.1778210963323935
0.791251771481329 0.705097798280744 0.2855706365747472
0.8866610658289485 0.5754057042088289 0.3122390271885096
0.8725566093262945 0.7203483942900822 0.18726116320657576
-0.005958031938656543 0.814150202201108 0.1778210963323935
-0.008748228518671122 0.9050977982807441 0.2855706365747472
0.08666106582894845 0.7754057042088289 0.3122390271885096
0.07255660932629437 0.9203483942900821 0.18726116320657576
0.19404196806134347 0.814150202201108 0.1778210963323935
0.19125177148132888 0.9050977982807441 0.2855706365747472
0.28666106582894846 0.7754057042088289 0.3122390271885096
0.2725566093262944 0.9203483942900821 0.18726116320657576
0.39404196806134345 0.814150202201108 0.1778210963323935
0.3912517714813289 0.9050977982807441 0.2855706365747472
0.4866610658289485 0.7754057042088289 0.3122390271885096
0.4725566093262944 0.9203483942900821 0.18726116320657576
0.5940419680613435 0.814150202201108 0.1778210963323935
0.5912517714813289 0.9050977982807441 0.2855706365747472
0.6866610658289485 0.7754057042088289 0.3122390271885096
0.6725566093262945 0.9203483942900821 0.18726116320657576
0.7940419680613435 0.814150202201108 0.1778210963323935
0.791251771481329 0.9050977982807441 0.2855706365747472
0.8866610658289485 0.7754057042088289 0.3122390271885096
0.8725566093262945 0.9203483942900821 0.18726116320657576
-0.005958031938656543 0.014150202201108065 0.3778210963323935
-0.008748228518671122 0.10509779828074398 0.4855706365747472
0.08666106582894845 -0.02459429579117116 0.5122390271885097
0.07255660932629437 0.12034839429008218 0.3872611632065758
0.19404196806134347 0.014150202201108065 0.3778210963323935
0.19125177148132888 0.10509779828074398 0.4855706365747472
0.28666106582894846 -0.02459429579117116 0.5122390271885097
0.2725566093262944 0.12034839429008218 0.3872611632065758
0.39404196806134345 0.014150202201108065 0.3778210963323935
0.3912517714813289 0.10509779828074398 0.4855706365747472
0.4866610658289485 -0.02459429579117116 0.5122390271885097
0.4725566093262944 0.12034839429008218 0.3872611632065758
0.5940419680613435 0.014150202201108065 0.3778210963323935
0.5912517714813289 0.10509779828074398 0.4855706365747472
0.6866610658289485 -0.02459429579117116 0.5122390271885097
0.6725566093262945 0.12034839429008218 0.3872611632065758
0.7940419680613435 0.014150202201108065 0.3778210963323935
0.791251771481329 0.10509779828074398 0.4855706365747472
0.8866610658289485 -0.02459429579117116 0.5122390271885097
0.8725566093262945 0.12034839429008218 0.3872611632065758
-0.005958031938656543 0.21415020220110806 0.3778210963323935
-0.008748228518671122 0.30509779828074396 0.4855706365747472
0.08666106582894845 0.17540570420882884 0.5122390271885097
0.07255660932629437 0.3203483942900822 0.3872611632065758
0.19404196806134347 0.21415020220110806 0.3778210963323935
0.19125177148132888 0.30509779828074396 0.4855706365747472
0.28666106582894846 0.17540570420882884 0.5122390271885097
0.2725566093262944 0.3203483942900822 0.3872611632065758
0.39404196806134345 0.21415020220110806 0.3778210963323935
0.3912517714813289 0.30509779828074396 0.4855706365747472
0.4866610658289485 0.17540570420882884 0.5122390271885097
0.4725566093262944 0.3203483942900822 0.3872611632065758
0.5940419680613435 0.21415020220110806 0.3778210963323935
0.5912517714813289 0.30509779828074396 0.4855706365747472
0.6866610658289485 0.17540570420882884 0.5122390271885097
0.6725566093262945 0.3203483942900822 0.3872611632065758
0.7940419680613435 0.21415020220110806 0.3778210963323935
0.791251771481329 0.30509779828074396 0.4855706365747472
0.8866610658289485 0.17540570420882884 0.5122390271885097
0.8725566093262945 0.3203483942900822 0.3872611632065758
-0.005958031938656543 0.4141502022011081 0.3778210963323935
-0.008748228518671122 0.505097798280744 0.4855706365747472
0.08666106582894845 0.37540570420882885 0.5122390271885097
0.07255660932629437 0.5203483942900822 0.3872611632065758
0.19404196806134347 0.4141502022011081 0.3778210963323935
0.19125177148132888 0.505097798280744 0.4855706365747472
0.28666106582894846 0.37540570420882885 0.5122390271885097
0.2725566093262944 0.5203483942900822 0.3872611632065758
0.39404196806134345 0.4141502022011081 0.3778210963323935
0.3912517714813289 0.505097798280744 0.4855706365747472
0.4866610658289485 0.37540570420882885 0.5122390271885097
0.4725566093262944 0.5203483942900822 0.3872611632065758
0.5940419680613435 0.4141502022011081 0.3778210963323935
0.5912517714813289 0.505097798280744 0.4855706365747472
0.6866610658289485 0.37540570420882885 0.5122390271885097
0.6725566093262945 0.5203483942900822 0.3872611632065758
0.7940419680613435 0.4141502022011081 0.3778210963323935
0.791251771481329 0.505097798280744 0.4855706365747472
0.8866610658289485 0.37540570420882885 0.5122390271885097
0.8725566093262945 0.5203483942900822 0.3872611632065758
-0.005958031938656543 0.6141502022011082 0.3778210963323935
-0.008748228518671122 0.705097798280744 0.4855706365747472
0.08666106582894845 0.5754057042088289 0.5122390271885097
0.07255660932629437 0.7203483942900822 0.3872611632065758
0.19404196806134347 0.6141502022011082 0.3778210963323935
0.19125177148132888 0.705097798280744 0.4855706365747472
0.28666106582894846 0.5754057042088289 0.5122390271885097
0.2725566093262944 0.7203483942900822 0.3872611632065758
0.39404196806134345 0.6141502022011082 0.3778210963323935
0.3912517714813289 0.705097798280744 0.4855706365747472
0.4866610658289485 0.5754057042088289 0.5122390271885097
0.4725566093262944 0.7203483942900822 0.3872611632065758
0.5940419680613435 0.6141502022011082 0.3778210963323935
0.5912517714813289 0.705097798280744 0.4855706365747472
0.6866610658289485 0.5754057042088289 0.5122390271885097
0.6725566093262945 0.7203483942900822 0.3872611632065758
0.7940419680613435 0.6141502022011082 0.3778210963323935
0.791251771481329 0.705097798280744 0.4855706365747472
0.8866610658289485 0.5754057042088289 0.5122390271885097
0.8725566093262945 0.7203483942900822 0.3872611632065758
-0.005958031938656543 0.814150202201108 0.3778210963323935
-0.008748228518671122 0.9050977982807441 0.4855706365747472
0.08666106582894845 0.7754057042088289 0.5122390271885097
0.07255660932629437 0.9203483942900821 0.3872611632065758
0.19404196806134347 0.814150202201108 0.3778210963323935
0.19125177148132888 0.9050977982807441 0.4855706365747472
0.28666106582894846 0.7754057042088289 0.5122390271885097
0.2725566093262944 0.9203483942900821 0.3872611632065758
0.39404196806134345 0.814150202201108 0.3778210963323935
0.3912517714813289 0.9050977982807441 0.4855706365747472
0.4866610658289485 0.7754057042088289 0.5122390271885097
0.4725566093262944 0.9203483942900821 0.3872611632065758
0.5940419680613435 0.814150202201108 0.3778210963323935
0.5912517714813289 0.9050977982807441 0.4855706365747472
0.6866610658289485 0.7754057042088289 0.5122390271885097
0.6725566093262945 0.9203483942900821 0.3872611632065758
0.7940419680613435 0.814150202201108 0.3778210963323935
0.791251771481329 0.9050977982807441 0.4855706365747472
0.8866610658289485 0.7754057042088289 0.5122390271885097
0.8725566093262945 0.9203483942900821 0.3872611632065758
-0.005958031938656543 0.014150202201108065 0.5778210963323935
-0.008748228518671122 0.10509779828074398 0.6855706365747473
0.08666106582894845 -0.02459429579117116 0.7122390271885096
0.07255660932629437 0.12034839429008218 0.5872611632065757
0.19404196806134347 0.014150202201108065 0.5778210963323935
0.19125177148132888 0.10509779828074398 0.6855706365747473
0.28666106582894846 -0.02459429579117116 0.7122390271885096
0.2725566093262944 0.12034839429008218 0.5872611632065757
0.39404196806134345 0.014150202201108065 0.5778210963323935
0.3912517714813289 0.10509779828074398 0.6855706365747473
0.4866610658289485 -0.02459429579117116 0.7122390271885096
0.4725566093262944 0.12034839429008218 0.5872611632065757
0.5940419680613435 0.014150202201108065 0.5778210963323935
0.5912517714813289 0.10509779828074398 0.6855706365747473
0.6866610658289485 -0.02459429579117116 0.7122390271885096
0.6725566093262945 0.12034839429008218 0.5872611632065757
0.7940419680613435 0.014150202201108065 0.5778210963323935
0.791251771481329 0.10509779828074398 0.6855706365747473
0.8866610658289485 -0.02459429579117116 0.7122390271885096
0.8725566093262945 0.12034839429008218 0.5872611632065757
-0.005958031938656543 0.21415020220110806 0.5778210963323935
-0.008748228518671122 0.30509779828074396 0.6855706365747473
0.08666106582894845 0.17540570420882884 0.7122390271885096
0.07255660932629437 0.3203483942900822 0.5872611632065757
0.19404196806134347 0.21415020220110806 0.5778210963323935
0.19125177148132888 0.30509779828074396 0.6855706365747473
0.28666106582894846 0.17540570420882884 0.7122390271885096
0.2725566093262944 0.3203483942900822 0.5872611632065757
0.39404196806134345 0.21415020220110806 0.5778210963323935
0.3912517714813289 0.30509779828074396 0.6855706365747473
0.4866610658289485 0.17540570420882884 0.7122390271885096
0.4725566093262944 0.3203483942900822 0.5872611632065757
0.5940419680613435 0.21415020220110806 0.5778210963323935
0.5912517714813289 0.30509779828074396 0.6855706365747473
0.6866610658289485 0.17540570420882884 0.7122390271885096
0.6725566093262945 0.3203483942900822 0.5872611632065757
0.7940419680613435 0.21415020220110806 0.5778210963323935
0.791251771481329 0.30509779828074396 0.6855706365747473
0.8866610658289485 0.17540570420882884 0.7122390271885096
0.8725566093262945 0.3203483942900822 0.5872611632065757
-0.005958031938656543 0.4141502022011081 0.5778210963323935
-0.008748228518671122 0.505097798280744 0.6855706365747473
0.08666106582894845 0.37540570420882885 0.7122390271885096
0.07255660932629437 0.5203483942900822 0.5872611632065757
0.19404196806134347 0.4141502022011081 0.5778210963323935
0.19125177148132888 0.505097798280744 0.6855706365747473
0.28666106582894846 0.37540570420882885 0.7122390271885096
0.2725566093262944 0.5203483942900822 0.5872611632065757
0.39404196806134345 0.4141502022011081 0.5778210963323935
0.3912517714813289 0.505097798280744 0.6855706365747473
0.4866610658289485 0.37540570420882885 0.7122390271885096
0.4725566093262944 0.5203483942900822 0.5872611632065757
0.5940419680613435 0.4141502022011081 0.5778210963323935
0.5912517714813289 0.505097798280744 0.6855706365747473
0.6866610658289485 0.37540570420882885 0.7122390271885096
0.6725566093262945 0.5203483942900822 0.5872611632065757
0.7940419680613435 0.4141502022011081 0.5778210963323935
0.791251771481329 0.505097798280744 0.6855706365747473
0.8866610658289485 0.37540570420882885 0.7122390271885096
0.8725566093262945 0.5203483942900822 0.5872611632065757
-0.005958031938656543 0.6141502022011082 0.5778210963323935
-0.008748228518671122 0.705097798280744 0.6855706365747473
0.08666106582894845 0.5754057042088289 0.7122390271885096
0.07255660932629437 0.7203483942900822 0.5872611632065757
0.19404196806134347 0.6141502022011082 0.5778210963323935
0.19125177148132888 0.705097798280744 0.6855706365747473
0.28666106582894846 0.5754057042088289 0.7122390271885096
0.2725566093262944 0.7203483942900822 0.5872611632065757
0.39404196806134345 0.6141502022011082 0.5778210963323935
0.3912517714813289 0.705097798280744 0.6855706365747473
0.4866610658289485 0.5754057042088289 0.7122390271885096
0.4725566093262944 0.7203483942900822 0.5872611632065757
0.5940419680613435 0.6141502022011082 0.5778210963323935
0.5912517714813289 0.705097798280744 0.6855706365747473
0.6866610658289485 0.5754057042088289 0.7122390271885096
0.6725566093262945 0.7203483942900822 0.5872611632065757
0.7940419680613435 0.6141502022011082 0.5778210963323935
0.791251771481329 0.705097798280744 0.6855706365747473
0.8866610658289485 0.5754057042088289 0.7122390271885096
0.8725566093262945 0.7203483942900822 0.5872611632065757
-0.005958031938656543 0.814150202201108 0.5778210963323935
-0.008748228518671122 0.9050977982807441 0.6855706365747473
0.08666106582894845 0.7754057042088289 0.7122390271885096
0.07255660932629437 0.9203483942900821 0.5872611632065757
0.19404196806134347 0.814150202201108 0.5778210963323935
0.19125177148132888 0.9050977982807441 0.6855706365747473
0.28666106582894846 0.7754057042088289 0.7122390271885096
0.2725566093262944 0.9203483942900821 0.5872611632065757
0.39404196806134345 0.814150202201108 0.5778210963323935
0.3912517714813289 0.9050977982807441 0.6855706365747473
0.4866610658289485 0.7754057042088289 0.7122390271885096
0.4725566093262944 0.9203483942900821 0.5872611632065757
0.5940419680613435 0.814150202201108 0.5778210963323935
0.5912517714813289 0.9050977982807441 0.6855706365747473
0.6866610658289485 0.7754057042088289 0.7122390271885096
0.6725566093262945 0.9203483942900821 0.5872611632065757
0.7940419680613435 0.814150202201108 0.5778210963323935
0.791251771481329 0.9050977982807441 0.6855706365747473
0.8866610658289485 0.7754057042088289 0.7122390271885096
0.8725566093262945 0.9203483942900821 0.5872611632065757
-0.005958031938656543 0.014150202201108065 0.7778210963323935
-0.008748228518671122 0.10509779828074398 0.8855706365747471
0.08666106582894845 -0.02459429579117116 0.9122390271885096
0.07255660932629437 0.12034839429008218 0.7872611632065758
0.19404196806134347 0.014150202201108065 0.7778210963323935
0.19125177148132888 0.10509779828074398 0.8855706365747471
0.28666106582894846 -0.02459429579117116 0.9122390271885096
0.2725566093262944 0.12034839429008218 0.7872611632065758
0.39404196806134345 0.014150202201108065 0.7778210963323935
0.3912517714813289 0.10509779828074398 0.8855706365747471
0.4866610658289485 -0.02459429579117116 0.9122390271885096
0.4725566093262944 0.12034839429008218 0.7872611632065758
0.5940419680613435 0.014150202201108065 0.7778210963323935
0.5912517714813289 0.10509779828074398 0.8855706365747471
0.6866610658289485 -0.02459429579117116 0.9122390271885096
0.6725566093262945 0.12034839429008218 0.7872611632065758
0.7940419680613435 0.014150202201108065 0.7778210963323935
0.791251771481329 0.10509779828074398 0.8855706365747471
0.8866610658289485 -0.02459429579117116 0.9122390271885096
0.8725566093262945 0.12034839429008218 0.7872611632065758
-0.005958031938656543 0.21415020220110806 0.7778210963323935
-0.008748228518671122 0.30509779828074396 0.8855706365747471
0.08666106582894845 0.17540570420882884 0.9122390271885096
0.07255660932629437 0.3203483942900822 0.7872611632065758
0.19404196806134347 0.21415020220110806 0.7778210963323935
0.19125177148132888 0.30509779828074396 0.8855706365747471
0.28666106582894846 0.17540570420882884 0.9122390271885096
0.2725566093262944 0.3203483942900822 0.7872611632065758
0.39404196806134345 0.21415020220110806 0.7778210963323935
0.3912517714813289 0.30509779828074396 0.8855706365747471
0.4866610658289485 0.17540570420882884 0.9122390271885096
0.4725566093262944 0.3203483942900822 0.7872611632065758
0.5940419680613435 0.21415020220110806 0.7778210963323935
0.5912517714813289 0.30509779828074396 0.8855706365747471
0.6866610658289485 0.17540570420882884 0.9122390271885096
0.6725566093262945 0.3203483942900822 0.7872611632065758
0.7940419680613435 0.21415020220110806 0.7778210963323935
0.791251771481329 0.30509779828074396 0.8855706365747471
0.8866610658289485 0.17540570420882884 0.9122390271885096
0.8725566093262945 0.3203483942900822 0.7872611632065758
-0.005958031938656543 0.4141502022011081 0.7778210963323935
-0.008748228518671122 0.505097798280744 0.8855706365747471
0.08666106582894845 0.37540570420882885 0.9122390271885096
0.07255660932629437 0.5203483942900822 0.7872611632065758
0.19404196806134347 0.4141502022011081 0.7778210963323935
0.19125177148132888 0.505097798280744 0.8855706365747471
0.28666106582894846 0.37540570420882885 0.9122390271885096
0.2725566093262944 0.5203483942900822 0.7872611632065758
0.39404196806134345 0.4141502022011081 0.7778210963323935
0.3912517714813289 0.505097798280744 0.8855706365747471
0.4866610658289485 0.37540570420882885 0.9122390271885096
0.4725566093262944 0.5203483942900822 0.7872611632065758
0.5940419680613435 0.4141502022011081 0.7778210963323935
0.5912517714813289 0.505097798280744 0.8855706365747471
0.6866610658289485 0.37540570420882885 0.9122390271885096
0.6725566093262945 0.5203483942900822 0.7872611632065758
0.7940419680613435 0.4141502022011081 0.7778210963323935
0.791251771481329 0.505097798280744 0.8855706365747471
0.8866610658289485 0.37540570420882885 0.9122390271885096
0.8725566093262945 0.5203483942900822 0.7872611632065758
-0.005958031938656543 0.6141502022011082 0.7778210963323935
-0.008748228518671122 0.705097798280744 0.8855706365747471
0.08666106582894845 0.5754057042088289 0.9122390271885096
0.07255660932629437 0.7203483942900822 0.7872611632065758
0.19404196806134347 0.6141502022011082 0.7778210963323935
0.19125177148132888 0.705097798280744 0.8855706365747471
0.28666106582894846 0.5754057042088289 0.9122390271885096
0.2725566093262944 0.7203483942900822 0.7872611632065758
0.39404196806134345 0.6141502022011082 0.7778210963323935
0.3912517714813289 0.705097798280744 0.8855706365747471
0.4866610658289485 0.5754057042088289 0.9122390271885096
0.4725566093262944 0.7203483942900822 0.7872611632065758
0.5940419680613435 0.6141502022011082 0.7778210963323935
0.5912517714813289 0.705097798280744 0.8855706365747471
0.6866610658289485 0.5754057042088289 0.9122390271885096
0.6725566093262945 0.7203483942900822 0.7872611632065758
0.7940419680613435 0.6141502022011082 0.7778210963323935
0.791251771481329 0.705097798280744 0.8855706365747471
0.8866610658289485 0.5754057042088289 0.9122390271885096
0.8725566093262945 0.7203483942900822 0.7872611632065758
-0.005958031938656543 0.814150202201108 0.7778210963323935
-0.008748228518671122 0.9050977982807441 0.8855706365747471
0.08666106582894845 0.7754057042088289 0.9122390271885096
0.07255660932629437 0.9203483942900821 0.7872611632065758
0.19404196806134347 0.814150202201108 0.7778210963323935
0.19125177148132888 0.9050977982807441 0.8855706365747471
0.28666106582894846 0.7754057042088289 0.9122390271885096
0.2725566093262944 0.9203483942900821 0.7872611632065758
0.39404196806134345 0.814150202201108 0.7778210963323935
0.3912517714813289 0.9050977982807441 0.8855706365747471
0.4866610658289485 0.7754057042088289 0.9122390271885096
0.4725566093262944 0.9203483942900821 0.7872611632065758
0.5940419680613435 0.814150202201108 0.7778210963323935
0.5912517714813289 0.9050977982807441 0.8855706365747471
0.6866610658289485 0.7754057042088289 0.9122390271885096
0.6725566093262945 0.9203483942900821 0.7872611632065758
0.7940419680613435 0.814150202201108 0.7778210963323935
0.791251771481329 0.9050977982807441 0.8855706365747471
0.8866610658289485 0.7754057042088289 0.9122390271885096
0.8725566093262945 0.9203483942900821 0.7872611632065758
0.12861964361837522 -0.005233834163077126 0.029202002455401634
-0.0036273994517166674 0.11887480853210569 0.000270713434256642
-0.028558327528428698 -0.016930612647844605 0.10625330212269479
0.1208054441855563 0.12267502359036503 0.09607181763147096
0.32861964361837526 -0.005233834163077126 0.029202002455401634
0.19637260054828334 0.11887480853210569 0.000270713434256642
0.17144167247157133 -0.016930612647844605 0.10625330212269479
0.32080544418555634 0.12267502359036503 0.09607181763147096
0.5286196436183753 -0.005233834163077126 0.029202002455401634
0.3963726005482833 0.11887480853210569 0.000270713434256642
0.37144167247157134 -0.016930612647844605 0.10625330212269479
0.5208054441855563 0.12267502359036503 0.09607181763147096
0.7286196436183753 -0.005233834163077126 0.029202002455401634
0.5963726005482833 0.11887480853210569 0.000270713434256642
0.5714416724715713 -0.016930612647844605 0.10625330212269479
0.7208054441855563 0.12267502359036503 0.09607181763147096
0.9286196436183753 -0.005233834163077126 0.029202002455401634
0.7963726005482834 0.11887480853210569 0.000270713434256642
0.7714416724715714 -0.016930612647844605 0.10625330212269479
0.9208054441855563 0.12267502359036503 0.09607181763147096
0.12861964361837522 0.19476616583692288 0.029202002455401634
-0.0036273994517166674 0.3188748085321057 0.000270713434256642
-0.028558327528428698 0.1830693873521554 0.10625330212269479
0.1208054441855563 0.32267502359036504 0.09607181763147096
0.32861964361837526 0.19476616583692288 0.029202002455401634
0.19637260054828334 0.3188748085321057 0.000270713434256642
0.17144167247157133 0.1830693873521554 0.10625330212269479
0.32080544418555634 0.32267502359036504 0.09607181763147096
0.5286196436183753 0.19476616583692288 0.029202002455401634
0.3963726005482833 0.3188748085321057 0.000270713434256642
0.37144167247157134 0.1830693873521554 0.10625330212269479
0.5208054441855563 0.32267502359036504 0.09607181763147096
0.7286196436183753 0.19476616583692288 0.029202002455401634
0.5963726005482833 0.3188748085321057 0.000270713434256642
0.5714416724715713 0.1830693873521554 0.10625330212269479
0.7208054441855563 0.32267502359036504 0.09607181763147096
0.9286196436183753 0.19476616583692288 0.029202002455401634
0.7963726005482834 0.3188748085321057 0.000270713434256642
0.7714416724715714 0.1830693873521554 0.10625330212269479
0.9208054441855563 0.32267502359036504 0.09607181763147096
0.12861964361837522 0.39476616583692287 0.029202002455401634
-0.0036273994517166674 0.5188748085321058 0.000270713434256642
-0.028558327528428698 0.3830693873521554 0.10625330212269479
0.1208054441855563 0.5226750235903651 0.09607181763147096
0.32861964361837526 0.39476616583692287 0.029202002455401634
0.19637260054828334 0.5188748085321058 0.000270713434256642
0.17144167247157133 0.3830693873521554 0.10625330212269479
0.32080544418555634 0.5226750235903651 0.09607181763147096
0.5286196436183753 0.39476616583692287 0.029202002455401634
0.3963726005482833 0.5188748085321058 0.000270713434256642
0.37144167247157134 0.3830693873521554 0.10625330212269479
0.5208054441855563 0.5226750235903651 0.09607181763147096
0.7286196436183753 0.39476616583692287 0.029202002455401634
0.5963726005482833 0.5188748085321058 0.000270713434256642
0.5714416724715713 0.3830693873521554 0.10625330212269479
0.7208054441855563 0.5226750235903651 0.09607181763147096
0.9286196436183753 0.39476616583692287 0.029202002455401634
0.7963726005482834 0.5188748085321058 0.000270713434256642
0.7714416724715714 0.3830693873521554 0.10625330212269479
0.9208054441855563 0.5226750235903651 0.09607181763147096
0.12861964361837522 0.5947661658369229 0.029202002455401634
-0.0036273994517166674 0.7188748085321057 0.000270713434256642
-0.028558327528428698 0.5830693873521554 0.10625330212269479
0.1208054441855563 0.7226750235903651 0.09607181763147096
0.32861964361837526 0.5947661658369229 0.029202002455401634
0.19637260054828334 0.7188748085321057 0.000270713434256642
0.17144167247157133 0.5830693873521554 0.10625330212269479
0.32080544418555634 0.7226750235903651 0.09607181763147096
0.5286196436183753 0.5947661658369229 0.029202002455401634
0.3963726005482833 0.7188748085321057 0.000270713434256642
0.37144167247157134 0.5830693873521554 0.10625330212269479
0.5208054441855563 0.7226750235903651 0.09607181763147096
0.7286196436183753 0.5947661658369229 0.029202002455401634
0.5963726005482833 0.7188748085321057 0.000270713434256642
0.5714416724715713 0.5830693873521554 0.10625330212269479
0.7208054441855563 0.7226750235903651 0.09607181763147096
0.9286196436183753 0.5947661658369229 0.029202002455401634
0.7963726005482834 0.7188748085321057 0.000270713434256642
0.7714416724715714 0.5830693873521554 0.10625330212269479
0.9208054441855563 0.7226750235903651 0.09607181763147096
0.12861964361837522 0.7947661658369229 0.029202002455401634
-0.0036273994517166674 0.9188748085321058 0.000270713434256642
-0.028558327528428698 0.7830693873521555 0.10625330212269479
0.1208054441855563 0.922675023590365 0.09607181763147096
0.32861964361837526 0.7947661658369229 0.029202002455401634
0.19637260054828334 0.9188748085321058 0.000270713434256642
0.17144167247157133 0.7830693873521555 0.10625330212269479
0.32080544418555634 0.922675023590365 0.09607181763147096
0.5286196436183753 0.7947661658369229 0.029202002455401634
0.3963726005482833 0.9188748085321058 0.000270713434256642
0.37144167247157134 0.7830693873521555 0.10625330212269479
0.5208054441855563 0.922675023590365 0.09607181763147096
0.7286196436183753 0.7947661658369229 0.029202002455401634
0.5963726005482833 0.9188748085321058 0.000270713434256642
0.5714416724715713 0.7830693873521555 0.10625330212269479
0.7208054441855563 0.922675023590365 0.09607181763147096
0.9286196436183753 0.7947661658369229 0.029202002455401634
0.7963726005482834 0.9188748085321058 0.000270713434256642
0.7714416724715714 0.7830693873521555 0.10625330212269479
0.9208054441855563 0.922675023590365 0.09607181763147096
0.12861964361837522 -0.005233834163077126 0.22920200245540168
-0.0036273994517166674 0.11887480853210569 0.20027071343425665
-0.028558327528428698 -0.016930612647844605 0.3062533021226948
0.1208054441855563 0.12267502359036503 0.29607181763147095
0.32861964361837526 -0.005233834163077126 0.22920200245540168
0.19637260054828334 0.11887480853210569 0.20027071343425665
0.17144167247157133 -0.016930612647844605 0.3062533021226948
0.32080544418555634 0.12267502359036503 0.29607181763147095
0.5286196436183753 -0.005233834163077126 0.22920200245540168
0.3963726005482833 0.11887480853210569 0.20027071343425665
0.37144167247157134 -0.016930612647844605 0.3062533021226948
0.5208054441855563 0.12267502359036503 0.29607181763147095
0.7286196436183753 -0.005233834163077126 0.22920200245540168
0.5963726005482833 0.11887480853210569 0.20027071343425665
0.5714416724715713 -0.016930612647844605 0.3062533021226948
0.7208054441855563 0.12267502359036503 0.29607181763147095
0.9286196436183753 -0.005233834163077126 0.22920200245540168
0.7963726005482834 0.11887480853210569 0.20027071343425665
0.7714416724715714 -0.016930612647844605 0.3062533021226948
0.9208054441855563 0.12267502359036503 0.29607181763147095
0.12861964361837522 0.19476616583692288 0.22920200245540168
-0.0036273994517166674 0.3188748085321057 0.20027071343425665
-0.028558327528428698 0.1830693873521554 0.3062533021226948
0.1208054441855563 0.32267502359036504 0.29607181763147095
0.32861964361837526 0.19476616583692288 0.22920200245540168
0.19637260054828334 0.3188748085321057 0.20027071343425665
0.17144167247157133 0.1830693873521554 0.3062533021226948
0.32080544418555634 0.32267502359036504 0.29607181763147095
0.5286196436183753 0.19476616583692288 0.22920200245540168
0.3963726005482833 0.3188748085321057 0.20027071343425665
0.37144167247157134 0.1830693873521554 0.3062533021226948
0.5208054441855563 0.32267502359036504 0.29607181763147095
0.7286196436183753 0.19476616583692288 0.22920200245540168
0.5963726005482833 0.3188748085321057 0.20027071343425665
0.5714416724715713 0.1830693873521554 0.3062533021226948
0.7208054441855563 0.32267502359036504 0.29607181763147095
0.9286196436183753 0.19476616583692288 0.22920200245540168
0.7963726005482834 0.3188748085321057 0.20027071343425665
0.7714416724715714 0.1830693873521554 0.3062533021226948
0.9208054441855563 0.32267502359036504 0.29607181763147095
0.12861964361837522 0.39476616583692287 0.22920200245540168
-0.0036273994517166674 0.5188748085321058 0.20027071343425665
-0.028558327528428698 0.3830693873521554 0.3062533021226948
0.1208054441855563 0.5226750235903651 0.29607181763147095
0.32861964361837526 0.39476616583692287 0.22920200245540168
0.19637260054828334 0.5188748085321058 0.20027071343425665
0.17144167247157133 0.3830693873521554 0.3062533021226948
0.32080544418555634 0.5226750235903651 0.29607181763147095
0.5286196436183753 0.39476616583692287 0.22920200245540168
0.3963726005482833 0.5188748085321058 0.20027071343425665
0.37144167247157134 0.3830693873521554 0.3062533021226948
0.5208054441855563 0.5226750235903651 0.29607181763147095
0.7286196436183753 0.39476616583692287 0.22920200245540168
0.5963726005482833 0.5188748085321058 0.20027071343425665
0.5714416724715713 0.3830693873521554 0.3062533021226948
0.7208054441855563 0.5226750235903651 0.29607181763147095
0.9286196436183753 0.39476616583692287 0.22920200245540168
0.7963726005482834 0.5188748085321058 0.20027071343425665
0.7714416724715714 0.3830693873521554 0.3062533021226948
0.9208054441855563 0.5226750235903651 0.29607181763147095
0.12861964361837522 0.5947661658369229 0.22920200245540168
-0.0036273994517166674 0.7188748085321057 0.20027071343425665
-0.028558327528428698 0.5830693873521554 0.3062533021226948
0.1208054441855563 0.7226750235903651 0.29607181763147095
0.32861964361837526 0.5947661658369229 0.22920200245540168
0.19637260054828334 0.7188748085321057 0.20027071343425665
0.17144167247157133 0.5830693873521554 0.3062533021226948
0.32080544418555634 0.7226750235903651 0.29607181763147095
0.5286196436183753 0.5947661658369229 0.22920200245540168
0.3963726005482833 0.7188748085321057 0.20027071343425665
0.37144167247157134 0.5830693873521554 0.3062533021226948
0.5208054441855563 0.7226750235903651 0.29607181763147095
0.7286196436183753 0.5947661658369229 0.22920200245540168
0.5963726005482833 0.7188748085321057 0.20027071343425665
0.5714416724715713 0.5830693873521554 0.3062533021226948
0.7208054441855563 0.7226750235903651 0.29607181763147095
0.9286196436183753 0.5947661658369229 0.22920200245540168
0.7963726005482834 0.7188748085321057 0.20027071343425665
0.7714416724715714 0.5830693873521554 0.3062533021226948
0.9208054441855563 0.7226750235903651 0.29607181763147095
0.12861964361837522 0.7947661658369229 0.22920200245540168
-0.0036273994517166674 0.9188748085321058 0.20027071343425665
-0.028558327528428698 0.7830693873521555 0.3062533021226948
0.1208054441855563 0.922675023590365 0.29607181763147095
0.32861964361837526 0.7947661658369229 0.22920200245540168
0.19637260054828334 0.9188748085321058 0.20027071343425665
0.17144167247157133 0.7830693873521555 0.3062533021226948
0.32080544418555634 0.922675023590365 0.29607181763147095
0.5286196436183753 0.7947661658369229 0.22920200245540168
0.3963726005482833 0.9188748085321058 0.20027071343425665
0.37144167247157134 0.7830693873521555 0.3062533021226948
0.5208054441855563 0.922675023590365 0.29607181763147095
0.7286196436183753 0.7947661658369229 0.22920200245540168
0.5963726005482833 0.9188748085321058 0.20027071343425665
0.5714416724715713 0.7830693873521555 0.3062533021226948
0.7208054441855563 0.922675023590365 0.29607181763147095
0.9286196436183753 0.7947661658369229 0.22920200245540168
0.7963726005482834 0.9188748085321058 0.20027071343425665
0.7714416724715714 0.7830693873521555 0.3062533021226948
0.9208054441855563 0.922675023590365 0.29607181763147095
0.12861964361837522 -0.005233834163077126 0.4292020024554017
-0.0036273994517166674 0.11887480853210569 0.4002707134342567
-0.028558327528428698 -0.016930612647844605 0.5062533021226948
0.1208054441855563 0.12267502359036503 0.49607181763147096
0.32861964361837526 -0.005233834163077126 0.4292020024554017
0.19637260054828334 0.11887480853210569 0.4002707134342567
0.17144167247157133 -0.016930612647844605 0.5062533021226948
0.32080544418555634 0.12267502359036503 0.49607181763147096
0.5286196436183753 -0.005233834163077126 0.4292020024554017
0.3963726005482833 0.11887480853210569 0.4002707134342567
0.37144167247157134 -0.016930612647844605 0.5062533021226948
0.5208054441855563 0.12267502359036503 0.49607181763147096
0.7286196436183753 -0.005233834163077126 0.4292020024554017
0.5963726005482833 0.11887480853210569 0.4002707134342567
0.5714416724715713 -0.016930612647844605 0.5062533021226948
0.7208054441855563 0.12267502359036503 0.49607181763147096
0.9286196436183753 -0.005233834163077126 0.4292020024554017
0.7963726005482834 0.11887480853210569 0.4002707134342567
0.7714416724715714 -0.016930612647844605 0.5062533021226948
0.9208054441855563 0.12267502359036503 0.49607181763147096
0.12861964361837522 0.19476616583692288 0.4292020024554017
-0.0036273994517166674 0.3188748085321057 0.4002707134342567
-0.028558327528428698 0.1830693873521554 0.5062533021226948
0.1208054441855563 0.32267502359036504 0.49607181763147096
0.32861964361837526 0.19476616583692288 0.4292020024554017
0.19637260054828334 0.3188748085321057 0.4002707134342567
0.17144167247157133 0.1830693873521554 0.5062533021226948
0.32080544418555634 0.32267502359036504 0.49607181763147096
0.5286196436183753 0.19476616583692288 0.4292020024554017
0.3963726005482833 0.3188748085321057 0.4002707134342567
0.37144167247157134 0.1830693873521554 0.5062533021226948
0.5208054441855563 0.32267502359036504 0.49607181763147096
0.7286196436183753 0.19476616583692288 0.4292020024554017
0.5963726005482833 0.3188748085321057 0.4002707134342567
0.5714416724715713 0.1830693873521554 0.5062533021226948
0.7208054441855563 0.32267502359036504 0.49607181763147096
0.9286196436183753 0.19476616583692288 0.4292020024554017
0.7963726005482834 0.3188748085321057 0.4002707134342567
0.7714416724715714 0.1830693873521554 0.5062533021226948
0.9208054441855563 0.32267502359036504 0.49607181763147096
0.12861964361837522 0.39476616583692287 0.4292020024554017
-0.0036273994517166674 0.5188748085321058 0.4002707134342567
-0.028558327528428698 0.3830693873521554 0.5062533021226948
0.1208054441855563 0.5226750235903651 0.49607181763147096
0.32861964361837526 0.39476616583692287 0.4292020024554017
0.19637260054828334 0.5188748085321058 0.4002707134342567
0.17144167247157133 0.3830693873521554 0.5062533021226948
0.32080544418555634 0.5226750235903651 0.49607181763147096
0.5286196436183753 0.39476616583692287 0.4292020024554017
0.3963726005482833 0.5188748085321058 0.4002707134342567
0.37144167247157134 0.3830693873521554 0.5062533021226948
0.5208054441855563 0.5226750235903651 0.49607181763147096
0.7286196436183753 0.39476616583692287 0.4292020024554017
0.5963726005482833 0.5188748085321058 0.4002707134342567
0.5714416724715713 0.3830693873521554 0.5062533021226948
0.7208054441855563 0.5226750235903651 0.49607181763147096
0.9286196436183753 0.39476616583692287 0.4292020024554017
0.7963726005482834 0.5188748085321058 0.4002707134342567
0.7714416724715714 0.3830693873521554 0.5062533021226948
0.9208054441855563 0.5226750235903651 0.49607181763147096
0.12861964361837522 0.5947661658369229 0.4292020024554017
-0.0036273994517166674 0.7188748085321057 0.4002707134342567
-0.028558327528428698 0.5830693873521554 0.5062533021226948
0.1208054441855563 0.7226750235903651 0.49607181763147096
0.32861964361837526 0.5947661658369229 0.4292020024554017
0.19637260054828334 0.7188748085321057 0.4002707134342567
0.17144167247157133 0.5830693873521554 0.5062533021226948
0.32080544418555634 0.7226750235903651 0.49607181763147096
0.5286196436183753 0.5947661658369229 0.4292020024554017
0.3963726005482833 0.7188748085321057 0.4002707134342567
0.37144167247157134 0.5830693873521554 0.5062533021226948
0.5208054441855563 0.7226750235903651 0.49607181763147096
0.7286196436183753 0.5947661658369229 0.4292020024554017
0.5963726005482833 0.7188748085321057 0.4002707134342567
0.5714416724715713 0.5830693873521554 0.5062533021226948
0.7208054441855563 0.7226750235903651 0.49607181763147096
0.9286196436183753 0.5947661658369229 0.4292020024554017
0.7963726005482834 0.7188748085321057 0.4002707134342567
0.7714416724715714 0.5830693873521554 0.5062533021226948
0.9208054441855563 0.7226750235903651 0.49607181763147096
0.12861964361837522 0.7947661658369229 0.4292020024554017
-0.0036273994517166674 0.9188748085321058 0.4002707134342567
-0.028558327528428698 0.7830693873521555 0.5062533021226948
0.1208054441855563 0.922675023590365 0.49607181763147096
0.32861964361837526 0.7947661658369229 0.4292020024554017
0.19637260054828334 0.9188748085321058 0.4002707134342567
0.17144167247157133 0.7830693873521555 0.5062533021226948
0.32080544418555634 0.922675023590365 0.49607181763147096
0.5286196436183753 0.7947661658369229 0.4292020024554017
0.3963726005482833 0.9188748085321058 0.4002707134342567
0.37144167247157134 0.7830693873521555 0.5062533021226948
0.5208054441855563 0.922675023590365 0.49607181763147096
0.7286196436183753 0.7947661658369229 0.4292020024554017
0.5963726005482833 0.9188748085321058 0.4002707134342567
0.5714416724715713 0.7830693873521555 0.5062533021226948
0.7208054441855563 0.922675023590365 0.49607181763147096
0.9286196436183753 0.7947661658369229 0.4292020024554017
0.7963726005482834 0.9188748085321058 0.4002707134342567
0.7714416724715714 0.7830693873521555 0.5062533021226948
0.9208054441855563 0.922675023590365 0.49607181763147096
0.12861964361837522 -0.005233834163077126 0.6292020024554017
-0.0036273994517166674 0.11887480853210569 0.6002707134342566
-0.028558327528428698 -0.016930612647844605 0.7062533021226948
0.1208054441855563 0.12267502359036503 0.696071817631471
0.32861964361837526 -0.005233834163077126 0.6292020024554017
0.19637260054828334 0.11887480853210569 0.6002707134342566
0.17144167247157133 -0.016930612647844605 0.7062533021226948
0.32080544418555634 0.12267502359036503 0.696071817631471
0.5286196436183753 -0.005233834163077126 0.6292020024554017
0.3963726005482833 0.11887480853210569 0.6002707134342566
0.37144167247157134 -0.016930612647844605 0.7062533021226948
0.5208054441855563 0.12267502359036503 0.696071817631471
0.7286196436183753 -0.005233834163077126 0.6292020024554017
0.5963726005482833 0.11887480853210569 0.6002707134342566
0.5714416724715713 -0.016930612647844605 0.7062533021226948
0.7208054441855563 0.12267502359036503 0.696071817631471
0.9286196436183753 -0.005233834163077126 0.6292020024554017
0.7963726005482834 0.11887480853210569 0.6002707134342566
0.7714416724715714 -0.016930612647844605 0.7062533021226948
0.9208054441855563 0.12267502359036503 0.696071817631471
0.12861964361837522 0.19476616583692288 0.6292020024554017
-0.0036273994517166674 0.3188748085321057 0.6002707134342566
-0.028558327528428698 0.1830693873521554 0.7062533021226948
0.1208054441855563 0.32267502359036504 0.696071817631471
0.32861964361837526 0.19476616583692288 0.6292020024554017
0.19637260054828334 0.3188748085321057 0.6002707134342566
0.17144167247157133 0.1830693873521554 0.7062533021226948
0.32080544418555634 0.32267502359036504 0.696071817631471
0.5286196436183753 0.19476616583692288 0.6292020024554017
0.3963726005482833 0.3188748085321057 0.6002707134342566
0.37144167247157134 0.1830693873521554 0.7062533021226948
0.5208054441855563 0.32267502359036504 0.696071817631471
0.7286196436183753 0.19476616583692288 0.6292020024554017
0.5963726005482833 0.3188748085321057 0.6002707134342566
0.5714416724715713 0.1830693873521554 0.7062533021226948
0.7208054441855563 0.32267502359036504 0.696071817631471
0.9286196436183753 0.19476616583692288 0.6292020024554017
0.7963726005482834 0.3188748085321057 0.6002707134342566
0.7714416724715714 0.1830693873521554 0.7062533021226948
0.9208054441855563 0.32267502359036504 0.696071817631471
0.12861964361837522 0.39476616583692287 0.6292020024554017
-0.0036273994517166674 0.5188748085321058 0.6002707134342566
-0.028558327528428698 0.3830693873521554 0.7062533021226948
0.1208054441855563 0.5226750235903651 0.696071817631471
0.32861964361837526 0.39476616583692287 0.6292020024554017
0.19637260054828334 0.5188748085321058 0.6002707134342566
0.17144167247157133 0.3830693873521554 0.7062533021226948
0.32080544418555634 0.5226750235903651 0.696071817631471
0.5286196436183753 0.39476616583692287 0.6292020024554017
0.3963726005482833 0.5188748085321058 0.6002707134342566
0.37144167247157134 0.3830693873521554 0.7062533021226948
0.5208054441855563 0.5226750235903651 0.696071817631471
0.7286196436183753 0.39476616583692287 0.6292020024554017
0.5963726005482833 0.5188748085321058 0.6002707134342566
0.5714416724715713 0.3830693873521554 0.7062533021226948
0.7208054441855563 0.5226750235903651 0.696071817631471
0.9286196436183753 0.39476616583692287 0.6292020024554017
0.7963726005482834 0.5188748085321058 0.6002707134342566
0.7714416724715714 0.3830693873521554 0.7062533021226948
0.9208054441855563 0.5226750235903651 0.696071817631471
0.12861964361837522 0.5947661658369229 0.6292020024554017
-0.0036273994517166674 0.7188748085321057 0.6002707134342566
-0.028558327528428698 0.5830693873521554 0.7062533021226948
0.1208054441855563 0.7226750235903651 0.696071817631471
0.32861964361837526 0.5947661658369229 0.6292020024554017
0.19637260054828334 0.7188748085321057 0.6002707134342566
0.17144167247157133 0.5830693873521554 0.7062533021226948
0.32080544418555634 0.7226750235903651 0.696071817631471
0.5286196436183753 0.5947661658369229 0.6292020024554017
0.3963726005482833 0.7188748085321057 0.6002707134342566
0.37144167247157134 0.5830693873521554 0.7062533021226948
0.5208054441855563 0.7226750235903651 0.696071817631471
0.7286196436183753 0.5947661658369229 0.6292020024554017
0.5963726005482833 0.7188748085321057 0.6002707134342566
0.5714416724715713 0.5830693873521554 0.7062533021226948
0.7208054441855563 0.7226750235903651 0.696071817631471
0.9286196436183753 0.5947661658369229 0.6292020024554017
0.7963726005482834 0.7188748085321057 0.6002707134342566
0.7714416724715714 0.5830693873521554 0.7062533021226948
0.9208054441855563 0.7226750235903651 0.696071817631471
0.12861964361837522 0.7947661658369229 0.6292020024554017
-0.0036273994517166674 0.9188748085321058 0.6002707134342566
-0.028558327528428698 0.7830693873521555 0.7062533021226948
0.1208054441855563 0.922675023590365 0.696071817631471
0.32861964361837526 0.7947661658369229 0.6292020024554017
0.19637260054828334 0.9188748085321058 0.6002707134342566
0.17144167247157133 0.7830693873521555 0.7062533021226948
0.32080544418555634 0.922675023590365 0.696071817631471
0.5286196436183753 0.7947661658369229 0.6292020024554017
0.3963726005482833 0.9188748085321058 0.6002707134342566
0.37144167247157134 0.7830693873521555 0.7062533021226948
0.5208054441855563 0.922675023590365 0.696071817631471
0.7286196436183753 0.7947661658369229 0.6292020024554017
0.5963726005482833 0.9188748085321058 0.6002707134342566
0.5714416724715713 0.7830693873521555 0.7062533021226948
0.7208054441855563 0.922675023590365 0.696071817631471
0.9286196436183753 0.7947661658369229 0.6292020024554017
0.7963726005482834 0.9188748085321058 0.6002707134342566
0.7714416724715714 0.7830693873521555 0.7062533021226948
0.9208054441855563 0.922675023590365 0.696071817631471
0.12861964361837522 -0.005233834163077126 0.8292020024554017
-0.0036273994517166674 0.11887480853210569 0.8002707134342567
-0.028558327528428698 -0.016930612647844605 0.9062533021226948
0.1208054441855563 0.12267502359036503 0.896071817631471
0.32861964361837526 -0.005233834163077126 0.8292020024554017
0.19637260054828334 0.11887480853210569 0.8002707134342567
0.17144167247157133 -0.016930612647844605 0.9062533021226948
0.32080544418555634 0.12267502359036503 0.896071817631471
0.5286196436183753 -0.005233834163077126 0.8292020024554017
0.3963726005482833 0.11887480853210569 0.8002707134342567
0.37144167247157134 -0.016930612647844605 0.9062533021226948
0.5208054441855563 0.12267502359036503 0.896071817631471
0.7286196436183753 -0.005233834163077126 0.8292020024554017
0.5963726005482833 0.11887480853210569 0.8002707134342567
0.5714416724715713 -0.016930612647844605 0.9062533021226948
0.7208054441855563 0.12267502359036503 0.896071817631471
0.9286196436183753 -0.005233834163077126 0.8292020024554017
0.7963726005482834 0.11887480853210569 0.8002707134342567
0.7714416724715714 -0.016930612647844605 0.9062533021226948
0.9208054441855563 0.12267502359036503 0.896071817631471
0.12861964361837522 0.19476616583692288 0.8292020024554017
-0.0036273994517166674 0.3188748085321057 0.8002707134342567
-0.028558327528428698 0.1830693873521554 0.9062533021226948
0.1208054441855563 0.32267502359036504 0.896071817631471
0.32861964361837526 0.19476616583692288 0.8292020024554017
0.19637260054828334 0.3188748085321057 0.8002707134342567
0.17144167247157133 0.1830693873521554 0.9062533021226948
0.32080544418555634 0.32267502359036504 0.896071817631471
0.5286196436183753 0.19476616583692288 0.8292020024554017
0.3963726005482833 0.3188748085321057 0.8002707134342567
0.37144167247157134 0.1830693873521554 0.9062533021226948
0.5208054441855563 0.32267502359036504 0.896071817631471
0.7286196436183753 0.19476616583692288 0.8292020024554017
0.5963726005482833 0.3188748085321057 0.8002707134342567
0.5714416724715713 0.1830693873521554 0.9062533021226948
0.7208054441855563 0.32267502359036504 0.896071817631471
0.9286196436183753 0.19476616583692288 0.8292020024554017
0.7963726005482834 0.3188748085321057 0.8002707134342567
0.7714416724715714 0.1830693873521554 0.9062533021226948
0.9208054441855563 0.32267502359036504 0.896071817631471
0.12861964361837522 0.39476616583692287 0.8292020024554017
-0.0036273994517166674 0.5188748085321058 0.8002707134342567
-0.028558327528428698 0.3830693873521554 0.9062533021226948
0.1208054441855563 0.5226750235903651 0.896071817631471
0.32861964361837526 0.39476616583692287 0.8292020024554017
0.19637260054828334 0.5188748085321058 0.8002707134342567
0.17144167247157133 0.3830693873521554 0.9062533021226948
0.32080544418555634 0.5226750235903651 0.896071817631471
0.5286196436183753 0.39476616583692287 0.8292020024554017
0.3963726005482833 0.5188748085321058 0.8002707134342567
0.37144167247157134 0.3830693873521554 0.9062533021226948
0.5208054441855563 0.5226750235903651 0.896071817631471
0.7286196436183753 0.39476616583692287 0.8292020024554017
0.5963726005482833 0.5188748085321058 0.8002707134342567
0.5714416724715713 0.3830693873521554 0.9062533021226948
0.7208054441855563 0.5226750235903651 0.896071817631471
0.9286196436183753 0.39476616583692287 0.8292020024554017
0.7963726005482834 0.5188748085321058 0.8002707134342567
0.7714416724715714 0.3830693873521554 0.9062533021226948
0.9208054441855563 0.5226750235903651 0.896071817631471
0.12861964361837522 0.5947661658369229 0.8292020024554017
-0.0036273994517166674 0.7188748085321057 0.8002707134342567
-0.028558327528428698 0.5830693873521554 0.9062533021226948
0.1208054441855563 0.7226750235903651 0.896071817631471
0.32861964361837526 0.5947661658369229 0.8292020024554017
0.19637260054828334 0.7188748085321057 0.8002707134342567
0.17144167247157133 0.5830693873521554 0.9062533021226948
0.32080544418555634 0.7226750235903651 0.896071817631471
0.5286196436183753 0.5947661658369229 0.8292020024554017
0.3963726005482833 0.7188748085321057 0.8002707134342567
0.37144167247157134 0.5830693873521554 0.9062533021226948
0.5208054441855563 0.7226750235903651 0.896071817631471
0.7286196436183753 0.5947661658369229 0.8292020024554017
0.5963726005482833 0.7188748085321057 0.8002707134342567
0.5714416724715713 0.5830693873521554 0.9062533021226948
0.7208054441855563 0.7226750235903651 0.896071817631471
0.9286196436183753 0.5947661658369229 0.8292020024554017
0.7963726005482834 0.7188748085321057 0.8002707134342567
0.7714416724715714 0.5830693873521554 0.9062533021226948
0.9208054441855563 0.7226750235903651 0.896071817631471
0.12861964361837522 0.7947661658369229 0.8292020024554017
-0.0036273994517166674 0.9188748085321058 0.8002707134342567
-0.028558327528428698 0.7830693873521555 0.9062533021226948
0.1208054441855563 0.922675023590365 0.896071817631471
0.32861964361837526 0.7947661658369229 0.8292020024554017
0.19637260054828334 0.9188748085321058 0.8002707134342567
0.17144167247157133 0.7830693873521555 0.9062533021226948
0.32080544418555634 0.922675023590365 0.896071817631471
0.5286196436183753 0.7947661658369229 0.8292020024554017
0.3963726005482833 0.9188748085321058 0.8002707134342567
0.37144167247157134 0.7830693873521555 0.9062533021226948
0.5208054441855563 0.922675023590365 0.896071817631471
0.7286196436183753 0.7947661658369229 0.8292020024554017
0.5963726005482833 0.9188748085321058 0.8002707134342567
0.5714416724715713 0.7830693873521555 0.9062533021226948
0.7208054441855563 0.922675023590365 0.896071817631471
0.9286196436183753 0.7947661658369229 0.8292020024554017
0.7963726005482834 0.9188748085321058 0.8002707134342567
0.7714416724715714 0.7830693873521555 0.9062533021226948
0.9208054441855563 0.922675023590365 0.896071817631471
