FCC BaO
5.61604
3.0923999999999996 0.0 0.0
0.0 3.0923999999999996 0.0
0.0 0.0 3.56
Ba O 
144 144 
Direct
0.0 0.0 0.0
0.0 0.16666666666666666 0.125
0.16666666666666666 0.0 0.125
0.16666666666666666 0.16666666666666666 0.0
0.3333333333333333 0.0 0.0
0.3333333333333333 0.16666666666666666 0.125
0.5 0.0 0.125
0.5 0.16666666666666666 0.0
0.6666666666666666 0.0 0.0
0.6666666666666666 0.16666666666666666 0.125
0.8333333333333333 0.0 0.125
0.8333333333333333 0.16666666666666666 0.0
0.0 0.3333333333333333 0.0
0.0 0.5 0.125
0.16666666666666666 0.3333333333333333 0.125
0.16666666666666666 0.5 0.0
0.3333333333333333 0.3333333333333333 0.0
0.3333333333333333 0.5 0.125
0.5 0.3333333333333333 0.125
0.5 0.5 0.0
0.6666666666666666 0.3333333333333333 0.0
0.6666666666666666 0.5 0.125
0.8333333333333333 0.3333333333333333 0.125
0.8333333333333333 0.5 0.0
0.0 0.6666666666666666 0.0
0.0 0.8333333333333333 0.125
0.16666666666666666 0.6666666666666666 0.125
0.16666666666666666 0.8333333333333333 0.0
0.3333333333333333 0.6666666666666666 0.0
0.3333333333333333 0.8333333333333333 0.125
0.5 0.6666666666666666 0.125
0.5 0.8333333333333333 0.0
0.6666666666666666 0.6666666666666666 0.0
0.6666666666666666 0.8333333333333333 0.125
0.8333333333333333 0.6666666666666666 0.125
0.8333333333333333 0.8333333333333333 0.0
0.0 0.0 0.25
0.0 0.16666666666666666 0.375
0.16666666666666666 0.0 0.375
0.16666666666666666 0.16666666666666666 0.25
0.3333333333333333 0.0 0.25
0.3333333333333333 0.16666666666666666 0.375
0.5 0.0 0.375
0.5 0.16666666666666666 0.25
0.6666666666666666 0.0 0.25
0.6666666666666666 0.16666666666666666 0.375
0.8333333333333333 0.0 0.375
0.8333333333333333 0.16666666666666666 0.25
0.0 0.3333333333333333 0.25
0.0 0.5 0.375
0.16666666666666666 0.3333333333333333 0.375
0.16666666666666666 0.5 0.25
0.3333333333333333 0.3333333333333333 0.25
0.3333333333333333 0.5 0.375
0.5 0.3333333333333333 0.375
0.5 0.5 0.25
0.6666666666666666 0.3333333333333333 0.25
0.6666666666666666 0.5 0.375
0.8333333333333333 0.3333333333333333 0.375
0.8333333333333333 0.5 0.25
0.0 0.6666666666666666 0.25
0.0 0.8333333333333333 0.375
0.16666666666666666 0.6666666666666666 0.375
0.16666666666666666 0.8333333333333333 0.25
0.3333333333333333 0.6666666666666666 0.25
0.3333333333333333 0.8333333333333333 0.375
0.5 0.6666666666666666 0.375
0.5 0.8333333333333333 0.25
0.6666666666666666 0.6666666666666666 0.25
0.6666666666666666 0.8333333333333333 0.375
0.8333333333333333 0.6666666666666666 0.375
0.8333333333333333 0.8333333333333333 0.25
0.0 0.0 0.5
0.0 0.16666666666666666 0.625
0.16666666666666666 0.0 0.625
0.16666666666666666 0.16666666666666666 0.5
0.3333333333333333 0.0 0.5
0.3333333333333333 0.16666666666666666 0.625
0.5 0.0 0.625
0.5 0.16666666666666666 0.5
0.6666666666666666 0.0 0.5
0.6666666666666666 0.16666666666666666 0.625
0.8333333333333333 0.0 0.625
0.8333333333333333 0.16666666666666666 0.5
0.0 0.3333333333333333 0.5
0.0 0.5 0.625
0.16666666666666666 0.3333333333333333 0.625
0.16666666666666666 0.5 0.5
0.3333333333333333 0.3333333333333333 0.5
0.3333333333333333 0.5 0.625
0.5 0.3333333333333333 0.625
0.5 0.5 0.5
0.6666666666666666 0.3333333333333333 0.5
0.6666666666666666 0.5 0.625
0.8333333333333333 0.3333333333333333 0.625
0.8333333333333333 0.5 0.5
0.0 0.6666666666666666 0.5
0.0 0.8333333333333333 0.625
0.16666666666666666 0.6666666666666666 0.625
0.16666666666666666 0.8333333333333333 0.5
0.3333333333333333 0.6666666666666666 0.5
0.3333333333333333 0.8333333333333333 0.625
0.5 0.6666666666666666 0.625
0.5 0.8333333333333333 0.5
0.6666666666666666 0.6666666666666666 0.5
0.6666666666666666 0.8333333333333333 0.625
0.8333333333333333 0.6666666666666666 0.625
0.8333333333333333 0.8333333333333333 0.5
0.0 0.0 0.75
0.0 0.16666666666666666 0.875
0.16666666666666666 0.0 0.875
0.16666666666666666 0.16666666666666666 0.75
0.3333333333333333 0.0 0.75
0.3333333333333333 0.16666666666666666 0.875
0.5 0.0 0.875
0.5 0.16666666666666666 0.75
0.6666666666666666 0.0 0.75
0.6666666666666666 0.16666666666666666 0.875
0.8333333333333333 0.0 0.875
0.8333333333333333 0.16666666666666666 0.75
0.0 0.3333333333333333 0.75
0.0 0.5 0.875
0.16666666666666666 0.3333333333333333 0.875
0.16666666666666666 0.5 0.75
0.3333333333333333 0.3333333333333333 0.75
0.3333333333333333 0.5 0.875
0.5 0.3333333333333333 0.875
0.5 0.5 0.75
0.6666666666666666 0.3333333333333333 0.75
0.6666666666666666 0.5 0.875
0.8333333333333333 0.3333333333333333 0.875
0.8333333333333333 0.5 0.75
0.0 0.6666666666666666 0.75
0.0 0.8333333333333333 0.875
0.16666666666666666 0.6666666666666666 0.875
0.16666666666666666 0.8333333333333333 0.75
0.3333333333333333 0.6666666666666666 0.75
0.3333333333333333 0.8333333333333333 0.875
0.5 0.6666666666666666 0.875
0.5 0.8333333333333333 0.75
0.6666666666666666 0.6666666666666666 0.75
0.6666666666666666 0.8333333333333333 0.875
0.8333333333333333 0.6666666666666666 0.875
0.8333333333333333 0.8333333333333333 0.75
0.16666666666666666 0.0 0.0
0.0 0.16666666666666666 0.0
0.0 0.0 0.125
0.16666666666666666 0.16666666666666666 0.125
0.5 0.0 0.0
0.3333333333333333 0.16666666666666666 0.0
0.3333333333333333 0.0 0.125
0.5 0.16666666666666666 0.125
0.8333333333333333 0.0 0.0
0.6666666666666666 0.16666666666666666 0.0
0.6666666666666666 0.0 0.125
0.8333333333333333 0.16666666666666666 0.125
0.16666666666666666 0.3333333333333333 0.0
0.0 0.5 0.0
0.0 0.3333333333333333 0.125
0.16666666666666666 0.5 0.125
0.5 0.3333333333333333 0.0
0.3333333333333333 0.5 0.0
0.3333333333333333 0.3333333333333333 0.125
0.5 0.5 0.125
0.8333333333333333 0.3333333333333333 0.0
0.6666666666666666 0.5 0.0
0.6666666666666666 0.3333333333333333 0.125
0.8333333333333333 0.5 0.125
0.16666666666666666 0.6666666666666666 0.0
0.0 0.8333333333333333 0.0
0.0 0.6666666666666666 0.125
0.16666666666666666 0.8333333333333333 0.125
0.5 0.6666666666666666 0.0
0.3333333333333333 0.8333333333333333 0.0
0.3333333333333333 0.6666666666666666 0.125
0.5 0.8333333333333333 0.125
0.8333333333333333 0.6666666666666666 0.0
0.6666666666666666 0.8333333333333333 0.0
0.6666666666666666 0.6666666666666666 0.125
0.8333333333333333 0.8333333333333333 0.125
0.16666666666666666 0.0 0.25
0.0 0.16666666666666666 0.25
0.0 0.0 0.375
0.16666666666666666 0.16666666666666666 0.375
0.5 0.0 0.25
0.3333333333333333 0.16666666666666666 0.25
0.3333333333333333 0.0 0.375
0.5 0.16666666666666666 0.375
0.8333333333333333 0.0 0.25
0.6666666666666666 0.16666666666666666 0.25
0.6666666666666666 0.0 0.375
0.8333333333333333 0.16666666666666666 0.375
0.16666666666666666 0.3333333333333333 0.25
0.0 0.5 0.25
0.0 0.3333333333333333 0.375
0.16666666666666666 0.5 0.375
0.5 0.3333333333333333 0.25
0.3333333333333333 0.5 0.25
0.3333333333333333 0.3333333333333333 0.375
0.5 0.5 0.375
0.8333333333333333 0.3333333333333333 0.25
0.6666666666666666 0.5 0.25
0.6666666666666666 0.3333333333333333 0.375
0.8333333333333333 0.5 0.375
0.16666666666666666 0.6666666666666666 0.25
0.0 0.8333333333333333 0.25
0.0 0.6666666666666666 0.375
0.16666666666666666 0.8333333333333333 0.375
0.5 0.6666666666666666 0.25
0.3333333333333333 0.8333333333333333 0.25
0.3333333333333333 0.6666666666666666 0.375
0.5 0.8333333333333333 0.375
0.8333333333333333 0.6666666666666666 0.25
0.6666666666666666 0.8333333333333333 0.25
0.6666666666666666 0.6666666666666666 0.375
0.8333333333333333 0.8333333333333333 0.375
0.16666666666666666 0.0 0.5
0.0 0.16666666666666666 0.5
0.0 0.0 0.625
0.16666666666666666 0.16666666666666666 0.625
0.5 0.0 0.5
0.3333333333333333 0.16666666666666666 0.5
0.3333333333333333 0.0 0.625
0.5 0.16666666666666666 0.625
0.8333333333333333 0.0 0.5
0.6666666666666666 0.16666666666666666 0.5
0.6666666666666666 0.0 0.625
0.8333333333333333 0.16666666666666666 0.625
0.16666666666666666 0.3333333333333333 0.5
0.0 0.5 0.5
0.0 0.3333333333333333 0.625
0.16666666666666666 0.5 0.625
0.5 0.3333333333333333 0.5
0.3333333333333333 0.5 0.5
0.3333333333333333 0.3333333333333333 0.625
0.5 0.5 0.625
0.8333333333333333 0.3333333333333333 0.5
0.6666666666666666 0.5 0.5
0.6666666666666666 0.3333333333333333 0.625
0.8333333333333333 0.5 0.625
0.16666666666666666 0.6666666666666666 0.5
0.0 0.8333333333333333 0.5
0.0 0.6666666666666666 0.625
0.16666666666666666 0.8333333333333333 0.625
0.5 0.6666666666666666 0.5
0.3333333333333333 0.8333333333333333 0.5
0.3333333333333333 0.6666666666666666 0.625
0.5 0.8333333333333333 0.625
0.8333333333333333 0.6666666666666666 0.5
0.6666666666666666 0.8333333333333333 0.5
0.6666666666666666 0.6666666666666666 0.625
0.8333333333333333 0.8333333333333333 0.625
0.16666666666666666 0.0 0.75
0.0 0.16666666666666666 0.75
0.0 0.0 0.875
0.16666666666666666 0.16666666666666666 0.875
0.5 0.0 0.75
0.3333333333333333 0.16666666666666666 0.75
0.3333333333333333 0.0 0.875
0.5 0.16666666666666666 0.875
0.8333333333333333 0.0 0.75
0.6666666666666666 0.16666666666666666 0.75
0.6666666666666666 0.0 0.875
0.8333333333333333 0.16666666666666666 0.875
0.16666666666666666 0.3333333333333333 0.75
0.0 0.5 0.75
0.0 0.3333333333333333 0.875
0.16666666666666666 0.5 0.875
0.5 0.3333333333333333 0.75
0.3333333333333333 0.5 0.75
0.3333333333333333 0.3333333333333333 0.875
0.5 0.5 0.875
0.8333333333333333 0.3333333333333333 0.75
0.6666666666666666 0.5 0.75
0.6666666666666666 0.3333333333333333 0.875
0.8333333333333333 0.5 0.875
0.16666666666666666 0.6666666666666666 0.75
0.0 0.8333333333333333 0.75
0.0 0.6666666666666666 0.875
0.16666666666666666 0.8333333333333333 0.875
0.5 0.6666666666666666 0.75
0.3333333333333333 0.8333333333333333 0.75
0.3333333333333333 0.6666666666666666 0.875
0.5 0.8333333333333333 0.875
0.8333333333333333 0.6666666666666666 0.75
0.6666666666666666 0.8333333333333333 0.75
0.6666666666666666 0.6666666666666666 0.875
0.8333333333333333 0.8333333333333333 0.875
