FCC BaO
5.61604
3.0 0.0 0.0
0.0 3.0 0.0
0.0 0.0 3.0
Ba O 
108 108 
Direct
-0.3533925595276335 0.3645768017992868 -0.5572402483090522
0.04197964459893575 -0.334200623285037 -0.19458666134654626
-0.5668525078012054 0.43012636517327324 -0.6327527106850324
-0.29526712547132006 -0.894592631024645 -0.021487928152960235
-0.020059226194300152 0.3645768017992868 -0.5572402483090522
0.3753129779322691 -0.334200623285037 -0.19458666134654626
-0.23351917446787218 0.43012636517327324 -0.6327527106850324
0.038066207862013236 -0.894592631024645 -0.021487928152960235
0.31327410713903314 0.3645768017992868 -0.5572402483090522
0.7086463112656023 -0.334200623285037 -0.19458666134654626
0.09981415886546115 0.43012636517327324 -0.6327527106850324
0.37139954119534657 -0.894592631024645 -0.021487928152960235
-0.3533925595276335 0.6979101351326201 -0.5572402483090522
0.04197964459893575 -0.0008672899517037091 -0.19458666134654626
-0.5668525078012054 0.7634596985066066 -0.6327527106850324
-0.29526712547132006 -0.5612592976913118 -0.021487928152960235
-0.020059226194300152 0.6979101351326201 -0.5572402483090522
0.3753129779322691 -0.0008672899517037091 -0.19458666134654626
-0.23351917446787218 0.7634596985066066 -0.6327527106850324
0.038066207862013236 -0.5612592976913118 -0.021487928152960235
0.31327410713903314 0.6979101351326201 -0.5572402483090522
0.7086463112656023 -0.0008672899517037091 -0.19458666134654626
0.09981415886546115 0.7634596985066066 -0.6327527106850324
0.37139954119534657 -0.5612592976913118 -0.021487928152960235
-0.3533925595276335 1.0312434684659535 -0.5572402483090522
0.04197964459893575 0.3324660433816296 -0.19458666134654626
-0.5668525078012054 1.09679303183994 -0.6327527106850324
-0.29526712547132006 -0.22792596435797843 -0.021487928152960235
-0.020059226194300152 1.0312434684659535 -0.5572402483090522
0.3753129779322691 0.3324660433816296 -0.19458666134654626
-0.23351917446787218 1.09679303183994 -0.6327527106850324
0.038066207862013236 -0.22792596435797843 -0.021487928152960235
0.31327410713903314 1.0312434684659535 -0.5572402483090522
0.7086463112656023 0.3324660433816296 -0.19458666134654626
0.09981415886546115 1.09679303183994 -0.6327527106850324
0.37139954119534657 -0.22792596435797843 -0.021487928152960235
-0.3533925595276335 0.3645768017992868 -0.2239069149757189
0.04197964459893575 -0.334200623285037 0.13874667198678706
-0.5668525078012054 0.43012636517327324 -0.2994193773516991
-0.29526712547132006 -0.894592631024645 0.31184540518037307
-0.020059226194300152 0.3645768017992868 -0.2239069149757189
0.3753129779322691 -0.334200623285037 0.13874667198678706
-0.23351917446787218 0.43012636517327324 -0.2994193773516991
0.038066207862013236 -0.894592631024645 0.31184540518037307
0.31327410713903314 0.3645768017992868 -0.2239069149757189
0.7086463112656023 -0.334200623285037 0.13874667198678706
0.09981415886546115 0.43012636517327324 -0.2994193773516991
0.37139954119534657 -0.894592631024645 0.31184540518037307
-0.3533925595276335 0.6979101351326201 -0.2239069149757189
0.04197964459893575 -0.0008672899517037091 0.13874667198678706
-0.5668525078012054 0.7634596985066066 -0.2994193773516991
-0.29526712547132006 -0.5612592976913118 0.31184540518037307
-0.020059226194300152 0.6979101351326201 -0.2239069149757189
0.3753129779322691 -0.0008672899517037091 0.13874667198678706
-0.23351917446787218 0.7634596985066066 -0.2994193773516991
0.038066207862013236 -0.5612592976913118 0.31184540518037307
0.31327410713903314 0.6979101351326201 -0.2239069149757189
0.7086463112656023 -0.0008672899517037091 0.13874667198678706
0.09981415886546115 0.7634596985066066 -0.2994193773516991
0.37139954119534657 -0.5612592976913118 0.31184540518037307
-0.3533925595276335 1.0312434684659535 -0.2239069149757189
0.04197964459893575 0.3324660433816296 0.13874667198678706
-0.5668525078012054 1.09679303183994 -0.2994193773516991
-0.29526712547132006 -0.22792596435797843 0.31184540518037307
-0.020059226194300152 1.0312434684659535 -0.2239069149757189
0.3753129779322691 0.3324660433816296 0.13874667198678706
-0.23351917446787218 1.09679303183994 -0.2994193773516991
0.038066207862013236 -0.22792596435797843 0.31184540518037307
0.31327410713903314 1.0312434684659535 -0.2239069149757189
0.7086463112656023 0.3324660433816296 0.13874667198678706
0.09981415886546115 1.09679303183994 -0.2994193773516991
0.37139954119534657 -0.22792596435797843 0.31184540518037307
-0.3533925595276335 0.3645768017992868 0.10942641835761442
0.04197964459893575 -0.334200623285037 0.4720800053201204
-0.5668525078012054 0.43012636517327324 0.03391395598163423
-0.29526712547132006 -0.894592631024645 0.6451787385137064
-0.020059226194300152 0.3645768017992868 0.10942641835761442
0.3753129779322691 -0.334200623285037 0.4720800053201204
-0.23351917446787218 0.43012636517327324 0.03391395598163423
0.038066207862013236 -0.894592631024645 0.6451787385137064
0.31327410713903314 0.3645768017992868 0.10942641835761442
0.7086463112656023 -0.334200623285037 0.4720800053201204
0.09981415886546115 0.43012636517327324 0.03391395598163423
0.37139954119534657 -0.894592631024645 0.6451787385137064
-0.3533925595276335 0.6979101351326201 0.10942641835761442
0.04197964459893575 -0.0008672899517037091 0.4720800053201204
-0.5668525078012054 0.7634596985066066 0.03391395598163423
-0.29526712547132006 -0.5612592976913118 0.6451787385137064
-0.020059226194300152 0.6979101351326201 0.10942641835761442
0.3753129779322691 -0.0008672899517037091 0.4720800053201204
-0.23351917446787218 0.7634596985066066 0.03391395598163423
0.038066207862013236 -0.5612592976913118 0.6451787385137064
0.31327410713903314 0.6979101351326201 0.10942641835761442
0.7086463112656023 -0.0008672899517037091 0.4720800053201204
0.09981415886546115 0.7634596985066066 0.03391395598163423
0.37139954119534657 -0.5612592976913118 0.6451787385137064
-0.3533925595276335 1.0312434684659535 0.10942641835761442
0.04197964459893575 0.3324660433816296 0.4720800053201204
-0.5668525078012054 1.09679303183994 0.03391395598163423
-0.29526712547132006 -0.22792596435797843 0.6451787385137064
-0.020059226194300152 1.0312434684659535 0.10942641835761442
0.3753129779322691 0.3324660433816296 0.4720800053201204
-0.23351917446787218 1.09679303183994 0.03391395598163423
0.038066207862013236 -0.22792596435797843 0.6451787385137064
0.31327410713903314 1.0312434684659535 0.10942641835761442
0.7086463112656023 0.3324660433816296 0.4720800053201204
0.09981415886546115 1.09679303183994 0.03391395598163423
0.37139954119534657 -0.22792596435797843 0.6451787385137064
0.2886780445894246 -0.14227701213591631 0.3077725012622281
0.38123368989277867 -0.422217866338795 -0.43467242066432604
0.025276192904582693 0.4540132573791935 0.8074423422096066
0.033282723665583505 0.4246482376109054 0.25133377645528576
0.6220113779227578 -0.14227701213591631 0.3077725012622281
0.714567023226112 -0.422217866338795 -0.43467242066432604
0.358609526237916 0.4540132573791935 0.8074423422096066
0.3666160569989168 0.4246482376109054 0.25133377645528576
0.9553447112560912 -0.14227701213591631 0.3077725012622281
1.0479003565594454 -0.422217866338795 -0.43467242066432604
0.6919428595712493 0.4540132573791935 0.8074423422096066
0.6999493903322502 0.4246482376109054 0.25133377645528576
0.2886780445894246 0.191056321197417 0.3077725012622281
0.38123368989277867 -0.08888453300546165 -0.43467242066432604
0.025276192904582693 0.7873465907125269 0.8074423422096066
0.033282723665583505 0.7579815709442388 0.25133377645528576
0.6220113779227578 0.191056321197417 0.3077725012622281
0.714567023226112 -0.08888453300546165 -0.43467242066432604
0.358609526237916 0.7873465907125269 0.8074423422096066
0.3666160569989168 0.7579815709442388 0.25133377645528576
0.9553447112560912 0.191056321197417 0.3077725012622281
1.0479003565594454 -0.08888453300546165 -0.43467242066432604
0.6919428595712493 0.7873465907125269 0.8074423422096066
0.6999493903322502 0.7579815709442388 0.25133377645528576
0.2886780445894246 0.5243896545307503 0.3077725012622281
0.38123368989277867 0.24444880032787167 -0.43467242066432604
0.025276192904582693 1.1206799240458603 0.8074423422096066
0.033282723665583505 1.091314904277572 0.25133377645528576
0.6220113779227578 0.5243896545307503 0.3077725012622281
0.714567023226112 0.24444880032787167 -0.43467242066432604
0.358609526237916 1.1206799240458603 0.8074423422096066
0.3666160569989168 1.091314904277572 0.25133377645528576
0.9553447112560912 0.5243896545307503 0.3077725012622281
1.0479003565594454 0.24444880032787167 -0.43467242066432604
0.6919428595712493 1.1206799240458603 0.8074423422096066
0.6999493903322502 1.091314904277572 0.25133377645528576
0.2886780445894246 -0.14227701213591631 0.6411058345955614
0.38123368989277867 -0.422217866338795 -0.10133908733099273
0.025276192904582693 0.4540132573791935 1.14077567554294
0.033282723665583505 0.4246482376109054 0.5846671097886191
0.6220113779227578 -0.14227701213591631 0.6411058345955614
0.714567023226112 -0.422217866338795 -0.10133908733099273
0.358609526237916 0.4540132573791935 1.14077567554294
0.3666160569989168 0.4246482376109054 0.5846671097886191
0.9553447112560912 -0.14227701213591631 0.6411058345955614
1.0479003565594454 -0.422217866338795 -0.10133908733099273
0.6919428595712493 0.4540132573791935 1.14077567554294
0.6999493903322502 0.4246482376109054 0.5846671097886191
0.2886780445894246 0.191056321197417 0.6411058345955614
0.38123368989277867 -0.08888453300546165 -0.10133908733099273
0.025276192904582693 0.7873465907125269 1.14077567554294
0.033282723665583505 0.7579815709442388 0.5846671097886191
0.6220113779227578 0.191056321197417 0.6411058345955614
0.714567023226112 -0.08888453300546165 -0.10133908733099273
0.358609526237916 0.7873465907125269 1.14077567554294
0.3666160569989168 0.7579815709442388 0.5846671097886191
0.9553447112560912 0.191056321197417 0.6411058345955614
1.0479003565594454 -0.08888453300546165 -0.10133908733099273
0.6919428595712493 0.7873465907125269 1.14077567554294
0.6999493903322502 0.7579815709442388 0.5846671097886191
0.2886780445894246 0.5243896545307503 0.6411058345955614
0.38123368989277867 0.24444880032787167 -0.10133908733099273
0.025276192904582693 1.1206799240458603 1.14077567554294
0.033282723665583505 1.091314904277572 0.5846671097886191
0.6220113779227578 0.5243896545307503 0.6411058345955614
0.714567023226112 0.24444880032787167 -0.10133908733099273
0.358609526237916 1.1206799240458603 1.14077567554294
0.3666160569989168 1.091314904277572 0.5846671097886191
0.9553447112560912 0.5243896545307503 0.6411058345955614
1.0479003565594454 0.24444880032787167 -0.10133908733099273
0.6919428595712493 1.1206799240458603 1.14077567554294
0.6999493903322502 1.091314904277572 0.5846671097886191
0.2886780445894246 -0.14227701213591631 0.9744391679288947
0.38123368989277867 -0.422217866338795 0.2319942460023406
0.025276192904582693 0.4540132573791935 1.4741090088762734
0.033282723665583505 0.4246482376109054 0.9180004431219524
0.6220113779227578 -0.14227701213591631 0.9744391679288947
0.714567023226112 -0.422217866338795 0.2319942460023406
0.358609526237916 0.4540132573791935 1.4741090088762734
0.3666160569989168 0.4246482376109054 0.9180004431219524
0.9553447112560912 -0.14227701213591631 0.9744391679288947
1.0479003565594454 -0.422217866338795 0.2319942460023406
0.6919428595712493 0.4540132573791935 1.4741090088762734
0.6999493903322502 0.4246482376109054 0.9180004431219524
0.2886780445894246 0.191056321197417 0.9744391679288947
0.38123368989277867 -0.08888453300546165 0.2319942460023406
0.025276192904582693 0.7873465907125269 1.4741090088762734
0.033282723665583505 0.7579815709442388 0.9180004431219524
0.6220113779227578 0.191056321197417 0.9744391679288947
0.714567023226112 -0.08888453300546165 0.2319942460023406
0.358609526237916 0.7873465907125269 1.4741090088762734
0.3666160569989168 0.7579815709442388 0.9180004431219524
0.9553447112560912 0.191056321197417 0.9744391679288947
1.0479003565594454 -0.08888453300546165 0.2319942460023406
0.6919428595712493 0.7873465907125269 1.4741090088762734
0.6999493903322502 0.7579815709442388 0.9180004431219524
0.2886780445894246 0.5243896545307503 0.9744391679288947
0.38123368989277867 0.24444880032787167 0.2319942460023406
0.025276192904582693 1.1206799240458603 1.4741090088762734
0.033282723665583505 1.091314904277572 0.9180004431219524
0.6220113779227578 0.5243896545307503 0.9744391679288947
0.714567023226112 0.24444880032787167 0.2319942460023406
0.358609526237916 1.1206799240458603 1.4741090088762734
0.3666160569989168 1.091314904277572 0.9180004431219524
0.9553447112560912 0.5243896545307503 0.9744391679288947
1.0479003565594454 0.24444880032787167 0.2319942460023406
0.6919428595712493 1.1206799240458603 1.4741090088762734
0.6999493903322502 1.091314904277572 0.9180004431219524
