FCC BaO
5.61604
3.0 0.0 0.0
0.0 3.0 0.0
0.0 0.0 3.0
Ba O 
108 108 
Direct
0.011456441718449076 0.013850844318823935 0.135229134061316
-0.07561787869336933 0.2650107848758355 -0.03521650374806138
0.44922355526221824 0.3030574606722936 0.06338514150141909
0.036362148833674626 0.19415218413520496 0.039987813567431134
0.3447897750517824 0.013850844318823935 0.135229134061316
0.257715454639964 0.2650107848758355 -0.03521650374806138
0.7825568885955516 0.3030574606722936 0.06338514150141909
0.369695482167008 0.19415218413520496 0.039987813567431134
0.6781231083851158 0.013850844318823935 0.135229134061316
0.5910487879732973 0.2650107848758355 -0.03521650374806138
1.1158902219288849 0.3030574606722936 0.06338514150141909
0.7030288155003412 0.19415218413520496 0.039987813567431134
0.011456441718449076 0.34718417765215726 0.135229134061316
-0.07561787869336933 0.5983441182091689 -0.03521650374806138
0.44922355526221824 0.6363907940056269 0.06338514150141909
0.036362148833674626 0.5274855174685382 0.039987813567431134
0.3447897750517824 0.34718417765215726 0.135229134061316
0.257715454639964 0.5983441182091689 -0.03521650374806138
0.7825568885955516 0.6363907940056269 0.06338514150141909
0.369695482167008 0.5274855174685382 0.039987813567431134
0.6781231083851158 0.34718417765215726 0.135229134061316
0.5910487879732973 0.5983441182091689 -0.03521650374806138
1.1158902219288849 0.6363907940056269 0.06338514150141909
0.7030288155003412 0.5274855174685382 0.039987813567431134
0.011456441718449076 0.6805175109854905 0.135229134061316
-0.07561787869336933 0.9316774515425023 -0.03521650374806138
0.44922355526221824 0.9697241273389603 0.06338514150141909
0.036362148833674626 0.8608188508018717 0.039987813567431134
0.3447897750517824 0.6805175109854905 0.135229134061316
0.257715454639964 0.9316774515425023 -0.03521650374806138
0.7825568885955516 0.9697241273389603 0.06338514150141909
0.369695482167008 0.8608188508018717 0.039987813567431134
0.6781231083851158 0.6805175109854905 0.135229134061316
0.5910487879732973 0.9316774515425023 -0.03521650374806138
1.1158902219288849 0.9697241273389603 0.06338514150141909
0.7030288155003412 0.8608188508018717 0.039987813567431134
0.011456441718449076 0.013850844318823935 0.46856246739464935
-0.07561787869336933 0.2650107848758355 0.2981168295852719
0.44922355526221824 0.3030574606722936 0.3967184748347524
0.036362148833674626 0.19415218413520496 0.37332114690076446
0.3447897750517824 0.013850844318823935 0.46856246739464935
0.257715454639964 0.2650107848758355 0.2981168295852719
0.7825568885955516 0.3030574606722936 0.3967184748347524
0.369695482167008 0.19415218413520496 0.37332114690076446
0.6781231083851158 0.013850844318823935 0.46856246739464935
0.5910487879732973 0.2650107848758355 0.2981168295852719
1.1158902219288849 0.3030574606722936 0.3967184748347524
0.7030288155003412 0.19415218413520496 0.37332114690076446
0.011456441718449076 0.34718417765215726 0.46856246739464935
-0.07561787869336933 0.5983441182091689 0.2981168295852719
0.44922355526221824 0.6363907940056269 0.3967184748347524
0.036362148833674626 0.5274855174685382 0.37332114690076446
0.3447897750517824 0.34718417765215726 0.46856246739464935
0.257715454639964 0.5983441182091689 0.2981168295852719
0.7825568885955516 0.6363907940056269 0.3967184748347524
0.369695482167008 0.5274855174685382 0.37332114690076446
0.6781231083851158 0.34718417765215726 0.46856246739464935
0.5910487879732973 0.5983441182091689 0.2981168295852719
1.1158902219288849 0.6363907940056269 0.3967184748347524
0.7030288155003412 0.5274855174685382 0.37332114690076446
0.011456441718449076 0.6805175109854905 0.46856246739464935
-0.07561787869336933 0.9316774515425023 0.2981168295852719
0.44922355526221824 0.9697241273389603 0.3967184748347524
0.036362148833674626 0.8608188508018717 0.37332114690076446
0.3447897750517824 0.6805175109854905 0.46856246739464935
0.257715454639964 0.9316774515425023 0.2981168295852719
0.7825568885955516 0.9697241273389603 0.3967184748347524
0.369695482167008 0.8608188508018717 0.37332114690076446
0.6781231083851158 0.6805175109854905 0.46856246739464935
0.5910487879732973 0.9316774515425023 0.2981168295852719
1.1158902219288849 0.9697241273389603 0.3967184748347524
0.7030288155003412 0.8608188508018717 0.37332114690076446
0.011456441718449076 0.013850844318823935 0.8018958007279826
-0.07561787869336933 0.2650107848758355 0.6314501629186052
0.44922355526221824 0.3030574606722936 0.7300518081680858
0.036362148833674626 0.19415218413520496 0.7066544802340978
0.3447897750517824 0.013850844318823935 0.8018958007279826
0.257715454639964 0.2650107848758355 0.6314501629186052
0.7825568885955516 0.3030574606722936 0.7300518081680858
0.369695482167008 0.19415218413520496 0.7066544802340978
0.6781231083851158 0.013850844318823935 0.8018958007279826
0.5910487879732973 0.2650107848758355 0.6314501629186052
1.1158902219288849 0.3030574606722936 0.7300518081680858
0.7030288155003412 0.19415218413520496 0.7066544802340978
0.011456441718449076 0.34718417765215726 0.8018958007279826
-0.07561787869336933 0.5983441182091689 0.6314501629186052
0.44922355526221824 0.6363907940056269 0.7300518081680858
0.036362148833674626 0.5274855174685382 0.7066544802340978
0.3447897750517824 0.34718417765215726 0.8018958007279826
0.257715454639964 0.5983441182091689 0.6314501629186052
0.7825568885955516 0.6363907940056269 0.7300518081680858
0.369695482167008 0.5274855174685382 0.7066544802340978
0.6781231083851158 0.34718417765215726 0.8018958007279826
0.5910487879732973 0.5983441182091689 0.6314501629186052
1.1158902219288849 0.6363907940056269 0.7300518081680858
0.7030288155003412 0.5274855174685382 0.7066544802340978
0.011456441718449076 0.6805175109854905 0.8018958007279826
-0.07561787869336933 0.9316774515425023 0.6314501629186052
0.44922355526221824 0.9697241273389603 0.7300518081680858
0.036362148833674626 0.8608188508018717 0.7066544802340978
0.3447897750517824 0.6805175109854905 0.8018958007279826
0.257715454639964 0.9316774515425023 0.6314501629186052
0.7825568885955516 0.9697241273389603 0.7300518081680858
0.369695482167008 0.8608188508018717 0.7066544802340978
0.6781231083851158 0.6805175109854905 0.8018958007279826
0.5910487879732973 0.9316774515425023 0.6314501629186052
1.1158902219288849 0.9697241273389603 0.7300518081680858
0.7030288155003412 0.8608188508018717 0.7066544802340978
0.09638153020034053 0.16556623504923823 -0.1206370445491618
-0.43163194030165086 0.19750290715702715 0.35703309653183013
-0.12556277352613282 -0.10784376558784464 0.2367890400708645
0.32832629788606077 0.10287984261880229 0.08315915554452952
0.4297148635336739 0.16556623504923823 -0.1206370445491618
-0.09829860696831752 0.19750290715702715 0.35703309653183013
0.20777055980720052 -0.10784376558784464 0.2367890400708645
0.6616596312193941 0.10287984261880229 0.08315915554452952
0.7630481968670072 0.16556623504923823 -0.1206370445491618
0.2350347263650158 0.19750290715702715 0.35703309653183013
0.5411038931405339 -0.10784376558784464 0.2367890400708645
0.9949929645527275 0.10287984261880229 0.08315915554452952
0.09638153020034053 0.49889956838257155 -0.1206370445491618
-0.43163194030165086 0.5308362404903605 0.35703309653183013
-0.12556277352613282 0.22548956774548867 0.2367890400708645
0.32832629788606077 0.4362131759521356 0.08315915554452952
0.4297148635336739 0.49889956838257155 -0.1206370445491618
-0.09829860696831752 0.5308362404903605 0.35703309653183013
0.20777055980720052 0.22548956774548867 0.2367890400708645
0.6616596312193941 0.4362131759521356 0.08315915554452952
0.7630481968670072 0.49889956838257155 -0.1206370445491618
0.2350347263650158 0.5308362404903605 0.35703309653183013
0.5411038931405339 0.22548956774548867 0.2367890400708645
0.9949929645527275 0.4362131759521356 0.08315915554452952
0.09638153020034053 0.8322329017159049 -0.1206370445491618
-0.43163194030165086 0.8641695738236939 0.35703309653183013
-0.12556277352613282 0.5588229010788219 0.2367890400708645
0.32832629788606077 0.769546509285469 0.08315915554452952
0.4297148635336739 0.8322329017159049 -0.1206370445491618
-0.09829860696831752 0.8641695738236939 0.35703309653183013
0.20777055980720052 0.5588229010788219 0.2367890400708645
0.6616596312193941 0.769546509285469 0.08315915554452952
0.7630481968670072 0.8322329017159049 -0.1206370445491618
0.2350347263650158 0.8641695738236939 0.35703309653183013
0.5411038931405339 0.5588229010788219 0.2367890400708645
0.9949929645527275 0.769546509285469 0.08315915554452952
0.09638153020034053 0.16556623504923823 0.21269628878417152
-0.43163194030165086 0.19750290715702715 0.6903664298651635
-0.12556277352613282 -0.10784376558784464 0.5701223734041978
0.32832629788606077 0.10287984261880229 0.41649248887786283
0.4297148635336739 0.16556623504923823 0.21269628878417152
-0.09829860696831752 0.19750290715702715 0.6903664298651635
0.20777055980720052 -0.10784376558784464 0.5701223734041978
0.6616596312193941 0.10287984261880229 0.41649248887786283
0.7630481968670072 0.16556623504923823 0.21269628878417152
0.2350347263650158 0.19750290715702715 0.6903664298651635
0.5411038931405339 -0.10784376558784464 0.5701223734041978
0.9949929645527275 0.10287984261880229 0.41649248887786283
0.09638153020034053 0.49889956838257155 0.21269628878417152
-0.43163194030165086 0.5308362404903605 0.6903664298651635
-0.12556277352613282 0.22548956774548867 0.5701223734041978
0.32832629788606077 0.4362131759521356 0.41649248887786283
0.4297148635336739 0.49889956838257155 0.21269628878417152
-0.09829860696831752 0.5308362404903605 0.6903664298651635
0.20777055980720052 0.22548956774548867 0.5701223734041978
0.6616596312193941 0.4362131759521356 0.41649248887786283
0.7630481968670072 0.49889956838257155 0.21269628878417152
0.2350347263650158 0.5308362404903605 0.6903664298651635
0.5411038931405339 0.22548956774548867 0.5701223734041978
0.9949929645527275 0.4362131759521356 0.41649248887786283
0.09638153020034053 0.8322329017159049 0.21269628878417152
-0.43163194030165086 0.8641695738236939 0.6903664298651635
-0.12556277352613282 0.5588229010788219 0.5701223734041978
0.32832629788606077 0.769546509285469 0.41649248887786283
0.4297148635336739 0.8322329017159049 0.21269628878417152
-0.09829860696831752 0.8641695738236939 0.6903664298651635
0.20777055980720052 0.5588229010788219 0.5701223734041978
0.6616596312193941 0.769546509285469 0.41649248887786283
0.7630481968670072 0.8322329017159049 0.21269628878417152
0.2350347263650158 0.8641695738236939 0.6903664298651635
0.5411038931405339 0.5588229010788219 0.5701223734041978
0.9949929645527275 0.769546509285469 0.41649248887786283
0.09638153020034053 0.16556623504923823 0.5460296221175048
-0.43163194030165086 0.19750290715702715 1.0236997631984968
-0.12556277352613282 -0.10784376558784464 0.9034557067375311
0.32832629788606077 0.10287984261880229 0.7498258222111961
0.4297148635336739 0.16556623504923823 0.5460296221175048
-0.09829860696831752 0.19750290715702715 1.0236997631984968
0.20777055980720052 -0.10784376558784464 0.9034557067375311
0.6616596312193941 0.10287984261880229 0.7498258222111961
0.7630481968670072 0.16556623504923823 0.5460296221175048
0.2350347263650158 0.19750290715702715 1.0236997631984968
0.5411038931405339 -0.10784376558784464 0.9034557067375311
0.9949929645527275 0.10287984261880229 0.7498258222111961
0.09638153020034053 0.49889956838257155 0.5460296221175048
-0.43163194030165086 0.5308362404903605 1.0236997631984968
-0.12556277352613282 0.22548956774548867 0.9034557067375311
0.32832629788606077 0.4362131759521356 0.7498258222111961
0.4297148635336739 0.49889956838257155 0.5460296221175048
-0.09829860696831752 0.5308362404903605 1.0236997631984968
0.20777055980720052 0.22548956774548867 0.9034557067375311
0.6616596312193941 0.4362131759521356 0.7498258222111961
0.7630481968670072 0.49889956838257155 0.5460296221175048
0.2350347263650158 0.5308362404903605 1.0236997631984968
0.5411038931405339 0.22548956774548867 0.9034557067375311
0.9949929645527275 0.4362131759521356 0.7498258222111961
0.09638153020034053 0.8322329017159049 0.5460296221175048
-0.43163194030165086 0.8641695738236939 1.0236997631984968
-0.12556277352613282 0.5588229010788219 0.9034557067375311
0.32832629788606077 0.769546509285469 0.7498258222111961
0.4297148635336739 0.8322329017159049 0.5460296221175048
-0.09829860696831752 0.8641695738236939 1.0236997631984968
0.20777055980720052 0.5588229010788219 0.9034557067375311
0.6616596312193941 0.769546509285469 0.7498258222111961
0.7630481968670072 0.8322329017159049 0.5460296221175048
0.2350347263650158 0.8641695738236939 1.0236997631984968
0.5411038931405339 0.5588229010788219 0.9034557067375311
0.9949929645527275 0.769546509285469 0.7498258222111961
