FCC BaO
5.61604
3.0 0.0 0.0
0.0 3.0 0.0
0.0 0.0 3.0
Ba O 
108 108 
Direct
-0.08802919435675638 0.34861078991667616 -0.401984540859336
0.15721436580007558 0.13978161015852097 -0.40400396054722393
-0.5458017058215732 0.43216946659048183 -0.3167819938346401
-0.14957081956229265 -0.6095343369826619 0.17359713099194143
0.24530413897657694 0.34861078991667616 -0.401984540859336
0.4905476991334089 0.13978161015852097 -0.40400396054722393
-0.2124683724882399 0.43216946659048183 -0.3167819938346401
0.18376251377104064 -0.6095343369826619 0.17359713099194143
0.5786374723099103 0.34861078991667616 -0.401984540859336
0.8238810324667423 0.13978161015852097 -0.40400396054722393
0.12086496084509342 0.43216946659048183 -0.3167819938346401
0.517095847104374 -0.6095343369826619 0.17359713099194143
-0.08802919435675638 0.6819441232500095 -0.401984540859336
0.15721436580007558 0.4731149434918543 -0.40400396054722393
-0.5458017058215732 0.7655027999238151 -0.3167819938346401
-0.14957081956229265 -0.2762010036493286 0.17359713099194143
0.24530413897657694 0.6819441232500095 -0.401984540859336
0.4905476991334089 0.4731149434918543 -0.40400396054722393
-0.2124683724882399 0.7655027999238151 -0.3167819938346401
0.18376251377104064 -0.2762010036493286 0.17359713099194143
0.5786374723099103 0.6819441232500095 -0.401984540859336
0.8238810324667423 0.4731149434918543 -0.40400396054722393
0.12086496084509342 0.7655027999238151 -0.3167819938346401
0.517095847104374 -0.2762010036493286 0.17359713099194143
-0.08802919435675638 1.015277456583343 -0.401984540859336
0.15721436580007558 0.8064482768251875 -0.40400396054722393
-0.5458017058215732 1.0988361332571484 -0.3167819938346401
-0.14957081956229265 0.05713232968400472 0.17359713099194143
0.24530413897657694 1.015277456583343 -0.401984540859336
0.4905476991334089 0.8064482768251875 -0.40400396054722393
-0.2124683724882399 1.0988361332571484 -0.3167819938346401
0.18376251377104064 0.05713232968400472 0.17359713099194143
0.5786374723099103 1.015277456583343 -0.401984540859336
0.8238810324667423 0.8064482768251875 -0.40400396054722393
0.12086496084509342 1.0988361332571484 -0.3167819938346401
0.517095847104374 0.05713232968400472 0.17359713099194143
-0.08802919435675638 0.34861078991667616 -0.06865120752600269
0.15721436580007558 0.13978161015852097 -0.07067062721389061
-0.5458017058215732 0.43216946659048183 0.016551339498693213
-0.14957081956229265 -0.6095343369826619 0.5069304643252748
0.24530413897657694 0.34861078991667616 -0.06865120752600269
0.4905476991334089 0.13978161015852097 -0.07067062721389061
-0.2124683724882399 0.43216946659048183 0.016551339498693213
0.18376251377104064 -0.6095343369826619 0.5069304643252748
0.5786374723099103 0.34861078991667616 -0.06865120752600269
0.8238810324667423 0.13978161015852097 -0.07067062721389061
0.12086496084509342 0.43216946659048183 0.016551339498693213
0.517095847104374 -0.6095343369826619 0.5069304643252748
-0.08802919435675638 0.6819441232500095 -0.06865120752600269
0.15721436580007558 0.4731149434918543 -0.07067062721389061
-0.5458017058215732 0.7655027999238151 0.016551339498693213
-0.14957081956229265 -0.2762010036493286 0.5069304643252748
0.24530413897657694 0.6819441232500095 -0.06865120752600269
0.4905476991334089 0.4731149434918543 -0.07067062721389061
-0.2124683724882399 0.7655027999238151 0.016551339498693213
0.18376251377104064 -0.2762010036493286 0.5069304643252748
0.5786374723099103 0.6819441232500095 -0.06865120752600269
0.8238810324667423 0.4731149434918543 -0.07067062721389061
0.12086496084509342 0.7655027999238151 0.016551339498693213
0.517095847104374 -0.2762010036493286 0.5069304643252748
-0.08802919435675638 1.015277456583343 -0.06865120752600269
0.15721436580007558 0.8064482768251875 -0.07067062721389061
-0.5458017058215732 1.0988361332571484 0.016551339498693213
-0.14957081956229265 0.05713232968400472 0.5069304643252748
0.24530413897657694 1.015277456583343 -0.06865120752600269
0.4905476991334089 0.8064482768251875 -0.07067062721389061
-0.2124683724882399 1.0988361332571484 0.016551339498693213
0.18376251377104064 0.05713232968400472 0.5069304643252748
0.5786374723099103 1.015277456583343 -0.06865120752600269
0.8238810324667423 0.8064482768251875 -0.07067062721389061
0.12086496084509342 1.0988361332571484 0.016551339498693213
0.517095847104374 0.05713232968400472 0.5069304643252748
-0.08802919435675638 0.34861078991667616 0.26468212580733064
0.15721436580007558 0.13978161015852097 0.2626627061194427
-0.5458017058215732 0.43216946659048183 0.3498846728320265
-0.14957081956229265 -0.6095343369826619 0.840263797658608
0.24530413897657694 0.34861078991667616 0.26468212580733064
0.4905476991334089 0.13978161015852097 0.2626627061194427
-0.2124683724882399 0.43216946659048183 0.3498846728320265
0.18376251377104064 -0.6095343369826619 0.840263797658608
0.5786374723099103 0.34861078991667616 0.26468212580733064
0.8238810324667423 0.13978161015852097 0.2626627061194427
0.12086496084509342 0.43216946659048183 0.3498846728320265
0.517095847104374 -0.6095343369826619 0.840263797658608
-0.08802919435675638 0.6819441232500095 0.26468212580733064
0.15721436580007558 0.4731149434918543 0.2626627061194427
-0.5458017058215732 0.7655027999238151 0.3498846728320265
-0.14957081956229265 -0.2762010036493286 0.840263797658608
0.24530413897657694 0.6819441232500095 0.26468212580733064
0.4905476991334089 0.4731149434918543 0.2626627061194427
-0.2124683724882399 0.7655027999238151 0.3498846728320265
0.18376251377104064 -0.2762010036493286 0.840263797658608
0.5786374723099103 0.6819441232500095 0.26468212580733064
0.8238810324667423 0.4731149434918543 0.2626627061194427
0.12086496084509342 0.7655027999238151 0.3498846728320265
0.517095847104374 -0.2762010036493286 0.840263797658608
-0.08802919435675638 1.015277456583343 0.26468212580733064
0.15721436580007558 0.8064482768251875 0.2626627061194427
-0.5458017058215732 1.0988361332571484 0.3498846728320265
-0.14957081956229265 0.05713232968400472 0.840263797658608
0.24530413897657694 1.015277456583343 0.26468212580733064
0.4905476991334089 0.8064482768251875 0.2626627061194427
-0.2124683724882399 1.0988361332571484 0.3498846728320265
0.18376251377104064 0.05713232968400472 0.840263797658608
0.5786374723099103 1.015277456583343 0.26468212580733064
0.8238810324667423 0.8064482768251875 0.2626627061194427
0.12086496084509342 1.0988361332571484 0.3498846728320265
0.517095847104374 0.05713232968400472 0.840263797658608
0.4610364770734555 -0.37556647933379206 0.08791972671077532
-0.035869900267298256 -0.21826534512468598 -0.3018208503158807
-0.027649156906644316 -0.30045216953254245 0.4677841314533607
-0.1820097216324053 0.3814403437250527 0.2921881384359744
0.7943698104067889 -0.37556647933379206 0.08791972671077532
0.29746343306603507 -0.21826534512468598 -0.3018208503158807
0.305684176426689 -0.30045216953254245 0.4677841314533607
0.151323611700928 0.3814403437250527 0.2921881384359744
1.1277031437401221 -0.37556647933379206 0.08791972671077532
0.6307967663993683 -0.21826534512468598 -0.3018208503158807
0.6390175097600224 -0.30045216953254245 0.4677841314533607
0.4846569450342613 0.3814403437250527 0.2921881384359744
0.4610364770734555 -0.04223314600045872 0.08791972671077532
-0.035869900267298256 0.11506798820864735 -0.3018208503158807
-0.027649156906644316 0.03288116380079087 0.4677841314533607
-0.1820097216324053 0.714773677058386 0.2921881384359744
0.7943698104067889 -0.04223314600045872 0.08791972671077532
0.29746343306603507 0.11506798820864735 -0.3018208503158807
0.305684176426689 0.03288116380079087 0.4677841314533607
0.151323611700928 0.714773677058386 0.2921881384359744
1.1277031437401221 -0.04223314600045872 0.08791972671077532
0.6307967663993683 0.11506798820864735 -0.3018208503158807
0.6390175097600224 0.03288116380079087 0.4677841314533607
0.4846569450342613 0.714773677058386 0.2921881384359744
0.4610364770734555 0.29110018733287457 0.08791972671077532
-0.035869900267298256 0.44840132154198065 -0.3018208503158807
-0.027649156906644316 0.3662144971341242 0.4677841314533607
-0.1820097216324053 1.0481070103917194 0.2921881384359744
0.7943698104067889 0.29110018733287457 0.08791972671077532
0.29746343306603507 0.44840132154198065 -0.3018208503158807
0.305684176426689 0.3662144971341242 0.4677841314533607
0.151323611700928 1.0481070103917194 0.2921881384359744
1.1277031437401221 0.29110018733287457 0.08791972671077532
0.6307967663993683 0.44840132154198065 -0.3018208503158807
0.6390175097600224 0.3662144971341242 0.4677841314533607
0.4846569450342613 1.0481070103917194 0.2921881384359744
0.4610364770734555 -0.37556647933379206 0.4212530600441087
-0.035869900267298256 -0.21826534512468598 0.03151248301745261
-0.027649156906644316 -0.30045216953254245 0.8011174647866941
-0.1820097216324053 0.3814403437250527 0.6255214717693077
0.7943698104067889 -0.37556647933379206 0.4212530600441087
0.29746343306603507 -0.21826534512468598 0.03151248301745261
0.305684176426689 -0.30045216953254245 0.8011174647866941
0.151323611700928 0.3814403437250527 0.6255214717693077
1.1277031437401221 -0.37556647933379206 0.4212530600441087
0.6307967663993683 -0.21826534512468598 0.03151248301745261
0.6390175097600224 -0.30045216953254245 0.8011174647866941
0.4846569450342613 0.3814403437250527 0.6255214717693077
0.4610364770734555 -0.04223314600045872 0.4212530600441087
-0.035869900267298256 0.11506798820864735 0.03151248301745261
-0.027649156906644316 0.03288116380079087 0.8011174647866941
-0.1820097216324053 0.714773677058386 0.6255214717693077
0.7943698104067889 -0.04223314600045872 0.4212530600441087
0.29746343306603507 0.11506798820864735 0.03151248301745261
0.305684176426689 0.03288116380079087 0.8011174647866941
0.151323611700928 0.714773677058386 0.6255214717693077
1.1277031437401221 -0.04223314600045872 0.4212530600441087
0.6307967663993683 0.11506798820864735 0.03151248301745261
0.6390175097600224 0.03288116380079087 0.8011174647866941
0.4846569450342613 0.714773677058386 0.6255214717693077
0.4610364770734555 0.29110018733287457 0.4212530600441087
-0.035869900267298256 0.44840132154198065 0.03151248301745261
-0.027649156906644316 0.3662144971341242 0.8011174647866941
-0.1820097216324053 1.0481070103917194 0.6255214717693077
0.7943698104067889 0.29110018733287457 0.4212530600441087
0.29746343306603507 0.44840132154198065 0.03151248301745261
0.305684176426689 0.3662144971341242 0.8011174647866941
0.151323611700928 1.0481070103917194 0.6255214717693077
1.1277031437401221 0.29110018733287457 0.4212530600441087
0.6307967663993683 0.44840132154198065 0.03151248301745261
0.6390175097600224 0.3662144971341242 0.8011174647866941
0.4846569450342613 1.0481070103917194 0.6255214717693077
0.4610364770734555 -0.37556647933379206 0.7545863933774419
-0.035869900267298256 -0.21826534512468598 0.36484581635078595
-0.027649156906644316 -0.30045216953254245 1.1344507981200274
-0.1820097216324053 0.3814403437250527 0.9588548051026411
0.7943698104067889 -0.37556647933379206 0.7545863933774419
0.29746343306603507 -0.21826534512468598 0.36484581635078595
0.305684176426689 -0.30045216953254245 1.1344507981200274
0.151323611700928 0.3814403437250527 0.9588548051026411
1.1277031437401221 -0.37556647933379206 0.7545863933774419
0.6307967663993683 -0.21826534512468598 0.36484581635078595
0.6390175097600224 -0.30045216953254245 1.1344507981200274
0.4846569450342613 0.3814403437250527 0.9588548051026411
0.4610364770734555 -0.04223314600045872 0.7545863933774419
-0.035869900267298256 0.11506798820864735 0.36484581635078595
-0.027649156906644316 0.03288116380079087 1.1344507981200274
-0.1820097216324053 0.714773677058386 0.9588548051026411
0.7943698104067889 -0.04223314600045872 0.7545863933774419
0.29746343306603507 0.11506798820864735 0.36484581635078595
0.305684176426689 0.03288116380079087 1.1344507981200274
0.151323611700928 0.714773677058386 0.9588548051026411
1.1277031437401221 -0.04223314600045872 0.7545863933774419
0.6307967663993683 0.11506798820864735 0.36484581635078595
0.6390175097600224 0.03288116380079087 1.1344507981200274
0.4846569450342613 0.714773677058386 0.9588548051026411
0.4610364770734555 0.29110018733287457 0.7545863933774419
-0.035869900267298256 0.44840132154198065 0.36484581635078595
-0.027649156906644316 0.3662144971341242 1.1344507981200274
-0.1820097216324053 1.0481070103917194 0.9588548051026411
0.7943698104067889 0.29110018733287457 0.7545863933774419
0.29746343306603507 0.44840132154198065 0.36484581635078595
0.305684176426689 0.3662144971341242 1.1344507981200274
0.151323611700928 1.0481070103917194 0.9588548051026411
1.1277031437401221 0.29110018733287457 0.7545863933774419
0.6307967663993683 0.44840132154198065 0.36484581635078595
0.6390175097600224 0.3662144971341242 1.1344507981200274
0.4846569450342613 1.0481070103917194 0.9588548051026411
