FCC BaO
3.971
5.0 0.0 0.0
0.0 5.0 0.0
0.0 0.0 5.0
Ba O 
500 500 
Direct
-0.024397156446250883 -0.023799360885478318 -0.02854237360443316
-0.011573760963355313 0.12491604660704406 0.09542119901629272
0.09808003262922116 -0.013144693025109087 0.09040429609737216
0.1264132094672316 0.12204511691648552 -0.02278719534834371
0.1756028435537491 -0.023799360885478318 -0.02854237360443316
0.18842623903664468 0.12491604660704406 0.09542119901629272
0.29808003262922117 -0.013144693025109087 0.09040429609737216
0.3264132094672316 0.12204511691648552 -0.02278719534834371
0.3756028435537491 -0.023799360885478318 -0.02854237360443316
0.3884262390366447 0.12491604660704406 0.09542119901629272
0.4980800326292212 -0.013144693025109087 0.09040429609737216
0.5264132094672317 0.12204511691648552 -0.02278719534834371
0.5756028435537491 -0.023799360885478318 -0.02854237360443316
0.5884262390366447 0.12491604660704406 0.09542119901629272
0.6980800326292211 -0.013144693025109087 0.09040429609737216
0.7264132094672316 0.12204511691648552 -0.02278719534834371
0.7756028435537492 -0.023799360885478318 -0.02854237360443316
0.7884262390366448 0.12491604660704406 0.09542119901629272
0.8980800326292212 -0.013144693025109087 0.09040429609737216
0.9264132094672317 0.12204511691648552 -0.02278719534834371
-0.024397156446250883 0.1762006391145217 -0.02854237360443316
-0.011573760963355313 0.3249160466070441 0.09542119901629272
0.09808003262922116 0.18685530697489094 0.09040429609737216
0.1264132094672316 0.3220451169164855 -0.02278719534834371
0.1756028435537491 0.1762006391145217 -0.02854237360443316
0.18842623903664468 0.3249160466070441 0.09542119901629272
0.29808003262922117 0.18685530697489094 0.09040429609737216
0.3264132094672316 0.3220451169164855 -0.02278719534834371
0.3756028435537491 0.1762006391145217 -0.02854237360443316
0.3884262390366447 0.3249160466070441 0.09542119901629272
0.4980800326292212 0.18685530697489094 0.09040429609737216
0.5264132094672317 0.3220451169164855 -0.02278719534834371
0.5756028435537491 0.1762006391145217 -0.02854237360443316
0.5884262390366447 0.3249160466070441 0.09542119901629272
0.6980800326292211 0.18685530697489094 0.09040429609737216
0.7264132094672316 0.3220451169164855 -0.02278719534834371
0.7756028435537492 0.1762006391145217 -0.02854237360443316
0.7884262390366448 0.3249160466070441 0.09542119901629272
0.8980800326292212 0.18685530697489094 0.09040429609737216
0.9264132094672317 0.3220451169164855 -0.02278719534834371
-0.024397156446250883 0.37620063911452173 -0.02854237360443316
-0.011573760963355313 0.524916046607044 0.09542119901629272
0.09808003262922116 0.38685530697489096 0.09040429609737216
0.1264132094672316 0.5220451169164856 -0.02278719534834371
0.1756028435537491 0.37620063911452173 -0.02854237360443316
0.18842623903664468 0.524916046607044 0.09542119901629272
0.29808003262922117 0.38685530697489096 0.09040429609737216
0.3264132094672316 0.5220451169164856 -0.02278719534834371
0.3756028435537491 0.37620063911452173 -0.02854237360443316
0.3884262390366447 0.524916046607044 0.09542119901629272
0.4980800326292212 0.38685530697489096 0.09040429609737216
0.5264132094672317 0.5220451169164856 -0.02278719534834371
0.5756028435537491 0.37620063911452173 -0.02854237360443316
0.5884262390366447 0.524916046607044 0.09542119901629272
0.6980800326292211 0.38685530697489096 0.09040429609737216
0.7264132094672316 0.5220451169164856 -0.02278719534834371
0.7756028435537492 0.37620063911452173 -0.02854237360443316
0.7884262390366448 0.524916046607044 0.09542119901629272
0.8980800326292212 0.38685530697489096 0.09040429609737216
0.9264132094672317 0.5220451169164856 -0.02278719534834371
-0.024397156446250883 0.5762006391145217 -0.02854237360443316
-0.011573760963355313 0.7249160466070441 0.09542119901629272
0.09808003262922116 0.586855306974891 0.09040429609737216
0.1264132094672316 0.7220451169164855 -0.02278719534834371
0.1756028435537491 0.5762006391145217 -0.02854237360443316
0.18842623903664468 0.7249160466070441 0.09542119901629272
0.29808003262922117 0.586855306974891 0.09040429609737216
0.3264132094672316 0.7220451169164855 -0.02278719534834371
0.3756028435537491 0.5762006391145217 -0.02854237360443316
0.3884262390366447 0.7249160466070441 0.09542119901629272
0.4980800326292212 0.586855306974891 0.09040429609737216
0.5264132094672317 0.7220451169164855 -0.02278719534834371
0.5756028435537491 0.5762006391145217 -0.02854237360443316
0.5884262390366447 0.7249160466070441 0.09542119901629272
0.6980800326292211 0.586855306974891 0.09040429609737216
0.7264132094672316 0.7220451169164855 -0.02278719534834371
0.7756028435537492 0.5762006391145217 -0.02854237360443316
0.7884262390366448 0.7249160466070441 0.09542119901629272
0.8980800326292212 0.586855306974891 0.09040429609737216
0.9264132094672317 0.7220451169164855 -0.02278719534834371
-0.024397156446250883 0.7762006391145218 -0.02854237360443316
-0.011573760963355313 0.9249160466070441 0.09542119901629272
0.09808003262922116 0.7868553069748909 0.09040429609737216
0.1264132094672316 0.9220451169164856 -0.02278719534834371
0.1756028435537491 0.7762006391145218 -0.02854237360443316
0.18842623903664468 0.9249160466070441 0.09542119901629272
0.29808003262922117 0.7868553069748909 0.09040429609737216
0.3264132094672316 0.9220451169164856 -0.02278719534834371
0.3756028435537491 0.7762006391145218 -0.02854237360443316
0.3884262390366447 0.9249160466070441 0.09542119901629272
0.4980800326292212 0.7868553069748909 0.09040429609737216
0.5264132094672317 0.9220451169164856 -0.02278719534834371
0.5756028435537491 0.7762006391145218 -0.02854237360443316
0.5884262390366447 0.9249160466070441 0.09542119901629272
0.6980800326292211 0.7868553069748909 0.09040429609737216
0.7264132094672316 0.9220451169164856 -0.02278719534834371
0.7756028435537492 0.7762006391145218 -0.02854237360443316
0.7884262390366448 0.9249160466070441 0.09542119901629272
0.8980800326292212 0.7868553069748909 0.09040429609737216
0.9264132094672317 0.9220451169164856 -0.02278719534834371
-0.024397156446250883 -0.023799360885478318 0.17145762639556686
-0.011573760963355313 0.12491604660704406 0.2954211990162927
0.09808003262922116 -0.013144693025109087 0.29040429609737217
0.1264132094672316 0.12204511691648552 0.1772128046516563
0.1756028435537491 -0.023799360885478318 0.17145762639556686
0.18842623903664468 0.12491604660704406 0.2954211990162927
0.29808003262922117 -0.013144693025109087 0.29040429609737217
0.3264132094672316 0.12204511691648552 0.1772128046516563
0.3756028435537491 -0.023799360885478318 0.17145762639556686
0.3884262390366447 0.12491604660704406 0.2954211990162927
0.4980800326292212 -0.013144693025109087 0.29040429609737217
0.5264132094672317 0.12204511691648552 0.1772128046516563
0.5756028435537491 -0.023799360885478318 0.17145762639556686
0.5884262390366447 0.12491604660704406 0.2954211990162927
0.6980800326292211 -0.013144693025109087 0.29040429609737217
0.7264132094672316 0.12204511691648552 0.1772128046516563
0.7756028435537492 -0.023799360885478318 0.17145762639556686
0.7884262390366448 0.12491604660704406 0.2954211990162927
0.8980800326292212 -0.013144693025109087 0.29040429609737217
0.9264132094672317 0.12204511691648552 0.1772128046516563
-0.024397156446250883 0.1762006391145217 0.17145762639556686
-0.011573760963355313 0.3249160466070441 0.2954211990162927
0.09808003262922116 0.18685530697489094 0.29040429609737217
0.1264132094672316 0.3220451169164855 0.1772128046516563
0.1756028435537491 0.1762006391145217 0.17145762639556686
0.18842623903664468 0.3249160466070441 0.2954211990162927
0.29808003262922117 0.18685530697489094 0.29040429609737217
0.3264132094672316 0.3220451169164855 0.1772128046516563
0.3756028435537491 0.1762006391145217 0.17145762639556686
0.3884262390366447 0.3249160466070441 0.2954211990162927
0.4980800326292212 0.18685530697489094 0.29040429609737217
0.5264132094672317 0.3220451169164855 0.1772128046516563
0.5756028435537491 0.1762006391145217 0.17145762639556686
0.5884262390366447 0.3249160466070441 0.2954211990162927
0.6980800326292211 0.18685530697489094 0.29040429609737217
0.7264132094672316 0.3220451169164855 0.1772128046516563
0.7756028435537492 0.1762006391145217 0.17145762639556686
0.7884262390366448 0.3249160466070441 0.2954211990162927
0.8980800326292212 0.18685530697489094 0.29040429609737217
0.9264132094672317 0.3220451169164855 0.1772128046516563
-0.024397156446250883 0.37620063911452173 0.17145762639556686
-0.011573760963355313 0.524916046607044 0.2954211990162927
0.09808003262922116 0.38685530697489096 0.29040429609737217
0.1264132094672316 0.5220451169164856 0.1772128046516563
0.1756028435537491 0.37620063911452173 0.17145762639556686
0.18842623903664468 0.524916046607044 0.2954211990162927
0.29808003262922117 0.38685530697489096 0.29040429609737217
0.3264132094672316 0.5220451169164856 0.1772128046516563
0.3756028435537491 0.37620063911452173 0.17145762639556686
0.3884262390366447 0.524916046607044 0.2954211990162927
0.4980800326292212 0.38685530697489096 0.29040429609737217
0.5264132094672317 0.5220451169164856 0.1772128046516563
0.5756028435537491 0.37620063911452173 0.17145762639556686
0.5884262390366447 0.524916046607044 0.2954211990162927
0.6980800326292211 0.38685530697489096 0.29040429609737217
0.7264132094672316 0.5220451169164856 0.1772128046516563
0.7756028435537492 0.37620063911452173 0.17145762639556686
0.7884262390366448 0.524916046607044 0.2954211990162927
0.8980800326292212 0.38685530697489096 0.29040429609737217
0.9264132094672317 0.5220451169164856 0.1772128046516563
-0.024397156446250883 0.5762006391145217 0.17145762639556686
-0.011573760963355313 0.7249160466070441 0.2954211990162927
0.09808003262922116 0.586855306974891 0.29040429609737217
0.1264132094672316 0.7220451169164855 0.1772128046516563
0.1756028435537491 0.5762006391145217 0.17145762639556686
0.18842623903664468 0.7249160466070441 0.2954211990162927
0.29808003262922117 0.586855306974891 0.29040429609737217
0.3264132094672316 0.7220451169164855 0.1772128046516563
0.3756028435537491 0.5762006391145217 0.17145762639556686
0.3884262390366447 0.7249160466070441 0.2954211990162927
0.4980800326292212 0.586855306974891 0.29040429609737217
0.5264132094672317 0.7220451169164855 0.1772128046516563
0.5756028435537491 0.5762006391145217 0.17145762639556686
0.5884262390366447 0.7249160466070441 0.2954211990162927
0.6980800326292211 0.586855306974891 0.29040429609737217
0.7264132094672316 0.7220451169164855 0.1772128046516563
0.7756028435537492 0.5762006391145217 0.17145762639556686
0.7884262390366448 0.7249160466070441 0.2954211990162927
0.8980800326292212 0.586855306974891 0.29040429609737217
0.9264132094672317 0.7220451169164855 0.1772128046516563
-0.024397156446250883 0.7762006391145218 0.17145762639556686
-0.011573760963355313 0.9249160466070441 0.2954211990162927
0.09808003262922116 0.7868553069748909 0.29040429609737217
0.1264132094672316 0.9220451169164856 0.1772128046516563
0.1756028435537491 0.7762006391145218 0.17145762639556686
0.18842623903664468 0.9249160466070441 0.2954211990162927
0.29808003262922117 0.7868553069748909 0.29040429609737217
0.3264132094672316 0.9220451169164856 0.1772128046516563
0.3756028435537491 0.7762006391145218 0.17145762639556686
0.3884262390366447 0.9249160466070441 0.2954211990162927
0.4980800326292212 0.7868553069748909 0.29040429609737217
0.5264132094672317 0.9220451169164856 0.1772128046516563
0.5756028435537491 0.7762006391145218 0.17145762639556686
0.5884262390366447 0.9249160466070441 0.2954211990162927
0.6980800326292211 0.7868553069748909 0.29040429609737217
0.7264132094672316 0.9220451169164856 0.1772128046516563
0.7756028435537492 0.7762006391145218 0.17145762639556686
0.7884262390366448 0.9249160466070441 0.2954211990162927
0.8980800326292212 0.7868553069748909 0.29040429609737217
0.9264132094672317 0.9220451169164856 0.1772128046516563
-0.024397156446250883 -0.023799360885478318 0.3714576263955669
-0.011573760963355313 0.12491604660704406 0.49542119901629267
0.09808003262922116 -0.013144693025109087 0.4904042960973722
0.1264132094672316 0.12204511691648552 0.3772128046516563
0.1756028435537491 -0.023799360885478318 0.3714576263955669
0.18842623903664468 0.12491604660704406 0.49542119901629267
0.29808003262922117 -0.013144693025109087 0.4904042960973722
0.3264132094672316 0.12204511691648552 0.3772128046516563
0.3756028435537491 -0.023799360885478318 0.3714576263955669
0.3884262390366447 0.12491604660704406 0.49542119901629267
0.4980800326292212 -0.013144693025109087 0.4904042960973722
0.5264132094672317 0.12204511691648552 0.3772128046516563
0.5756028435537491 -0.023799360885478318 0.3714576263955669
0.5884262390366447 0.12491604660704406 0.49542119901629267
0.6980800326292211 -0.013144693025109087 0.4904042960973722
0.7264132094672316 0.12204511691648552 0.3772128046516563
0.7756028435537492 -0.023799360885478318 0.3714576263955669
0.7884262390366448 0.12491604660704406 0.49542119901629267
0.8980800326292212 -0.013144693025109087 0.4904042960973722
0.9264132094672317 0.12204511691648552 0.3772128046516563
-0.024397156446250883 0.1762006391145217 0.3714576263955669
-0.011573760963355313 0.3249160466070441 0.49542119901629267
0.09808003262922116 0.18685530697489094 0.4904042960973722
0.1264132094672316 0.3220451169164855 0.3772128046516563
0.1756028435537491 0.1762006391145217 0.3714576263955669
0.18842623903664468 0.3249160466070441 0.49542119901629267
0.29808003262922117 0.18685530697489094 0.4904042960973722
0.3264132094672316 0.3220451169164855 0.3772128046516563
0.3756028435537491 0.1762006391145217 0.3714576263955669
0.3884262390366447 0.3249160466070441 0.49542119901629267
0.4980800326292212 0.18685530697489094 0.4904042960973722
0.5264132094672317 0.3220451169164855 0.3772128046516563
0.5756028435537491 0.1762006391145217 0.3714576263955669
0.5884262390366447 0.3249160466070441 0.49542119901629267
0.6980800326292211 0.18685530697489094 0.4904042960973722
0.7264132094672316 0.3220451169164855 0.3772128046516563
0.7756028435537492 0.1762006391145217 0.3714576263955669
0.7884262390366448 0.3249160466070441 0.49542119901629267
0.8980800326292212 0.18685530697489094 0.4904042960973722
0.9264132094672317 0.3220451169164855 0.3772128046516563
-0.024397156446250883 0.37620063911452173 0.3714576263955669
-0.011573760963355313 0.524916046607044 0.49542119901629267
0.09808003262922116 0.38685530697489096 0.4904042960973722
0.1264132094672316 0.5220451169164856 0.3772128046516563
0.1756028435537491 0.37620063911452173 0.3714576263955669
0.18842623903664468 0.524916046607044 0.49542119901629267
0.29808003262922117 0.38685530697489096 0.4904042960973722
0.3264132094672316 0.5220451169164856 0.3772128046516563
0.3756028435537491 0.37620063911452173 0.3714576263955669
0.3884262390366447 0.524916046607044 0.49542119901629267
0.4980800326292212 0.38685530697489096 0.4904042960973722
0.5264132094672317 0.5220451169164856 0.3772128046516563
0.5756028435537491 0.37620063911452173 0.3714576263955669
0.5884262390366447 0.524916046607044 0.49542119901629267
0.6980800326292211 0.38685530697489096 0.4904042960973722
0.7264132094672316 0.5220451169164856 0.3772128046516563
0.7756028435537492 0.37620063911452173 0.3714576263955669
0.7884262390366448 0.524916046607044 0.49542119901629267
0.8980800326292212 0.38685530697489096 0.4904042960973722
0.9264132094672317 0.5220451169164856 0.3772128046516563
-0.024397156446250883 0.5762006391145217 0.3714576263955669
-0.011573760963355313 0.7249160466070441 0.49542119901629267
0.09808003262922116 0.586855306974891 0.4904042960973722
0.1264132094672316 0.7220451169164855 0.3772128046516563
0.1756028435537491 0.5762006391145217 0.3714576263955669
0.18842623903664468 0.7249160466070441 0.49542119901629267
0.29808003262922117 0.586855306974891 0.4904042960973722
0.3264132094672316 0.7220451169164855 0.3772128046516563
0.3756028435537491 0.5762006391145217 0.3714576263955669
0.3884262390366447 0.7249160466070441 0.49542119901629267
0.4980800326292212 0.586855306974891 0.4904042960973722
0.5264132094672317 0.7220451169164855 0.3772128046516563
0.5756028435537491 0.5762006391145217 0.3714576263955669
0.5884262390366447 0.7249160466070441 0.49542119901629267
0.6980800326292211 0.586855306974891 0.4904042960973722
0.7264132094672316 0.7220451169164855 0.3772128046516563
0.7756028435537492 0.5762006391145217 0.3714576263955669
0.7884262390366448 0.7249160466070441 0.49542119901629267
0.8980800326292212 0.586855306974891 0.4904042960973722
0.9264132094672317 0.7220451169164855 0.3772128046516563
-0.024397156446250883 0.7762006391145218 0.3714576263955669
-0.011573760963355313 0.9249160466070441 0.49542119901629267
0.09808003262922116 0.7868553069748909 0.4904042960973722
0.1264132094672316 0.9220451169164856 0.3772128046516563
0.1756028435537491 0.7762006391145218 0.3714576263955669
0.18842623903664468 0.9249160466070441 0.49542119901629267
0.29808003262922117 0.7868553069748909 0.4904042960973722
0.3264132094672316 0.9220451169164856 0.3772128046516563
0.3756028435537491 0.7762006391145218 0.3714576263955669
0.3884262390366447 0.9249160466070441 0.49542119901629267
0.4980800326292212 0.7868553069748909 0.4904042960973722
0.5264132094672317 0.9220451169164856 0.3772128046516563
0.5756028435537491 0.7762006391145218 0.3714576263955669
0.5884262390366447 0.9249160466070441 0.49542119901629267
0.6980800326292211 0.7868553069748909 0.4904042960973722
0.7264132094672316 0.9220451169164856 0.3772128046516563
0.7756028435537492 0.7762006391145218 0.3714576263955669
0.7884262390366448 0.9249160466070441 0.49542119901629267
0.8980800326292212 0.7868553069748909 0.4904042960973722
0.9264132094672317 0.9220451169164856 0.3772128046516563
-0.024397156446250883 -0.023799360885478318 0.5714576263955669
-0.011573760963355313 0.12491604660704406 0.6954211990162927
0.09808003262922116 -0.013144693025109087 0.6904042960973722
0.1264132094672316 0.12204511691648552 0.5772128046516563
0.1756028435537491 -0.023799360885478318 0.5714576263955669
0.18842623903664468 0.12491604660704406 0.6954211990162927
0.29808003262922117 -0.013144693025109087 0.6904042960973722
0.3264132094672316 0.12204511691648552 0.5772128046516563
0.3756028435537491 -0.023799360885478318 0.5714576263955669
0.3884262390366447 0.12491604660704406 0.6954211990162927
0.4980800326292212 -0.013144693025109087 0.6904042960973722
0.5264132094672317 0.12204511691648552 0.5772128046516563
0.5756028435537491 -0.023799360885478318 0.5714576263955669
0.5884262390366447 0.12491604660704406 0.6954211990162927
0.6980800326292211 -0.013144693025109087 0.6904042960973722
0.7264132094672316 0.12204511691648552 0.5772128046516563
0.7756028435537492 -0.023799360885478318 0.5714576263955669
0.7884262390366448 0.12491604660704406 0.6954211990162927
0.8980800326292212 -0.013144693025109087 0.6904042960973722
0.9264132094672317 0.12204511691648552 0.5772128046516563
-0.024397156446250883 0.1762006391145217 0.5714576263955669
-0.011573760963355313 0.3249160466070441 0.6954211990162927
0.09808003262922116 0.18685530697489094 0.6904042960973722
0.1264132094672316 0.3220451169164855 0.5772128046516563
0.1756028435537491 0.1762006391145217 0.5714576263955669
0.18842623903664468 0.3249160466070441 0.6954211990162927
0.29808003262922117 0.18685530697489094 0.6904042960973722
0.3264132094672316 0.3220451169164855 0.5772128046516563
0.3756028435537491 0.1762006391145217 0.5714576263955669
0.3884262390366447 0.3249160466070441 0.6954211990162927
0.4980800326292212 0.18685530697489094 0.6904042960973722
0.5264132094672317 0.3220451169164855 0.5772128046516563
0.5756028435537491 0.1762006391145217 0.5714576263955669
0.5884262390366447 0.3249160466070441 0.6954211990162927
0.6980800326292211 0.18685530697489094 0.6904042960973722
0.7264132094672316 0.3220451169164855 0.5772128046516563
0.7756028435537492 0.1762006391145217 0.5714576263955669
0.7884262390366448 0.3249160466070441 0.6954211990162927
0.8980800326292212 0.18685530697489094 0.6904042960973722
0.9264132094672317 0.3220451169164855 0.5772128046516563
-0.024397156446250883 0.37620063911452173 0.5714576263955669
-0.011573760963355313 0.524916046607044 0.6954211990162927
0.09808003262922116 0.38685530697489096 0.6904042960973722
0.1264132094672316 0.5220451169164856 0.5772128046516563
0.1756028435537491 0.37620063911452173 0.5714576263955669
0.18842623903664468 0.524916046607044 0.6954211990162927
0.29808003262922117 0.38685530697489096 0.6904042960973722
0.3264132094672316 0.5220451169164856 0.5772128046516563
0.3756028435537491 0.37620063911452173 0.5714576263955669
0.3884262390366447 0.524916046607044 0.6954211990162927
0.4980800326292212 0.38685530697489096 0.6904042960973722
0.5264132094672317 0.5220451169164856 0.5772128046516563
0.5756028435537491 0.37620063911452173 0.5714576263955669
0.5884262390366447 0.524916046607044 0.6954211990162927
0.6980800326292211 0.38685530697489096 0.6904042960973722
0.7264132094672316 0.5220451169164856 0.5772128046516563
0.7756028435537492 0.37620063911452173 0.5714576263955669
0.7884262390366448 0.524916046607044 0.6954211990162927
0.8980800326292212 0.38685530697489096 0.6904042960973722
0.9264132094672317 0.5220451169164856 0.5772128046516563
-0.024397156446250883 0.5762006391145217 0.5714576263955669
-0.011573760963355313 0.7249160466070441 0.6954211990162927
0.09808003262922116 0.586855306974891 0.6904042960973722
0.1264132094672316 0.7220451169164855 0.5772128046516563
0.1756028435537491 0.5762006391145217 0.5714576263955669
0.18842623903664468 0.7249160466070441 0.6954211990162927
0.29808003262922117 0.586855306974891 0.6904042960973722
0.3264132094672316 0.7220451169164855 0.5772128046516563
0.3756028435537491 0.5762006391145217 0.5714576263955669
0.3884262390366447 0.7249160466070441 0.6954211990162927
0.4980800326292212 0.586855306974891 0.6904042960973722
0.5264132094672317 0.7220451169164855 0.5772128046516563
0.5756028435537491 0.5762006391145217 0.5714576263955669
0.5884262390366447 0.7249160466070441 0.6954211990162927
0.6980800326292211 0.586855306974891 0.6904042960973722
0.7264132094672316 0.7220451169164855 0.5772128046516563
0.7756028435537492 0.5762006391145217 0.5714576263955669
0.7884262390366448 0.7249160466070441 0.6954211990162927
0.8980800326292212 0.586855306974891 0.6904042960973722
0.9264132094672317 0.7220451169164855 0.5772128046516563
-0.024397156446250883 0.7762006391145218 0.5714576263955669
-0.011573760963355313 0.9249160466070441 0.6954211990162927
0.09808003262922116 0.7868553069748909 0.6904042960973722
0.1264132094672316 0.9220451169164856 0.5772128046516563
0.1756028435537491 0.7762006391145218 0.5714576263955669
0.18842623903664468 0.9249160466070441 0.6954211990162927
0.29808003262922117 0.7868553069748909 0.6904042960973722
0.3264132094672316 0.9220451169164856 0.5772128046516563
0.3756028435537491 0.7762006391145218 0.5714576263955669
0.3884262390366447 0.9249160466070441 0.6954211990162927
0.4980800326292212 0.7868553069748909 0.6904042960973722
0.5264132094672317 0.9220451169164856 0.5772128046516563
0.5756028435537491 0.7762006391145218 0.5714576263955669
0.5884262390366447 0.9249160466070441 0.6954211990162927
0.6980800326292211 0.7868553069748909 0.6904042960973722
0.7264132094672316 0.9220451169164856 0.5772128046516563
0.7756028435537492 0.7762006391145218 0.5714576263955669
0.7884262390366448 0.9249160466070441 0.6954211990162927
0.8980800326292212 0.7868553069748909 0.6904042960973722
0.9264132094672317 0.9220451169164856 0.5772128046516563
-0.024397156446250883 -0.023799360885478318 0.7714576263955668
-0.011573760963355313 0.12491604660704406 0.8954211990162927
0.09808003262922116 -0.013144693025109087 0.8904042960973723
0.1264132094672316 0.12204511691648552 0.7772128046516563
0.1756028435537491 -0.023799360885478318 0.7714576263955668
0.18842623903664468 0.12491604660704406 0.8954211990162927
0.29808003262922117 -0.013144693025109087 0.8904042960973723
0.3264132094672316 0.12204511691648552 0.7772128046516563
0.3756028435537491 -0.023799360885478318 0.7714576263955668
0.3884262390366447 0.12491604660704406 0.8954211990162927
0.4980800326292212 -0.013144693025109087 0.8904042960973723
0.5264132094672317 0.12204511691648552 0.7772128046516563
0.5756028435537491 -0.023799360885478318 0.7714576263955668
0.5884262390366447 0.12491604660704406 0.8954211990162927
0.6980800326292211 -0.013144693025109087 0.8904042960973723
0.7264132094672316 0.12204511691648552 0.7772128046516563
0.7756028435537492 -0.023799360885478318 0.7714576263955668
0.7884262390366448 0.12491604660704406 0.8954211990162927
0.8980800326292212 -0.013144693025109087 0.8904042960973723
0.9264132094672317 0.12204511691648552 0.7772128046516563
-0.024397156446250883 0.1762006391145217 0.7714576263955668
-0.011573760963355313 0.3249160466070441 0.8954211990162927
0.09808003262922116 0.18685530697489094 0.8904042960973723
0.1264132094672316 0.3220451169164855 0.7772128046516563
0.1756028435537491 0.1762006391145217 0.7714576263955668
0.18842623903664468 0.3249160466070441 0.8954211990162927
0.29808003262922117 0.18685530697489094 0.8904042960973723
0.3264132094672316 0.3220451169164855 0.7772128046516563
0.3756028435537491 0.1762006391145217 0.7714576263955668
0.3884262390366447 0.3249160466070441 0.8954211990162927
0.4980800326292212 0.18685530697489094 0.8904042960973723
0.5264132094672317 0.3220451169164855 0.7772128046516563
0.5756028435537491 0.1762006391145217 0.7714576263955668
0.5884262390366447 0.3249160466070441 0.8954211990162927
0.6980800326292211 0.18685530697489094 0.8904042960973723
0.7264132094672316 0.3220451169164855 0.7772128046516563
0.7756028435537492 0.1762006391145217 0.7714576263955668
0.7884262390366448 0.3249160466070441 0.8954211990162927
0.8980800326292212 0.18685530697489094 0.8904042960973723
0.9264132094672317 0.3220451169164855 0.7772128046516563
-0.024397156446250883 0.37620063911452173 0.7714576263955668
-0.011573760963355313 0.524916046607044 0.8954211990162927
0.09808003262922116 0.38685530697489096 0.8904042960973723
0.1264132094672316 0.5220451169164856 0.7772128046516563
0.1756028435537491 0.37620063911452173 0.7714576263955668
0.18842623903664468 0.524916046607044 0.8954211990162927
0.29808003262922117 0.38685530697489096 0.8904042960973723
0.3264132094672316 0.5220451169164856 0.7772128046516563
0.3756028435537491 0.37620063911452173 0.7714576263955668
0.3884262390366447 0.524916046607044 0.8954211990162927
0.4980800326292212 0.38685530697489096 0.8904042960973723
0.5264132094672317 0.5220451169164856 0.7772128046516563
0.5756028435537491 0.37620063911452173 0.7714576263955668
0.5884262390366447 0.524916046607044 0.8954211990162927
0.6980800326292211 0.38685530697489096 0.8904042960973723
0.7264132094672316 0.5220451169164856 0.7772128046516563
0.7756028435537492 0.37620063911452173 0.7714576263955668
0.7884262390366448 0.524916046607044 0.8954211990162927
0.8980800326292212 0.38685530697489096 0.8904042960973723
0.9264132094672317 0.5220451169164856 0.7772128046516563
-0.024397156446250883 0.5762006391145217 0.7714576263955668
-0.011573760963355313 0.7249160466070441 0.8954211990162927
0.09808003262922116 0.586855306974891 0.8904042960973723
0.1264132094672316 0.7220451169164855 0.7772128046516563
0.1756028435537491 0.5762006391145217 0.7714576263955668
0.18842623903664468 0.7249160466070441 0.8954211990162927
0.29808003262922117 0.586855306974891 0.8904042960973723
0.3264132094672316 0.7220451169164855 0.7772128046516563
0.3756028435537491 0.5762006391145217 0.7714576263955668
0.3884262390366447 0.7249160466070441 0.8954211990162927
0.4980800326292212 0.586855306974891 0.8904042960973723
0.5264132094672317 0.7220451169164855 0.7772128046516563
0.5756028435537491 0.5762006391145217 0.7714576263955668
0.5884262390366447 0.7249160466070441 0.8954211990162927
0.6980800326292211 0.586855306974891 0.8904042960973723
0.7264132094672316 0.7220451169164855 0.7772128046516563
0.7756028435537492 0.5762006391145217 0.7714576263955668
0.7884262390366448 0.7249160466070441 0.8954211990162927
0.8980800326292212 0.586855306974891 0.8904042960973723
0.9264132094672317 0.7220451169164855 0.7772128046516563
-0.024397156446250883 0.7762006391145218 0.7714576263955668
-0.011573760963355313 0.9249160466070441 0.8954211990162927
0.09808003262922116 0.7868553069748909 0.8904042960973723
0.1264132094672316 0.9220451169164856 0.7772128046516563
0.1756028435537491 0.7762006391145218 0.7714576263955668
0.18842623903664468 0.9249160466070441 0.8954211990162927
0.29808003262922117 0.7868553069748909 0.8904042960973723
0.3264132094672316 0.9220451169164856 0.7772128046516563
0.3756028435537491 0.7762006391145218 0.7714576263955668
0.3884262390366447 0.9249160466070441 0.8954211990162927
0.4980800326292212 0.7868553069748909 0.8904042960973723
0.5264132094672317 0.9220451169164856 0.7772128046516563
0.5756028435537491 0.7762006391145218 0.7714576263955668
0.5884262390366447 0.9249160466070441 0.8954211990162927
0.6980800326292211 0.7868553069748909 0.8904042960973723
0.7264132094672316 0.9220451169164856 0.7772128046516563
0.7756028435537492 0.7762006391145218 0.7714576263955668
0.7884262390366448 0.9249160466070441 0.8954211990162927
0.8980800326292212 0.7868553069748909 0.8904042960973723
0.9264132094672317 0.9220451169164856 0.7772128046516563
0.12564794521360514 -0.011193437477354346 -0.022103942434792925
0.02904953482760586 0.1120596562470442 -0.011014074160299717
0.01797609512596569 0.029467692202007345 0.0910211340477431
0.08568764819125262 0.07080123931384827 0.10736907195370347
0.3256479452136052 -0.011193437477354346 -0.022103942434792925
0.22904953482760587 0.1120596562470442 -0.011014074160299717
0.2179760951259657 0.029467692202007345 0.0910211340477431
0.28568764819125264 0.07080123931384827 0.10736907195370347
0.5256479452136052 -0.011193437477354346 -0.022103942434792925
0.4290495348276059 0.1120596562470442 -0.011014074160299717
0.4179760951259657 0.029467692202007345 0.0910211340477431
0.4856876481912526 0.07080123931384827 0.10736907195370347
0.7256479452136052 -0.011193437477354346 -0.022103942434792925
0.629049534827606 0.1120596562470442 -0.011014074160299717
0.6179760951259657 0.029467692202007345 0.0910211340477431
0.6856876481912526 0.07080123931384827 0.10736907195370347
0.9256479452136053 -0.011193437477354346 -0.022103942434792925
0.8290495348276059 0.1120596562470442 -0.011014074160299717
0.8179760951259658 0.029467692202007345 0.0910211340477431
0.8856876481912526 0.07080123931384827 0.10736907195370347
0.12564794521360514 0.18880656252264566 -0.022103942434792925
0.02904953482760586 0.3120596562470442 -0.011014074160299717
0.01797609512596569 0.22946769220200736 0.0910211340477431
0.08568764819125262 0.2708012393138483 0.10736907195370347
0.3256479452136052 0.18880656252264566 -0.022103942434792925
0.22904953482760587 0.3120596562470442 -0.011014074160299717
0.2179760951259657 0.22946769220200736 0.0910211340477431
0.28568764819125264 0.2708012393138483 0.10736907195370347
0.5256479452136052 0.18880656252264566 -0.022103942434792925
0.4290495348276059 0.3120596562470442 -0.011014074160299717
0.4179760951259657 0.22946769220200736 0.0910211340477431
0.4856876481912526 0.2708012393138483 0.10736907195370347
0.7256479452136052 0.18880656252264566 -0.022103942434792925
0.629049534827606 0.3120596562470442 -0.011014074160299717
0.6179760951259657 0.22946769220200736 0.0910211340477431
0.6856876481912526 0.2708012393138483 0.10736907195370347
0.9256479452136053 0.18880656252264566 -0.022103942434792925
0.8290495348276059 0.3120596562470442 -0.011014074160299717
0.8179760951259658 0.22946769220200736 0.0910211340477431
0.8856876481912526 0.2708012393138483 0.10736907195370347
0.12564794521360514 0.38880656252264567 -0.022103942434792925
0.02904953482760586 0.5120596562470442 -0.011014074160299717
0.01797609512596569 0.42946769220200737 0.0910211340477431
0.08568764819125262 0.4708012393138483 0.10736907195370347
0.3256479452136052 0.38880656252264567 -0.022103942434792925
0.22904953482760587 0.5120596562470442 -0.011014074160299717
0.2179760951259657 0.42946769220200737 0.0910211340477431
0.28568764819125264 0.4708012393138483 0.10736907195370347
0.5256479452136052 0.38880656252264567 -0.022103942434792925
0.4290495348276059 0.5120596562470442 -0.011014074160299717
0.4179760951259657 0.42946769220200737 0.0910211340477431
0.4856876481912526 0.4708012393138483 0.10736907195370347
0.7256479452136052 0.38880656252264567 -0.022103942434792925
0.629049534827606 0.5120596562470442 -0.011014074160299717
0.6179760951259657 0.42946769220200737 0.0910211340477431
0.6856876481912526 0.4708012393138483 0.10736907195370347
0.9256479452136053 0.38880656252264567 -0.022103942434792925
0.8290495348276059 0.5120596562470442 -0.011014074160299717
0.8179760951259658 0.42946769220200737 0.0910211340477431
0.8856876481912526 0.4708012393138483 0.10736907195370347
0.12564794521360514 0.5888065625226456 -0.022103942434792925
0.02904953482760586 0.7120596562470443 -0.011014074160299717
0.01797609512596569 0.6294676922020074 0.0910211340477431
0.08568764819125262 0.6708012393138483 0.10736907195370347
0.3256479452136052 0.5888065625226456 -0.022103942434792925
0.22904953482760587 0.7120596562470443 -0.011014074160299717
0.2179760951259657 0.6294676922020074 0.0910211340477431
0.28568764819125264 0.6708012393138483 0.10736907195370347
0.5256479452136052 0.5888065625226456 -0.022103942434792925
0.4290495348276059 0.7120596562470443 -0.011014074160299717
0.4179760951259657 0.6294676922020074 0.0910211340477431
0.4856876481912526 0.6708012393138483 0.10736907195370347
0.7256479452136052 0.5888065625226456 -0.022103942434792925
0.629049534827606 0.7120596562470443 -0.011014074160299717
0.6179760951259657 0.6294676922020074 0.0910211340477431
0.6856876481912526 0.6708012393138483 0.10736907195370347
0.9256479452136053 0.5888065625226456 -0.022103942434792925
0.8290495348276059 0.7120596562470443 -0.011014074160299717
0.8179760951259658 0.6294676922020074 0.0910211340477431
0.8856876481912526 0.6708012393138483 0.10736907195370347
0.12564794521360514 0.7888065625226457 -0.022103942434792925
0.02904953482760586 0.9120596562470443 -0.011014074160299717
0.01797609512596569 0.8294676922020074 0.0910211340477431
0.08568764819125262 0.8708012393138482 0.10736907195370347
0.3256479452136052 0.7888065625226457 -0.022103942434792925
0.22904953482760587 0.9120596562470443 -0.011014074160299717
0.2179760951259657 0.8294676922020074 0.0910211340477431
0.28568764819125264 0.8708012393138482 0.10736907195370347
0.5256479452136052 0.7888065625226457 -0.022103942434792925
0.4290495348276059 0.9120596562470443 -0.011014074160299717
0.4179760951259657 0.8294676922020074 0.0910211340477431
0.4856876481912526 0.8708012393138482 0.10736907195370347
0.7256479452136052 0.7888065625226457 -0.022103942434792925
0.629049534827606 0.9120596562470443 -0.011014074160299717
0.6179760951259657 0.8294676922020074 0.0910211340477431
0.6856876481912526 0.8708012393138482 0.10736907195370347
0.9256479452136053 0.7888065625226457 -0.022103942434792925
0.8290495348276059 0.9120596562470443 -0.011014074160299717
0.8179760951259658 0.8294676922020074 0.0910211340477431
0.8856876481912526 0.8708012393138482 0.10736907195370347
0.12564794521360514 -0.011193437477354346 0.1778960575652071
0.02904953482760586 0.1120596562470442 0.1889859258397003
0.01797609512596569 0.029467692202007345 0.2910211340477431
0.08568764819125262 0.07080123931384827 0.30736907195370344
0.3256479452136052 -0.011193437477354346 0.1778960575652071
0.22904953482760587 0.1120596562470442 0.1889859258397003
0.2179760951259657 0.029467692202007345 0.2910211340477431
0.28568764819125264 0.07080123931384827 0.30736907195370344
0.5256479452136052 -0.011193437477354346 0.1778960575652071
0.4290495348276059 0.1120596562470442 0.1889859258397003
0.4179760951259657 0.029467692202007345 0.2910211340477431
0.4856876481912526 0.07080123931384827 0.30736907195370344
0.7256479452136052 -0.011193437477354346 0.1778960575652071
0.629049534827606 0.1120596562470442 0.1889859258397003
0.6179760951259657 0.029467692202007345 0.2910211340477431
0.6856876481912526 0.07080123931384827 0.30736907195370344
0.9256479452136053 -0.011193437477354346 0.1778960575652071
0.8290495348276059 0.1120596562470442 0.1889859258397003
0.8179760951259658 0.029467692202007345 0.2910211340477431
0.8856876481912526 0.07080123931384827 0.30736907195370344
0.12564794521360514 0.18880656252264566 0.1778960575652071
0.02904953482760586 0.3120596562470442 0.1889859258397003
0.01797609512596569 0.22946769220200736 0.2910211340477431
0.08568764819125262 0.2708012393138483 0.30736907195370344
0.3256479452136052 0.18880656252264566 0.1778960575652071
0.22904953482760587 0.3120596562470442 0.1889859258397003
0.2179760951259657 0.22946769220200736 0.2910211340477431
0.28568764819125264 0.2708012393138483 0.30736907195370344
0.5256479452136052 0.18880656252264566 0.1778960575652071
0.4290495348276059 0.3120596562470442 0.1889859258397003
0.4179760951259657 0.22946769220200736 0.2910211340477431
0.4856876481912526 0.2708012393138483 0.30736907195370344
0.7256479452136052 0.18880656252264566 0.1778960575652071
0.629049534827606 0.3120596562470442 0.1889859258397003
0.6179760951259657 0.22946769220200736 0.2910211340477431
0.6856876481912526 0.2708012393138483 0.30736907195370344
0.9256479452136053 0.18880656252264566 0.1778960575652071
0.8290495348276059 0.3120596562470442 0.1889859258397003
0.8179760951259658 0.22946769220200736 0.2910211340477431
0.8856876481912526 0.2708012393138483 0.30736907195370344
0.12564794521360514 0.38880656252264567 0.1778960575652071
0.02904953482760586 0.5120596562470442 0.1889859258397003
0.01797609512596569 0.42946769220200737 0.2910211340477431
0.08568764819125262 0.4708012393138483 0.30736907195370344
0.3256479452136052 0.38880656252264567 0.1778960575652071
0.22904953482760587 0.5120596562470442 0.1889859258397003
0.2179760951259657 0.42946769220200737 0.2910211340477431
0.28568764819125264 0.4708012393138483 0.30736907195370344
0.5256479452136052 0.38880656252264567 0.1778960575652071
0.4290495348276059 0.5120596562470442 0.1889859258397003
0.4179760951259657 0.42946769220200737 0.2910211340477431
0.4856876481912526 0.4708012393138483 0.30736907195370344
0.7256479452136052 0.38880656252264567 0.1778960575652071
0.629049534827606 0.5120596562470442 0.1889859258397003
0.6179760951259657 0.42946769220200737 0.2910211340477431
0.6856876481912526 0.4708012393138483 0.30736907195370344
0.9256479452136053 0.38880656252264567 0.1778960575652071
0.8290495348276059 0.5120596562470442 0.1889859258397003
0.8179760951259658 0.42946769220200737 0.2910211340477431
0.8856876481912526 0.4708012393138483 0.30736907195370344
0.12564794521360514 0.5888065625226456 0.1778960575652071
0.02904953482760586 0.7120596562470443 0.1889859258397003
0.01797609512596569 0.6294676922020074 0.2910211340477431
0.08568764819125262 0.6708012393138483 0.30736907195370344
0.3256479452136052 0.5888065625226456 0.1778960575652071
0.22904953482760587 0.7120596562470443 0.1889859258397003
0.2179760951259657 0.6294676922020074 0.2910211340477431
0.28568764819125264 0.6708012393138483 0.30736907195370344
0.5256479452136052 0.5888065625226456 0.1778960575652071
0.4290495348276059 0.7120596562470443 0.1889859258397003
0.4179760951259657 0.6294676922020074 0.2910211340477431
0.4856876481912526 0.6708012393138483 0.30736907195370344
0.7256479452136052 0.5888065625226456 0.1778960575652071
0.629049534827606 0.7120596562470443 0.1889859258397003
0.6179760951259657 0.6294676922020074 0.2910211340477431
0.6856876481912526 0.6708012393138483 0.30736907195370344
0.9256479452136053 0.5888065625226456 0.1778960575652071
0.8290495348276059 0.7120596562470443 0.1889859258397003
0.8179760951259658 0.6294676922020074 0.2910211340477431
0.8856876481912526 0.6708012393138483 0.30736907195370344
0.12564794521360514 0.7888065625226457 0.1778960575652071
0.02904953482760586 0.9120596562470443 0.1889859258397003
0.01797609512596569 0.8294676922020074 0.2910211340477431
0.08568764819125262 0.8708012393138482 0.30736907195370344
0.3256479452136052 0.7888065625226457 0.1778960575652071
0.22904953482760587 0.9120596562470443 0.1889859258397003
0.2179760951259657 0.8294676922020074 0.2910211340477431
0.28568764819125264 0.8708012393138482 0.30736907195370344
0.5256479452136052 0.7888065625226457 0.1778960575652071
0.4290495348276059 0.9120596562470443 0.1889859258397003
0.4179760951259657 0.8294676922020074 0.2910211340477431
0.4856876481912526 0.8708012393138482 0.30736907195370344
0.7256479452136052 0.7888065625226457 0.1778960575652071
0.629049534827606 0.9120596562470443 0.1889859258397003
0.6179760951259657 0.8294676922020074 0.2910211340477431
0.6856876481912526 0.8708012393138482 0.30736907195370344
0.9256479452136053 0.7888065625226457 0.1778960575652071
0.8290495348276059 0.9120596562470443 0.1889859258397003
0.8179760951259658 0.8294676922020074 0.2910211340477431
0.8856876481912526 0.8708012393138482 0.30736907195370344
0.12564794521360514 -0.011193437477354346 0.37789605756520706
0.02904953482760586 0.1120596562470442 0.3889859258397003
0.01797609512596569 0.029467692202007345 0.49102113404774317
0.08568764819125262 0.07080123931384827 0.5073690719537035
0.3256479452136052 -0.011193437477354346 0.37789605756520706
0.22904953482760587 0.1120596562470442 0.3889859258397003
0.2179760951259657 0.029467692202007345 0.49102113404774317
0.28568764819125264 0.07080123931384827 0.5073690719537035
0.5256479452136052 -0.011193437477354346 0.37789605756520706
0.4290495348276059 0.1120596562470442 0.3889859258397003
0.4179760951259657 0.029467692202007345 0.49102113404774317
0.4856876481912526 0.07080123931384827 0.5073690719537035
0.7256479452136052 -0.011193437477354346 0.37789605756520706
0.629049534827606 0.1120596562470442 0.3889859258397003
0.6179760951259657 0.029467692202007345 0.49102113404774317
0.6856876481912526 0.07080123931384827 0.5073690719537035
0.9256479452136053 -0.011193437477354346 0.37789605756520706
0.8290495348276059 0.1120596562470442 0.3889859258397003
0.8179760951259658 0.029467692202007345 0.49102113404774317
0.8856876481912526 0.07080123931384827 0.5073690719537035
0.12564794521360514 0.18880656252264566 0.37789605756520706
0.02904953482760586 0.3120596562470442 0.3889859258397003
0.01797609512596569 0.22946769220200736 0.49102113404774317
0.08568764819125262 0.2708012393138483 0.5073690719537035
0.3256479452136052 0.18880656252264566 0.37789605756520706
0.22904953482760587 0.3120596562470442 0.3889859258397003
0.2179760951259657 0.22946769220200736 0.49102113404774317
0.28568764819125264 0.2708012393138483 0.5073690719537035
0.5256479452136052 0.18880656252264566 0.37789605756520706
0.4290495348276059 0.3120596562470442 0.3889859258397003
0.4179760951259657 0.22946769220200736 0.49102113404774317
0.4856876481912526 0.2708012393138483 0.5073690719537035
0.7256479452136052 0.18880656252264566 0.37789605756520706
0.629049534827606 0.3120596562470442 0.3889859258397003
0.6179760951259657 0.22946769220200736 0.49102113404774317
0.6856876481912526 0.2708012393138483 0.5073690719537035
0.9256479452136053 0.18880656252264566 0.37789605756520706
0.8290495348276059 0.3120596562470442 0.3889859258397003
0.8179760951259658 0.22946769220200736 0.49102113404774317
0.8856876481912526 0.2708012393138483 0.5073690719537035
0.12564794521360514 0.38880656252264567 0.37789605756520706
0.02904953482760586 0.5120596562470442 0.3889859258397003
0.01797609512596569 0.42946769220200737 0.49102113404774317
0.08568764819125262 0.4708012393138483 0.5073690719537035
0.3256479452136052 0.38880656252264567 0.37789605756520706
0.22904953482760587 0.5120596562470442 0.3889859258397003
0.2179760951259657 0.42946769220200737 0.49102113404774317
0.28568764819125264 0.4708012393138483 0.5073690719537035
0.5256479452136052 0.38880656252264567 0.37789605756520706
0.4290495348276059 0.5120596562470442 0.3889859258397003
0.4179760951259657 0.42946769220200737 0.49102113404774317
0.4856876481912526 0.4708012393138483 0.5073690719537035
0.7256479452136052 0.38880656252264567 0.37789605756520706
0.629049534827606 0.5120596562470442 0.3889859258397003
0.6179760951259657 0.42946769220200737 0.49102113404774317
0.6856876481912526 0.4708012393138483 0.5073690719537035
0.9256479452136053 0.38880656252264567 0.37789605756520706
0.8290495348276059 0.5120596562470442 0.3889859258397003
0.8179760951259658 0.42946769220200737 0.49102113404774317
0.8856876481912526 0.4708012393138483 0.5073690719537035
0.12564794521360514 0.5888065625226456 0.37789605756520706
0.02904953482760586 0.7120596562470443 0.3889859258397003
0.01797609512596569 0.6294676922020074 0.49102113404774317
0.08568764819125262 0.6708012393138483 0.5073690719537035
0.3256479452136052 0.5888065625226456 0.37789605756520706
0.22904953482760587 0.7120596562470443 0.3889859258397003
0.2179760951259657 0.6294676922020074 0.49102113404774317
0.28568764819125264 0.6708012393138483 0.5073690719537035
0.5256479452136052 0.5888065625226456 0.37789605756520706
0.4290495348276059 0.7120596562470443 0.3889859258397003
0.4179760951259657 0.6294676922020074 0.49102113404774317
0.4856876481912526 0.6708012393138483 0.5073690719537035
0.7256479452136052 0.5888065625226456 0.37789605756520706
0.629049534827606 0.7120596562470443 0.3889859258397003
0.6179760951259657 0.6294676922020074 0.49102113404774317
0.6856876481912526 0.6708012393138483 0.5073690719537035
0.9256479452136053 0.5888065625226456 0.37789605756520706
0.8290495348276059 0.7120596562470443 0.3889859258397003
0.8179760951259658 0.6294676922020074 0.49102113404774317
0.8856876481912526 0.6708012393138483 0.5073690719537035
0.12564794521360514 0.7888065625226457 0.37789605756520706
0.02904953482760586 0.9120596562470443 0.3889859258397003
0.01797609512596569 0.8294676922020074 0.49102113404774317
0.08568764819125262 0.8708012393138482 0.5073690719537035
0.3256479452136052 0.7888065625226457 0.37789605756520706
0.22904953482760587 0.9120596562470443 0.3889859258397003
0.2179760951259657 0.8294676922020074 0.49102113404774317
0.28568764819125264 0.8708012393138482 0.5073690719537035
0.5256479452136052 0.7888065625226457 0.37789605756520706
0.4290495348276059 0.9120596562470443 0.3889859258397003
0.4179760951259657 0.8294676922020074 0.49102113404774317
0.4856876481912526 0.8708012393138482 0.5073690719537035
0.7256479452136052 0.7888065625226457 0.37789605756520706
0.629049534827606 0.9120596562470443 0.3889859258397003
0.6179760951259657 0.8294676922020074 0.49102113404774317
0.6856876481912526 0.8708012393138482 0.5073690719537035
0.9256479452136053 0.7888065625226457 0.37789605756520706
0.8290495348276059 0.9120596562470443 0.3889859258397003
0.8179760951259658 0.8294676922020074 0.49102113404774317
0.8856876481912526 0.8708012393138482 0.5073690719537035
0.12564794521360514 -0.011193437477354346 0.5778960575652071
0.02904953482760586 0.1120596562470442 0.5889859258397003
0.01797609512596569 0.029467692202007345 0.6910211340477432
0.08568764819125262 0.07080123931384827 0.7073690719537035
0.3256479452136052 -0.011193437477354346 0.5778960575652071
0.22904953482760587 0.1120596562470442 0.5889859258397003
0.2179760951259657 0.029467692202007345 0.6910211340477432
0.28568764819125264 0.07080123931384827 0.7073690719537035
0.5256479452136052 -0.011193437477354346 0.5778960575652071
0.4290495348276059 0.1120596562470442 0.5889859258397003
0.4179760951259657 0.029467692202007345 0.6910211340477432
0.4856876481912526 0.07080123931384827 0.7073690719537035
0.7256479452136052 -0.011193437477354346 0.5778960575652071
0.629049534827606 0.1120596562470442 0.5889859258397003
0.6179760951259657 0.029467692202007345 0.6910211340477432
0.6856876481912526 0.07080123931384827 0.7073690719537035
0.9256479452136053 -0.011193437477354346 0.5778960575652071
0.8290495348276059 0.1120596562470442 0.5889859258397003
0.8179760951259658 0.029467692202007345 0.6910211340477432
0.8856876481912526 0.07080123931384827 0.7073690719537035
0.12564794521360514 0.18880656252264566 0.5778960575652071
0.02904953482760586 0.3120596562470442 0.5889859258397003
0.01797609512596569 0.22946769220200736 0.6910211340477432
0.08568764819125262 0.2708012393138483 0.7073690719537035
0.3256479452136052 0.18880656252264566 0.5778960575652071
0.22904953482760587 0.3120596562470442 0.5889859258397003
0.2179760951259657 0.22946769220200736 0.6910211340477432
0.28568764819125264 0.2708012393138483 0.7073690719537035
0.5256479452136052 0.18880656252264566 0.5778960575652071
0.4290495348276059 0.3120596562470442 0.5889859258397003
0.4179760951259657 0.22946769220200736 0.6910211340477432
0.4856876481912526 0.2708012393138483 0.7073690719537035
0.7256479452136052 0.18880656252264566 0.5778960575652071
0.629049534827606 0.3120596562470442 0.5889859258397003
0.6179760951259657 0.22946769220200736 0.6910211340477432
0.6856876481912526 0.2708012393138483 0.7073690719537035
0.9256479452136053 0.18880656252264566 0.5778960575652071
0.8290495348276059 0.3120596562470442 0.5889859258397003
0.8179760951259658 0.22946769220200736 0.6910211340477432
0.8856876481912526 0.2708012393138483 0.7073690719537035
0.12564794521360514 0.38880656252264567 0.5778960575652071
0.02904953482760586 0.5120596562470442 0.5889859258397003
0.01797609512596569 0.42946769220200737 0.6910211340477432
0.08568764819125262 0.4708012393138483 0.7073690719537035
0.3256479452136052 0.38880656252264567 0.5778960575652071
0.22904953482760587 0.5120596562470442 0.5889859258397003
0.2179760951259657 0.42946769220200737 0.6910211340477432
0.28568764819125264 0.4708012393138483 0.7073690719537035
0.5256479452136052 0.38880656252264567 0.5778960575652071
0.4290495348276059 0.5120596562470442 0.5889859258397003
0.4179760951259657 0.42946769220200737 0.6910211340477432
0.4856876481912526 0.4708012393138483 0.7073690719537035
0.7256479452136052 0.38880656252264567 0.5778960575652071
0.629049534827606 0.5120596562470442 0.5889859258397003
0.6179760951259657 0.42946769220200737 0.6910211340477432
0.6856876481912526 0.4708012393138483 0.7073690719537035
0.9256479452136053 0.38880656252264567 0.5778960575652071
0.8290495348276059 0.5120596562470442 0.5889859258397003
0.8179760951259658 0.42946769220200737 0.6910211340477432
0.8856876481912526 0.4708012393138483 0.7073690719537035
0.12564794521360514 0.5888065625226456 0.5778960575652071
0.02904953482760586 0.7120596562470443 0.5889859258397003
0.01797609512596569 0.6294676922020074 0.6910211340477432
0.08568764819125262 0.6708012393138483 0.7073690719537035
0.3256479452136052 0.5888065625226456 0.5778960575652071
0.22904953482760587 0.7120596562470443 0.5889859258397003
0.2179760951259657 0.6294676922020074 0.6910211340477432
0.28568764819125264 0.6708012393138483 0.7073690719537035
0.5256479452136052 0.5888065625226456 0.5778960575652071
0.4290495348276059 0.7120596562470443 0.5889859258397003
0.4179760951259657 0.6294676922020074 0.6910211340477432
0.4856876481912526 0.6708012393138483 0.7073690719537035
0.7256479452136052 0.5888065625226456 0.5778960575652071
0.629049534827606 0.7120596562470443 0.5889859258397003
0.6179760951259657 0.6294676922020074 0.6910211340477432
0.6856876481912526 0.6708012393138483 0.7073690719537035
0.9256479452136053 0.5888065625226456 0.5778960575652071
0.8290495348276059 0.7120596562470443 0.5889859258397003
0.8179760951259658 0.6294676922020074 0.6910211340477432
0.8856876481912526 0.6708012393138483 0.7073690719537035
0.12564794521360514 0.7888065625226457 0.5778960575652071
0.02904953482760586 0.9120596562470443 0.5889859258397003
0.01797609512596569 0.8294676922020074 0.6910211340477432
0.08568764819125262 0.8708012393138482 0.7073690719537035
0.3256479452136052 0.7888065625226457 0.5778960575652071
0.22904953482760587 0.9120596562470443 0.5889859258397003
0.2179760951259657 0.8294676922020074 0.6910211340477432
0.28568764819125264 0.8708012393138482 0.7073690719537035
0.5256479452136052 0.7888065625226457 0.5778960575652071
0.4290495348276059 0.9120596562470443 0.5889859258397003
0.4179760951259657 0.8294676922020074 0.6910211340477432
0.4856876481912526 0.8708012393138482 0.7073690719537035
0.7256479452136052 0.7888065625226457 0.5778960575652071
0.629049534827606 0.9120596562470443 0.5889859258397003
0.6179760951259657 0.8294676922020074 0.6910211340477432
0.6856876481912526 0.8708012393138482 0.7073690719537035
0.9256479452136053 0.7888065625226457 0.5778960575652071
0.8290495348276059 0.9120596562470443 0.5889859258397003
0.8179760951259658 0.8294676922020074 0.6910211340477432
0.8856876481912526 0.8708012393138482 0.7073690719537035
0.12564794521360514 -0.011193437477354346 0.7778960575652071
0.02904953482760586 0.1120596562470442 0.7889859258397003
0.01797609512596569 0.029467692202007345 0.8910211340477432
0.08568764819125262 0.07080123931384827 0.9073690719537035
0.3256479452136052 -0.011193437477354346 0.7778960575652071
0.22904953482760587 0.1120596562470442 0.7889859258397003
0.2179760951259657 0.029467692202007345 0.8910211340477432
0.28568764819125264 0.07080123931384827 0.9073690719537035
0.5256479452136052 -0.011193437477354346 0.7778960575652071
0.4290495348276059 0.1120596562470442 0.7889859258397003
0.4179760951259657 0.029467692202007345 0.8910211340477432
0.4856876481912526 0.07080123931384827 0.9073690719537035
0.7256479452136052 -0.011193437477354346 0.7778960575652071
0.629049534827606 0.1120596562470442 0.7889859258397003
0.6179760951259657 0.029467692202007345 0.8910211340477432
0.6856876481912526 0.07080123931384827 0.9073690719537035
0.9256479452136053 -0.011193437477354346 0.7778960575652071
0.8290495348276059 0.1120596562470442 0.7889859258397003
0.8179760951259658 0.029467692202007345 0.8910211340477432
0.8856876481912526 0.07080123931384827 0.9073690719537035
0.12564794521360514 0.18880656252264566 0.7778960575652071
0.02904953482760586 0.3120596562470442 0.7889859258397003
0.01797609512596569 0.22946769220200736 0.8910211340477432
0.08568764819125262 0.2708012393138483 0.9073690719537035
0.3256479452136052 0.18880656252264566 0.7778960575652071
0.22904953482760587 0.3120596562470442 0.7889859258397003
0.2179760951259657 0.22946769220200736 0.8910211340477432
0.28568764819125264 0.2708012393138483 0.9073690719537035
0.5256479452136052 0.18880656252264566 0.7778960575652071
0.4290495348276059 0.3120596562470442 0.7889859258397003
0.4179760951259657 0.22946769220200736 0.8910211340477432
0.4856876481912526 0.2708012393138483 0.9073690719537035
0.7256479452136052 0.18880656252264566 0.7778960575652071
0.629049534827606 0.3120596562470442 0.7889859258397003
0.6179760951259657 0.22946769220200736 0.8910211340477432
0.6856876481912526 0.2708012393138483 0.9073690719537035
0.9256479452136053 0.18880656252264566 0.7778960575652071
0.8290495348276059 0.3120596562470442 0.7889859258397003
0.8179760951259658 0.22946769220200736 0.8910211340477432
0.8856876481912526 0.2708012393138483 0.9073690719537035
0.12564794521360514 0.38880656252264567 0.7778960575652071
0.02904953482760586 0.5120596562470442 0.7889859258397003
0.01797609512596569 0.42946769220200737 0.8910211340477432
0.08568764819125262 0.4708012393138483 0.9073690719537035
0.3256479452136052 0.38880656252264567 0.7778960575652071
0.22904953482760587 0.5120596562470442 0.7889859258397003
0.2179760951259657 0.42946769220200737 0.8910211340477432
0.28568764819125264 0.4708012393138483 0.9073690719537035
0.5256479452136052 0.38880656252264567 0.7778960575652071
0.4290495348276059 0.5120596562470442 0.7889859258397003
0.4179760951259657 0.42946769220200737 0.8910211340477432
0.4856876481912526 0.4708012393138483 0.9073690719537035
0.7256479452136052 0.38880656252264567 0.7778960575652071
0.629049534827606 0.5120596562470442 0.7889859258397003
0.6179760951259657 0.42946769220200737 0.8910211340477432
0.6856876481912526 0.4708012393138483 0.9073690719537035
0.9256479452136053 0.38880656252264567 0.7778960575652071
0.8290495348276059 0.5120596562470442 0.7889859258397003
0.8179760951259658 0.42946769220200737 0.8910211340477432
0.8856876481912526 0.4708012393138483 0.9073690719537035
0.12564794521360514 0.5888065625226456 0.7778960575652071
0.02904953482760586 0.7120596562470443 0.7889859258397003
0.01797609512596569 0.6294676922020074 0.8910211340477432
0.08568764819125262 0.6708012393138483 0.9073690719537035
0.3256479452136052 0.5888065625226456 0.7778960575652071
0.22904953482760587 0.7120596562470443 0.7889859258397003
0.2179760951259657 0.6294676922020074 0.8910211340477432
0.28568764819125264 0.6708012393138483 0.9073690719537035
0.5256479452136052 0.5888065625226456 0.7778960575652071
0.4290495348276059 0.7120596562470443 0.7889859258397003
0.4179760951259657 0.6294676922020074 0.8910211340477432
0.4856876481912526 0.6708012393138483 0.9073690719537035
0.7256479452136052 0.5888065625226456 0.7778960575652071
0.629049534827606 0.7120596562470443 0.7889859258397003
0.6179760951259657 0.6294676922020074 0.8910211340477432
0.6856876481912526 0.6708012393138483 0.9073690719537035
0.9256479452136053 0.5888065625226456 0.7778960575652071
0.8290495348276059 0.7120596562470443 0.7889859258397003
0.8179760951259658 0.6294676922020074 0.8910211340477432
0.8856876481912526 0.6708012393138483 0.9073690719537035
0.12564794521360514 0.7888065625226457 0.7778960575652071
0.02904953482760586 0.9120596562470443 0.7889859258397003
0.01797609512596569 0.8294676922020074 0.8910211340477432
0.08568764819125262 0.8708012393138482 0.9073690719537035
0.3256479452136052 0.7888065625226457 0.7778960575652071
0.22904953482760587 0.9120596562470443 0.7889859258397003
0.2179760951259657 0.8294676922020074 0.8910211340477432
0.28568764819125264 0.8708012393138482 0.9073690719537035
0.5256479452136052 0.7888065625226457 0.7778960575652071
0.4290495348276059 0.9120596562470443 0.7889859258397003
0.4179760951259657 0.8294676922020074 0.8910211340477432
0.4856876481912526 0.8708012393138482 0.9073690719537035
0.7256479452136052 0.7888065625226457 0.7778960575652071
0.629049534827606 0.9120596562470443 0.7889859258397003
0.6179760951259657 0.8294676922020074 0.8910211340477432
0.6856876481912526 0.8708012393138482 0.9073690719537035
0.9256479452136053 0.7888065625226457 0.7778960575652071
0.8290495348276059 0.9120596562470443 0.7889859258397003
0.8179760951259658 0.8294676922020074 0.8910211340477432
0.8856876481912526 0.8708012393138482 0.9073690719537035
