FCC BaO
5.61604
3.0 0.0 0.0
0.0 3.0 0.0
0.0 0.0 3.0
Ba O 
108 108 
Direct
0.21314147138421735 -0.5857304153195888 0.11429495408846482
0.18309079145257 0.28464156942094065 0.7066249282641028
0.12440335788774662 -0.4547192808960787 0.5493495060136211
-0.08744938728497564 0.47549918054110885 0.09551506695342979
0.5464748047175507 -0.5857304153195888 0.11429495408846482
0.5164241247859033 0.28464156942094065 0.7066249282641028
0.4577366912210799 -0.4547192808960787 0.5493495060136211
0.24588394604835767 0.47549918054110885 0.09551506695342979
0.879808138050884 -0.5857304153195888 0.11429495408846482
0.8497574581192366 0.28464156942094065 0.7066249282641028
0.7910700245544132 -0.4547192808960787 0.5493495060136211
0.579217279381691 0.47549918054110885 0.09551506695342979
0.21314147138421735 -0.25239708198625554 0.11429495408846482
0.18309079145257 0.617974902754274 0.7066249282641028
0.12440335788774662 -0.12138594756274537 0.5493495060136211
-0.08744938728497564 0.8088325138744421 0.09551506695342979
0.5464748047175507 -0.25239708198625554 0.11429495408846482
0.5164241247859033 0.617974902754274 0.7066249282641028
0.4577366912210799 -0.12138594756274537 0.5493495060136211
0.24588394604835767 0.8088325138744421 0.09551506695342979
0.879808138050884 -0.25239708198625554 0.11429495408846482
0.8497574581192366 0.617974902754274 0.7066249282641028
0.7910700245544132 -0.12138594756274537 0.5493495060136211
0.579217279381691 0.8088325138744421 0.09551506695342979
0.21314147138421735 0.08093625134707778 0.11429495408846482
0.18309079145257 0.9513082360876073 0.7066249282641028
0.12440335788774662 0.21194738577058794 0.5493495060136211
-0.08744938728497564 1.1421658472077754 0.09551506695342979
0.5464748047175507 0.08093625134707778 0.11429495408846482
0.5164241247859033 0.9513082360876073 0.7066249282641028
0.4577366912210799 0.21194738577058794 0.5493495060136211
0.24588394604835767 1.1421658472077754 0.09551506695342979
0.879808138050884 0.08093625134707778 0.11429495408846482
0.8497574581192366 0.9513082360876073 0.7066249282641028
0.7910700245544132 0.21194738577058794 0.5493495060136211
0.579217279381691 1.1421658472077754 0.09551506695342979
0.21314147138421735 -0.5857304153195888 0.4476282874217981
0.18309079145257 0.28464156942094065 1.039958261597436
0.12440335788774662 -0.4547192808960787 0.8826828393469546
-0.08744938728497564 0.47549918054110885 0.4288484002867631
0.5464748047175507 -0.5857304153195888 0.4476282874217981
0.5164241247859033 0.28464156942094065 1.039958261597436
0.4577366912210799 -0.4547192808960787 0.8826828393469546
0.24588394604835767 0.47549918054110885 0.4288484002867631
0.879808138050884 -0.5857304153195888 0.4476282874217981
0.8497574581192366 0.28464156942094065 1.039958261597436
0.7910700245544132 -0.4547192808960787 0.8826828393469546
0.579217279381691 0.47549918054110885 0.4288484002867631
0.21314147138421735 -0.25239708198625554 0.4476282874217981
0.18309079145257 0.617974902754274 1.039958261597436
0.12440335788774662 -0.12138594756274537 0.8826828393469546
-0.08744938728497564 0.8088325138744421 0.4288484002867631
0.5464748047175507 -0.25239708198625554 0.4476282874217981
0.5164241247859033 0.617974902754274 1.039958261597436
0.4577366912210799 -0.12138594756274537 0.8826828393469546
0.24588394604835767 0.8088325138744421 0.4288484002867631
0.879808138050884 -0.25239708198625554 0.4476282874217981
0.8497574581192366 0.617974902754274 1.039958261597436
0.7910700245544132 -0.12138594756274537 0.8826828393469546
0.579217279381691 0.8088325138744421 0.4288484002867631
0.21314147138421735 0.08093625134707778 0.4476282874217981
0.18309079145257 0.9513082360876073 1.039958261597436
0.12440335788774662 0.21194738577058794 0.8826828393469546
-0.08744938728497564 1.1421658472077754 0.4288484002867631
0.5464748047175507 0.08093625134707778 0.4476282874217981
0.5164241247859033 0.9513082360876073 1.039958261597436
0.4577366912210799 0.21194738577058794 0.8826828393469546
0.24588394604835767 1.1421658472077754 0.4288484002867631
0.879808138050884 0.08093625134707778 0.4476282874217981
0.8497574581192366 0.9513082360876073 1.039958261597436
0.7910700245544132 0.21194738577058794 0.8826828393469546
0.579217279381691 1.1421658472077754 0.4288484002867631
0.21314147138421735 -0.5857304153195888 0.7809616207551314
0.18309079145257 0.28464156942094065 1.3732915949307696
0.12440335788774662 -0.4547192808960787 1.2160161726802878
-0.08744938728497564 0.47549918054110885 0.7621817336200964
0.5464748047175507 -0.5857304153195888 0.7809616207551314
0.5164241247859033 0.28464156942094065 1.3732915949307696
0.4577366912210799 -0.4547192808960787 1.2160161726802878
0.24588394604835767 0.47549918054110885 0.7621817336200964
0.879808138050884 -0.5857304153195888 0.7809616207551314
0.8497574581192366 0.28464156942094065 1.3732915949307696
0.7910700245544132 -0.4547192808960787 1.2160161726802878
0.579217279381691 0.47549918054110885 0.7621817336200964
0.21314147138421735 -0.25239708198625554 0.7809616207551314
0.18309079145257 0.617974902754274 1.3732915949307696
0.12440335788774662 -0.12138594756274537 1.2160161726802878
-0.08744938728497564 0.8088325138744421 0.7621817336200964
0.5464748047175507 -0.25239708198625554 0.7809616207551314
0.5164241247859033 0.617974902754274 1.3732915949307696
0.4577366912210799 -0.12138594756274537 1.2160161726802878
0.24588394604835767 0.8088325138744421 0.7621817336200964
0.879808138050884 -0.25239708198625554 0.7809616207551314
0.8497574581192366 0.617974902754274 1.3732915949307696
0.7910700245544132 -0.12138594756274537 1.2160161726802878
0.579217279381691 0.8088325138744421 0.7621817336200964
0.21314147138421735 0.08093625134707778 0.7809616207551314
0.18309079145257 0.9513082360876073 1.3732915949307696
0.12440335788774662 0.21194738577058794 1.2160161726802878
-0.08744938728497564 1.1421658472077754 0.7621817336200964
0.5464748047175507 0.08093625134707778 0.7809616207551314
0.5164241247859033 0.9513082360876073 1.3732915949307696
0.4577366912210799 0.21194738577058794 1.2160161726802878
0.24588394604835767 1.1421658472077754 0.7621817336200964
0.879808138050884 0.08093625134707778 0.7809616207551314
0.8497574581192366 0.9513082360876073 1.3732915949307696
0.7910700245544132 0.21194738577058794 1.2160161726802878
0.579217279381691 1.1421658472077754 0.7621817336200964
0.994748844181941 0.11965014951510292 -0.08443435140767992
0.07213188699818746 0.6407247202270637 -0.298177985223379
0.8708891899273806 1.19883634001047 0.553759025605586
0.2806009564983357 0.14300849535236237 -0.16367962188529994
1.3280821775152742 0.11965014951510292 -0.08443435140767992
0.40546522033152077 0.6407247202270637 -0.298177985223379
1.204222523260714 1.19883634001047 0.553759025605586
0.613934289831669 0.14300849535236237 -0.16367962188529994
1.6614155108486077 0.11965014951510292 -0.08443435140767992
0.7387985536648541 0.6407247202270637 -0.298177985223379
1.537555856594047 1.19883634001047 0.553759025605586
0.9472676231650023 0.14300849535236237 -0.16367962188529994
0.994748844181941 0.45298348284843626 -0.08443435140767992
0.07213188699818746 0.974058053560397 -0.298177985223379
0.8708891899273806 1.5321696733438035 0.553759025605586
0.2806009564983357 0.47634182868569575 -0.16367962188529994
1.3280821775152742 0.45298348284843626 -0.08443435140767992
0.40546522033152077 0.974058053560397 -0.298177985223379
1.204222523260714 1.5321696733438035 0.553759025605586
0.613934289831669 0.47634182868569575 -0.16367962188529994
1.6614155108486077 0.45298348284843626 -0.08443435140767992
0.7387985536648541 0.974058053560397 -0.298177985223379
1.537555856594047 1.5321696733438035 0.553759025605586
0.9472676231650023 0.47634182868569575 -0.16367962188529994
0.994748844181941 0.7863168161817695 -0.08443435140767992
0.07213188699818746 1.3073913868937304 -0.298177985223379
0.8708891899273806 1.8655030066771368 0.553759025605586
0.2806009564983357 0.809675162019029 -0.16367962188529994
1.3280821775152742 0.7863168161817695 -0.08443435140767992
0.40546522033152077 1.3073913868937304 -0.298177985223379
1.204222523260714 1.8655030066771368 0.553759025605586
0.613934289831669 0.809675162019029 -0.16367962188529994
1.6614155108486077 0.7863168161817695 -0.08443435140767992
0.7387985536648541 1.3073913868937304 -0.298177985223379
1.537555856594047 1.8655030066771368 0.553759025605586
0.9472676231650023 0.809675162019029 -0.16367962188529994
0.994748844181941 0.11965014951510292 0.2488989819256534
0.07213188699818746 0.6407247202270637 0.03515534810995431
0.8708891899273806 1.19883634001047 0.8870923589389192
0.2806009564983357 0.14300849535236237 0.16965371144803337
1.3280821775152742 0.11965014951510292 0.2488989819256534
0.40546522033152077 0.6407247202270637 0.03515534810995431
1.204222523260714 1.19883634001047 0.8870923589389192
0.613934289831669 0.14300849535236237 0.16965371144803337
1.6614155108486077 0.11965014951510292 0.2488989819256534
0.7387985536648541 0.6407247202270637 0.03515534810995431
1.537555856594047 1.19883634001047 0.8870923589389192
0.9472676231650023 0.14300849535236237 0.16965371144803337
0.994748844181941 0.45298348284843626 0.2488989819256534
0.07213188699818746 0.974058053560397 0.03515534810995431
0.8708891899273806 1.5321696733438035 0.8870923589389192
0.2806009564983357 0.47634182868569575 0.16965371144803337
1.3280821775152742 0.45298348284843626 0.2488989819256534
0.40546522033152077 0.974058053560397 0.03515534810995431
1.204222523260714 1.5321696733438035 0.8870923589389192
0.613934289831669 0.47634182868569575 0.16965371144803337
1.6614155108486077 0.45298348284843626 0.2488989819256534
0.7387985536648541 0.974058053560397 0.03515534810995431
1.537555856594047 1.5321696733438035 0.8870923589389192
0.9472676231650023 0.47634182868569575 0.16965371144803337
0.994748844181941 0.7863168161817695 0.2488989819256534
0.07213188699818746 1.3073913868937304 0.03515534810995431
0.8708891899273806 1.8655030066771368 0.8870923589389192
0.2806009564983357 0.809675162019029 0.16965371144803337
1.3280821775152742 0.7863168161817695 0.2488989819256534
0.40546522033152077 1.3073913868937304 0.03515534810995431
1.204222523260714 1.8655030066771368 0.8870923589389192
0.613934289831669 0.809675162019029 0.16965371144803337
1.6614155108486077 0.7863168161817695 0.2488989819256534
0.7387985536648541 1.3073913868937304 0.03515534810995431
1.537555856594047 1.8655030066771368 0.8870923589389192
0.9472676231650023 0.809675162019029 0.16965371144803337
0.994748844181941 0.11965014951510292 0.5822323152589868
0.07213188699818746 0.6407247202270637 0.3684886814432876
0.8708891899273806 1.19883634001047 1.2204256922722525
0.2806009564983357 0.14300849535236237 0.5029870447813667
1.3280821775152742 0.11965014951510292 0.5822323152589868
0.40546522033152077 0.6407247202270637 0.3684886814432876
1.204222523260714 1.19883634001047 1.2204256922722525
0.613934289831669 0.14300849535236237 0.5029870447813667
1.6614155108486077 0.11965014951510292 0.5822323152589868
0.7387985536648541 0.6407247202270637 0.3684886814432876
1.537555856594047 1.19883634001047 1.2204256922722525
0.9472676231650023 0.14300849535236237 0.5029870447813667
0.994748844181941 0.45298348284843626 0.5822323152589868
0.07213188699818746 0.974058053560397 0.3684886814432876
0.8708891899273806 1.5321696733438035 1.2204256922722525
0.2806009564983357 0.47634182868569575 0.5029870447813667
1.3280821775152742 0.45298348284843626 0.5822323152589868
0.40546522033152077 0.974058053560397 0.3684886814432876
1.204222523260714 1.5321696733438035 1.2204256922722525
0.613934289831669 0.47634182868569575 0.5029870447813667
1.6614155108486077 0.45298348284843626 0.5822323152589868
0.7387985536648541 0.974058053560397 0.3684886814432876
1.537555856594047 1.5321696733438035 1.2204256922722525
0.9472676231650023 0.47634182868569575 0.5029870447813667
0.994748844181941 0.7863168161817695 0.5822323152589868
0.07213188699818746 1.3073913868937304 0.3684886814432876
0.8708891899273806 1.8655030066771368 1.2204256922722525
0.2806009564983357 0.809675162019029 0.5029870447813667
1.3280821775152742 0.7863168161817695 0.5822323152589868
0.40546522033152077 1.3073913868937304 0.3684886814432876
1.204222523260714 1.8655030066771368 1.2204256922722525
0.613934289831669 0.809675162019029 0.5029870447813667
1.6614155108486077 0.7863168161817695 0.5822323152589868
0.7387985536648541 1.3073913868937304 0.3684886814432876
1.537555856594047 1.8655030066771368 1.2204256922722525
0.9472676231650023 0.809675162019029 0.5029870447813667
