FCC BaO
5.61604
3.0 0.0 0.0
0.0 3.0 0.0
0.0 0.0 3.0
Ba O 
108 108 
Direct
0.7342575513652723 0.551455334411971 0.45766458033236346
0.16254984725288757 -0.6718777831789052 -0.05890496368970508
0.5153723596424193 -0.1472048133348415 0.12713949824850534
-0.03311055844048425 0.04737028906785344 -0.46241879227004234
1.0675908846986055 0.551455334411971 0.45766458033236346
0.49588318058622083 -0.6718777831789052 -0.05890496368970508
0.8487056929757527 -0.1472048133348415 0.12713949824850534
0.30022277489284904 0.04737028906785344 -0.46241879227004234
1.400924218031939 0.551455334411971 0.45766458033236346
0.8292165139195542 -0.6718777831789052 -0.05890496368970508
1.182039026309086 -0.1472048133348415 0.12713949824850534
0.6335561082261824 0.04737028906785344 -0.46241879227004234
0.7342575513652723 0.8847886677453044 0.45766458033236346
0.16254984725288757 -0.3385444498455719 -0.05890496368970508
0.5153723596424193 0.1861285199984918 0.12713949824850534
-0.03311055844048425 0.3807036224011867 -0.46241879227004234
1.0675908846986055 0.8847886677453044 0.45766458033236346
0.49588318058622083 -0.3385444498455719 -0.05890496368970508
0.8487056929757527 0.1861285199984918 0.12713949824850534
0.30022277489284904 0.3807036224011867 -0.46241879227004234
1.400924218031939 0.8847886677453044 0.45766458033236346
0.8292165139195542 -0.3385444498455719 -0.05890496368970508
1.182039026309086 0.1861285199984918 0.12713949824850534
0.6335561082261824 0.3807036224011867 -0.46241879227004234
0.7342575513652723 1.2181220010786378 0.45766458033236346
0.16254984725288757 -0.0052111165122386005 -0.05890496368970508
0.5153723596424193 0.5194618533318252 0.12713949824850534
-0.03311055844048425 0.7140369557345201 -0.46241879227004234
1.0675908846986055 1.2181220010786378 0.45766458033236346
0.49588318058622083 -0.0052111165122386005 -0.05890496368970508
0.8487056929757527 0.5194618533318252 0.12713949824850534
0.30022277489284904 0.7140369557345201 -0.46241879227004234
1.400924218031939 1.2181220010786378 0.45766458033236346
0.8292165139195542 -0.0052111165122386005 -0.05890496368970508
1.182039026309086 0.5194618533318252 0.12713949824850534
0.6335561082261824 0.7140369557345201 -0.46241879227004234
0.7342575513652723 0.551455334411971 0.7909979136656968
0.16254984725288757 -0.6718777831789052 0.27442836964362827
0.5153723596424193 -0.1472048133348415 0.4604728315818387
-0.03311055844048425 0.04737028906785344 -0.12908545893670903
1.0675908846986055 0.551455334411971 0.7909979136656968
0.49588318058622083 -0.6718777831789052 0.27442836964362827
0.8487056929757527 -0.1472048133348415 0.4604728315818387
0.30022277489284904 0.04737028906785344 -0.12908545893670903
1.400924218031939 0.551455334411971 0.7909979136656968
0.8292165139195542 -0.6718777831789052 0.27442836964362827
1.182039026309086 -0.1472048133348415 0.4604728315818387
0.6335561082261824 0.04737028906785344 -0.12908545893670903
0.7342575513652723 0.8847886677453044 0.7909979136656968
0.16254984725288757 -0.3385444498455719 0.27442836964362827
0.5153723596424193 0.1861285199984918 0.4604728315818387
-0.03311055844048425 0.3807036224011867 -0.12908545893670903
1.0675908846986055 0.8847886677453044 0.7909979136656968
0.49588318058622083 -0.3385444498455719 0.27442836964362827
0.8487056929757527 0.1861285199984918 0.4604728315818387
0.30022277489284904 0.3807036224011867 -0.12908545893670903
1.400924218031939 0.8847886677453044 0.7909979136656968
0.8292165139195542 -0.3385444498455719 0.27442836964362827
1.182039026309086 0.1861285199984918 0.4604728315818387
0.6335561082261824 0.3807036224011867 -0.12908545893670903
0.7342575513652723 1.2181220010786378 0.7909979136656968
0.16254984725288757 -0.0052111165122386005 0.27442836964362827
0.5153723596424193 0.5194618533318252 0.4604728315818387
-0.03311055844048425 0.7140369557345201 -0.12908545893670903
1.0675908846986055 1.2181220010786378 0.7909979136656968
0.49588318058622083 -0.0052111165122386005 0.27442836964362827
0.8487056929757527 0.5194618533318252 0.4604728315818387
0.30022277489284904 0.7140369557345201 -0.12908545893670903
1.400924218031939 1.2181220010786378 0.7909979136656968
0.8292165139195542 -0.0052111165122386005 0.27442836964362827
1.182039026309086 0.5194618533318252 0.4604728315818387
0.6335561082261824 0.7140369557345201 -0.12908545893670903
0.7342575513652723 0.551455334411971 1.12433124699903
0.16254984725288757 -0.6718777831789052 0.6077617029769615
0.5153723596424193 -0.1472048133348415 0.793806164915172
-0.03311055844048425 0.04737028906785344 0.20424787439662428
1.0675908846986055 0.551455334411971 1.12433124699903
0.49588318058622083 -0.6718777831789052 0.6077617029769615
0.8487056929757527 -0.1472048133348415 0.793806164915172
0.30022277489284904 0.04737028906785344 0.20424787439662428
1.400924218031939 0.551455334411971 1.12433124699903
0.8292165139195542 -0.6718777831789052 0.6077617029769615
1.182039026309086 -0.1472048133348415 0.793806164915172
0.6335561082261824 0.04737028906785344 0.20424787439662428
0.7342575513652723 0.8847886677453044 1.12433124699903
0.16254984725288757 -0.3385444498455719 0.6077617029769615
0.5153723596424193 0.1861285199984918 0.793806164915172
-0.03311055844048425 0.3807036224011867 0.20424787439662428
1.0675908846986055 0.8847886677453044 1.12433124699903
0.49588318058622083 -0.3385444498455719 0.6077617029769615
0.8487056929757527 0.1861285199984918 0.793806164915172
0.30022277489284904 0.3807036224011867 0.20424787439662428
1.400924218031939 0.8847886677453044 1.12433124699903
0.8292165139195542 -0.3385444498455719 0.6077617029769615
1.182039026309086 0.1861285199984918 0.793806164915172
0.6335561082261824 0.3807036224011867 0.20424787439662428
0.7342575513652723 1.2181220010786378 1.12433124699903
0.16254984725288757 -0.0052111165122386005 0.6077617029769615
0.5153723596424193 0.5194618533318252 0.793806164915172
-0.03311055844048425 0.7140369557345201 0.20424787439662428
1.0675908846986055 1.2181220010786378 1.12433124699903
0.49588318058622083 -0.0052111165122386005 0.6077617029769615
0.8487056929757527 0.5194618533318252 0.793806164915172
0.30022277489284904 0.7140369557345201 0.20424787439662428
1.400924218031939 1.2181220010786378 1.12433124699903
0.8292165139195542 -0.0052111165122386005 0.6077617029769615
1.182039026309086 0.5194618533318252 0.793806164915172
0.6335561082261824 0.7140369557345201 0.20424787439662428
0.26663679295689025 -0.35429405931824 -0.06705793663862944
0.09009650489027432 -0.23397545685461207 0.1591753748758193
-0.15339532033209594 -0.41262638596424167 0.34551862907572917
0.3041881103427761 0.8700076939200311 0.09243255664133854
0.5999701262902235 -0.35429405931824 -0.06705793663862944
0.4234298382236076 -0.23397545685461207 0.1591753748758193
0.17993801300123738 -0.41262638596424167 0.34551862907572917
0.6375214436761094 0.8700076939200311 0.09243255664133854
0.9333034596235568 -0.35429405931824 -0.06705793663862944
0.756763171556941 -0.23397545685461207 0.1591753748758193
0.5132713463345706 -0.41262638596424167 0.34551862907572917
0.9708547770094428 0.8700076939200311 0.09243255664133854
0.26663679295689025 -0.02096072598490665 -0.06705793663862944
0.09009650489027432 0.09935787647872125 0.1591753748758193
-0.15339532033209594 -0.07929305263090836 0.34551862907572917
0.3041881103427761 1.2033410272533644 0.09243255664133854
0.5999701262902235 -0.02096072598490665 -0.06705793663862944
0.4234298382236076 0.09935787647872125 0.1591753748758193
0.17993801300123738 -0.07929305263090836 0.34551862907572917
0.6375214436761094 1.2033410272533644 0.09243255664133854
0.9333034596235568 -0.02096072598490665 -0.06705793663862944
0.756763171556941 0.09935787647872125 0.1591753748758193
0.5132713463345706 -0.07929305263090836 0.34551862907572917
0.9708547770094428 1.2033410272533644 0.09243255664133854
0.26663679295689025 0.31237260734842665 -0.06705793663862944
0.09009650489027432 0.43269120981205456 0.1591753748758193
-0.15339532033209594 0.25404028070242496 0.34551862907572917
0.3041881103427761 1.536674360586698 0.09243255664133854
0.5999701262902235 0.31237260734842665 -0.06705793663862944
0.4234298382236076 0.43269120981205456 0.1591753748758193
0.17993801300123738 0.25404028070242496 0.34551862907572917
0.6375214436761094 1.536674360586698 0.09243255664133854
0.9333034596235568 0.31237260734842665 -0.06705793663862944
0.756763171556941 0.43269120981205456 0.1591753748758193
0.5132713463345706 0.25404028070242496 0.34551862907572917
0.9708547770094428 1.536674360586698 0.09243255664133854
0.26663679295689025 -0.35429405931824 0.26627539669470385
0.09009650489027432 -0.23397545685461207 0.4925087082091526
-0.15339532033209594 -0.41262638596424167 0.6788519624090625
0.3041881103427761 0.8700076939200311 0.4257658899746719
0.5999701262902235 -0.35429405931824 0.26627539669470385
0.4234298382236076 -0.23397545685461207 0.4925087082091526
0.17993801300123738 -0.41262638596424167 0.6788519624090625
0.6375214436761094 0.8700076939200311 0.4257658899746719
0.9333034596235568 -0.35429405931824 0.26627539669470385
0.756763171556941 -0.23397545685461207 0.4925087082091526
0.5132713463345706 -0.41262638596424167 0.6788519624090625
0.9708547770094428 0.8700076939200311 0.4257658899746719
0.26663679295689025 -0.02096072598490665 0.26627539669470385
0.09009650489027432 0.09935787647872125 0.4925087082091526
-0.15339532033209594 -0.07929305263090836 0.6788519624090625
0.3041881103427761 1.2033410272533644 0.4257658899746719
0.5999701262902235 -0.02096072598490665 0.26627539669470385
0.4234298382236076 0.09935787647872125 0.4925087082091526
0.17993801300123738 -0.07929305263090836 0.6788519624090625
0.6375214436761094 1.2033410272533644 0.4257658899746719
0.9333034596235568 -0.02096072598490665 0.26627539669470385
0.756763171556941 0.09935787647872125 0.4925087082091526
0.5132713463345706 -0.07929305263090836 0.6788519624090625
0.9708547770094428 1.2033410272533644 0.4257658899746719
0.26663679295689025 0.31237260734842665 0.26627539669470385
0.09009650489027432 0.43269120981205456 0.4925087082091526
-0.15339532033209594 0.25404028070242496 0.6788519624090625
0.3041881103427761 1.536674360586698 0.4257658899746719
0.5999701262902235 0.31237260734842665 0.26627539669470385
0.4234298382236076 0.43269120981205456 0.4925087082091526
0.17993801300123738 0.25404028070242496 0.6788519624090625
0.6375214436761094 1.536674360586698 0.4257658899746719
0.9333034596235568 0.31237260734842665 0.26627539669470385
0.756763171556941 0.43269120981205456 0.4925087082091526
0.5132713463345706 0.25404028070242496 0.6788519624090625
0.9708547770094428 1.536674360586698 0.4257658899746719
0.26663679295689025 -0.35429405931824 0.5996087300280372
0.09009650489027432 -0.23397545685461207 0.8258420415424859
-0.15339532033209594 -0.41262638596424167 1.0121852957423958
0.3041881103427761 0.8700076939200311 0.7590992233080052
0.5999701262902235 -0.35429405931824 0.5996087300280372
0.4234298382236076 -0.23397545685461207 0.8258420415424859
0.17993801300123738 -0.41262638596424167 1.0121852957423958
0.6375214436761094 0.8700076939200311 0.7590992233080052
0.9333034596235568 -0.35429405931824 0.5996087300280372
0.756763171556941 -0.23397545685461207 0.8258420415424859
0.5132713463345706 -0.41262638596424167 1.0121852957423958
0.9708547770094428 0.8700076939200311 0.7590992233080052
0.26663679295689025 -0.02096072598490665 0.5996087300280372
0.09009650489027432 0.09935787647872125 0.8258420415424859
-0.15339532033209594 -0.07929305263090836 1.0121852957423958
0.3041881103427761 1.2033410272533644 0.7590992233080052
0.5999701262902235 -0.02096072598490665 0.5996087300280372
0.4234298382236076 0.09935787647872125 0.8258420415424859
0.17993801300123738 -0.07929305263090836 1.0121852957423958
0.6375214436761094 1.2033410272533644 0.7590992233080052
0.9333034596235568 -0.02096072598490665 0.5996087300280372
0.756763171556941 0.09935787647872125 0.8258420415424859
0.5132713463345706 -0.07929305263090836 1.0121852957423958
0.9708547770094428 1.2033410272533644 0.7590992233080052
0.26663679295689025 0.31237260734842665 0.5996087300280372
0.09009650489027432 0.43269120981205456 0.8258420415424859
-0.15339532033209594 0.25404028070242496 1.0121852957423958
0.3041881103427761 1.536674360586698 0.7590992233080052
0.5999701262902235 0.31237260734842665 0.5996087300280372
0.4234298382236076 0.43269120981205456 0.8258420415424859
0.17993801300123738 0.25404028070242496 1.0121852957423958
0.6375214436761094 1.536674360586698 0.7590992233080052
0.9333034596235568 0.31237260734842665 0.5996087300280372
0.756763171556941 0.43269120981205456 0.8258420415424859
0.5132713463345706 0.25404028070242496 1.0121852957423958
0.9708547770094428 1.536674360586698 0.7590992233080052
