FCC BaO
3.971
5.0 0.0 0.0
0.0 5.0 0.0
0.0 0.0 5.0
Ba O 
500 500 
Direct
0.002837866445691478 -0.021096863601930436 0.027220680301512867
0.01146904102801373 0.10927983014711432 0.09353778820554903
0.0980421269829662 0.012638632051716434 0.11807547984785215
0.11439836333162197 0.11940961096511998 -0.010124197659859337
0.2028378664456915 -0.021096863601930436 0.027220680301512867
0.21146904102801375 0.10927983014711432 0.09353778820554903
0.2980421269829662 0.012638632051716434 0.11807547984785215
0.31439836333162197 0.11940961096511998 -0.010124197659859337
0.4028378664456915 -0.021096863601930436 0.027220680301512867
0.41146904102801374 0.10927983014711432 0.09353778820554903
0.49804212698296624 0.012638632051716434 0.11807547984785215
0.5143983633316219 0.11940961096511998 -0.010124197659859337
0.6028378664456915 -0.021096863601930436 0.027220680301512867
0.6114690410280138 0.10927983014711432 0.09353778820554903
0.6980421269829663 0.012638632051716434 0.11807547984785215
0.714398363331622 0.11940961096511998 -0.010124197659859337
0.8028378664456914 -0.021096863601930436 0.027220680301512867
0.8114690410280136 0.10927983014711432 0.09353778820554903
0.8980421269829663 0.012638632051716434 0.11807547984785215
0.9143983633316219 0.11940961096511998 -0.010124197659859337
0.002837866445691478 0.17890313639806957 0.027220680301512867
0.01146904102801373 0.30927983014711435 0.09353778820554903
0.0980421269829662 0.21263863205171646 0.11807547984785215
0.11439836333162197 0.31940961096512 -0.010124197659859337
0.2028378664456915 0.17890313639806957 0.027220680301512867
0.21146904102801375 0.30927983014711435 0.09353778820554903
0.2980421269829662 0.21263863205171646 0.11807547984785215
0.31439836333162197 0.31940961096512 -0.010124197659859337
0.4028378664456915 0.17890313639806957 0.027220680301512867
0.41146904102801374 0.30927983014711435 0.09353778820554903
0.49804212698296624 0.21263863205171646 0.11807547984785215
0.5143983633316219 0.31940961096512 -0.010124197659859337
0.6028378664456915 0.17890313639806957 0.027220680301512867
0.6114690410280138 0.30927983014711435 0.09353778820554903
0.6980421269829663 0.21263863205171646 0.11807547984785215
0.714398363331622 0.31940961096512 -0.010124197659859337
0.8028378664456914 0.17890313639806957 0.027220680301512867
0.8114690410280136 0.30927983014711435 0.09353778820554903
0.8980421269829663 0.21263863205171646 0.11807547984785215
0.9143983633316219 0.31940961096512 -0.010124197659859337
0.002837866445691478 0.3789031363980696 0.027220680301512867
0.01146904102801373 0.5092798301471143 0.09353778820554903
0.0980421269829662 0.4126386320517164 0.11807547984785215
0.11439836333162197 0.5194096109651201 -0.010124197659859337
0.2028378664456915 0.3789031363980696 0.027220680301512867
0.21146904102801375 0.5092798301471143 0.09353778820554903
0.2980421269829662 0.4126386320517164 0.11807547984785215
0.31439836333162197 0.5194096109651201 -0.010124197659859337
0.4028378664456915 0.3789031363980696 0.027220680301512867
0.41146904102801374 0.5092798301471143 0.09353778820554903
0.49804212698296624 0.4126386320517164 0.11807547984785215
0.5143983633316219 0.5194096109651201 -0.010124197659859337
0.6028378664456915 0.3789031363980696 0.027220680301512867
0.6114690410280138 0.5092798301471143 0.09353778820554903
0.6980421269829663 0.4126386320517164 0.11807547984785215
0.714398363331622 0.5194096109651201 -0.010124197659859337
0.8028378664456914 0.3789031363980696 0.027220680301512867
0.8114690410280136 0.5092798301471143 0.09353778820554903
0.8980421269829663 0.4126386320517164 0.11807547984785215
0.9143983633316219 0.5194096109651201 -0.010124197659859337
0.002837866445691478 0.5789031363980696 0.027220680301512867
0.01146904102801373 0.7092798301471144 0.09353778820554903
0.0980421269829662 0.6126386320517164 0.11807547984785215
0.11439836333162197 0.71940961096512 -0.010124197659859337
0.2028378664456915 0.5789031363980696 0.027220680301512867
0.21146904102801375 0.7092798301471144 0.09353778820554903
0.2980421269829662 0.6126386320517164 0.11807547984785215
0.31439836333162197 0.71940961096512 -0.010124197659859337
0.4028378664456915 0.5789031363980696 0.027220680301512867
0.41146904102801374 0.7092798301471144 0.09353778820554903
0.49804212698296624 0.6126386320517164 0.11807547984785215
0.5143983633316219 0.71940961096512 -0.010124197659859337
0.6028378664456915 0.5789031363980696 0.027220680301512867
0.6114690410280138 0.7092798301471144 0.09353778820554903
0.6980421269829663 0.6126386320517164 0.11807547984785215
0.714398363331622 0.71940961096512 -0.010124197659859337
0.8028378664456914 0.5789031363980696 0.027220680301512867
0.8114690410280136 0.7092798301471144 0.09353778820554903
0.8980421269829663 0.6126386320517164 0.11807547984785215
0.9143983633316219 0.71940961096512 -0.010124197659859337
0.002837866445691478 0.7789031363980696 0.027220680301512867
0.01146904102801373 0.9092798301471143 0.09353778820554903
0.0980421269829662 0.8126386320517165 0.11807547984785215
0.11439836333162197 0.9194096109651201 -0.010124197659859337
0.2028378664456915 0.7789031363980696 0.027220680301512867
0.21146904102801375 0.9092798301471143 0.09353778820554903
0.2980421269829662 0.8126386320517165 0.11807547984785215
0.31439836333162197 0.9194096109651201 -0.010124197659859337
0.4028378664456915 0.7789031363980696 0.027220680301512867
0.41146904102801374 0.9092798301471143 0.09353778820554903
0.49804212698296624 0.8126386320517165 0.11807547984785215
0.5143983633316219 0.9194096109651201 -0.010124197659859337
0.6028378664456915 0.7789031363980696 0.027220680301512867
0.6114690410280138 0.9092798301471143 0.09353778820554903
0.6980421269829663 0.8126386320517165 0.11807547984785215
0.714398363331622 0.9194096109651201 -0.010124197659859337
0.8028378664456914 0.7789031363980696 0.027220680301512867
0.8114690410280136 0.9092798301471143 0.09353778820554903
0.8980421269829663 0.8126386320517165 0.11807547984785215
0.9143983633316219 0.9194096109651201 -0.010124197659859337
0.002837866445691478 -0.021096863601930436 0.22722068030151288
0.01146904102801373 0.10927983014711432 0.29353778820554904
0.0980421269829662 0.012638632051716434 0.31807547984785217
0.11439836333162197 0.11940961096511998 0.18987580234014068
0.2028378664456915 -0.021096863601930436 0.22722068030151288
0.21146904102801375 0.10927983014711432 0.29353778820554904
0.2980421269829662 0.012638632051716434 0.31807547984785217
0.31439836333162197 0.11940961096511998 0.18987580234014068
0.4028378664456915 -0.021096863601930436 0.22722068030151288
0.41146904102801374 0.10927983014711432 0.29353778820554904
0.49804212698296624 0.012638632051716434 0.31807547984785217
0.5143983633316219 0.11940961096511998 0.18987580234014068
0.6028378664456915 -0.021096863601930436 0.22722068030151288
0.6114690410280138 0.10927983014711432 0.29353778820554904
0.6980421269829663 0.012638632051716434 0.31807547984785217
0.714398363331622 0.11940961096511998 0.18987580234014068
0.8028378664456914 -0.021096863601930436 0.22722068030151288
0.8114690410280136 0.10927983014711432 0.29353778820554904
0.8980421269829663 0.012638632051716434 0.31807547984785217
0.9143983633316219 0.11940961096511998 0.18987580234014068
0.002837866445691478 0.17890313639806957 0.22722068030151288
0.01146904102801373 0.30927983014711435 0.29353778820554904
0.0980421269829662 0.21263863205171646 0.31807547984785217
0.11439836333162197 0.31940961096512 0.18987580234014068
0.2028378664456915 0.17890313639806957 0.22722068030151288
0.21146904102801375 0.30927983014711435 0.29353778820554904
0.2980421269829662 0.21263863205171646 0.31807547984785217
0.31439836333162197 0.31940961096512 0.18987580234014068
0.4028378664456915 0.17890313639806957 0.22722068030151288
0.41146904102801374 0.30927983014711435 0.29353778820554904
0.49804212698296624 0.21263863205171646 0.31807547984785217
0.5143983633316219 0.31940961096512 0.18987580234014068
0.6028378664456915 0.17890313639806957 0.22722068030151288
0.6114690410280138 0.30927983014711435 0.29353778820554904
0.6980421269829663 0.21263863205171646 0.31807547984785217
0.714398363331622 0.31940961096512 0.18987580234014068
0.8028378664456914 0.17890313639806957 0.22722068030151288
0.8114690410280136 0.30927983014711435 0.29353778820554904
0.8980421269829663 0.21263863205171646 0.31807547984785217
0.9143983633316219 0.31940961096512 0.18987580234014068
0.002837866445691478 0.3789031363980696 0.22722068030151288
0.01146904102801373 0.5092798301471143 0.29353778820554904
0.0980421269829662 0.4126386320517164 0.31807547984785217
0.11439836333162197 0.5194096109651201 0.18987580234014068
0.2028378664456915 0.3789031363980696 0.22722068030151288
0.21146904102801375 0.5092798301471143 0.29353778820554904
0.2980421269829662 0.4126386320517164 0.31807547984785217
0.31439836333162197 0.5194096109651201 0.18987580234014068
0.4028378664456915 0.3789031363980696 0.22722068030151288
0.41146904102801374 0.5092798301471143 0.29353778820554904
0.49804212698296624 0.4126386320517164 0.31807547984785217
0.5143983633316219 0.5194096109651201 0.18987580234014068
0.6028378664456915 0.3789031363980696 0.22722068030151288
0.6114690410280138 0.5092798301471143 0.29353778820554904
0.6980421269829663 0.4126386320517164 0.31807547984785217
0.714398363331622 0.5194096109651201 0.18987580234014068
0.8028378664456914 0.3789031363980696 0.22722068030151288
0.8114690410280136 0.5092798301471143 0.29353778820554904
0.8980421269829663 0.4126386320517164 0.31807547984785217
0.9143983633316219 0.5194096109651201 0.18987580234014068
0.002837866445691478 0.5789031363980696 0.22722068030151288
0.01146904102801373 0.7092798301471144 0.29353778820554904
0.0980421269829662 0.6126386320517164 0.31807547984785217
0.11439836333162197 0.71940961096512 0.18987580234014068
0.2028378664456915 0.5789031363980696 0.22722068030151288
0.21146904102801375 0.7092798301471144 0.29353778820554904
0.2980421269829662 0.6126386320517164 0.31807547984785217
0.31439836333162197 0.71940961096512 0.18987580234014068
0.4028378664456915 0.5789031363980696 0.22722068030151288
0.41146904102801374 0.7092798301471144 0.29353778820554904
0.49804212698296624 0.6126386320517164 0.31807547984785217
0.5143983633316219 0.71940961096512 0.18987580234014068
0.6028378664456915 0.5789031363980696 0.22722068030151288
0.6114690410280138 0.7092798301471144 0.29353778820554904
0.6980421269829663 0.6126386320517164 0.31807547984785217
0.714398363331622 0.71940961096512 0.18987580234014068
0.8028378664456914 0.5789031363980696 0.22722068030151288
0.8114690410280136 0.7092798301471144 0.29353778820554904
0.8980421269829663 0.6126386320517164 0.31807547984785217
0.9143983633316219 0.71940961096512 0.18987580234014068
0.002837866445691478 0.7789031363980696 0.22722068030151288
0.01146904102801373 0.9092798301471143 0.29353778820554904
0.0980421269829662 0.8126386320517165 0.31807547984785217
0.11439836333162197 0.9194096109651201 0.18987580234014068
0.2028378664456915 0.7789031363980696 0.22722068030151288
0.21146904102801375 0.9092798301471143 0.29353778820554904
0.2980421269829662 0.8126386320517165 0.31807547984785217
0.31439836333162197 0.9194096109651201 0.18987580234014068
0.4028378664456915 0.7789031363980696 0.22722068030151288
0.41146904102801374 0.9092798301471143 0.29353778820554904
0.49804212698296624 0.8126386320517165 0.31807547984785217
0.5143983633316219 0.9194096109651201 0.18987580234014068
0.6028378664456915 0.7789031363980696 0.22722068030151288
0.6114690410280138 0.9092798301471143 0.29353778820554904
0.6980421269829663 0.8126386320517165 0.31807547984785217
0.714398363331622 0.9194096109651201 0.18987580234014068
0.8028378664456914 0.7789031363980696 0.22722068030151288
0.8114690410280136 0.9092798301471143 0.29353778820554904
0.8980421269829663 0.8126386320517165 0.31807547984785217
0.9143983633316219 0.9194096109651201 0.18987580234014068
0.002837866445691478 -0.021096863601930436 0.4272206803015129
0.01146904102801373 0.10927983014711432 0.4935377882055491
0.0980421269829662 0.012638632051716434 0.5180754798478521
0.11439836333162197 0.11940961096511998 0.3898758023401407
0.2028378664456915 -0.021096863601930436 0.4272206803015129
0.21146904102801375 0.10927983014711432 0.4935377882055491
0.2980421269829662 0.012638632051716434 0.5180754798478521
0.31439836333162197 0.11940961096511998 0.3898758023401407
0.4028378664456915 -0.021096863601930436 0.4272206803015129
0.41146904102801374 0.10927983014711432 0.4935377882055491
0.49804212698296624 0.012638632051716434 0.5180754798478521
0.5143983633316219 0.11940961096511998 0.3898758023401407
0.6028378664456915 -0.021096863601930436 0.4272206803015129
0.6114690410280138 0.10927983014711432 0.4935377882055491
0.6980421269829663 0.012638632051716434 0.5180754798478521
0.714398363331622 0.11940961096511998 0.3898758023401407
0.8028378664456914 -0.021096863601930436 0.4272206803015129
0.8114690410280136 0.10927983014711432 0.4935377882055491
0.8980421269829663 0.012638632051716434 0.5180754798478521
0.9143983633316219 0.11940961096511998 0.3898758023401407
0.002837866445691478 0.17890313639806957 0.4272206803015129
0.01146904102801373 0.30927983014711435 0.4935377882055491
0.0980421269829662 0.21263863205171646 0.5180754798478521
0.11439836333162197 0.31940961096512 0.3898758023401407
0.2028378664456915 0.17890313639806957 0.4272206803015129
0.21146904102801375 0.30927983014711435 0.4935377882055491
0.2980421269829662 0.21263863205171646 0.5180754798478521
0.31439836333162197 0.31940961096512 0.3898758023401407
0.4028378664456915 0.17890313639806957 0.4272206803015129
0.41146904102801374 0.30927983014711435 0.4935377882055491
0.49804212698296624 0.21263863205171646 0.5180754798478521
0.5143983633316219 0.31940961096512 0.3898758023401407
0.6028378664456915 0.17890313639806957 0.4272206803015129
0.6114690410280138 0.30927983014711435 0.4935377882055491
0.6980421269829663 0.21263863205171646 0.5180754798478521
0.714398363331622 0.31940961096512 0.3898758023401407
0.8028378664456914 0.17890313639806957 0.4272206803015129
0.8114690410280136 0.30927983014711435 0.4935377882055491
0.8980421269829663 0.21263863205171646 0.5180754798478521
0.9143983633316219 0.31940961096512 0.3898758023401407
0.002837866445691478 0.3789031363980696 0.4272206803015129
0.01146904102801373 0.5092798301471143 0.4935377882055491
0.0980421269829662 0.4126386320517164 0.5180754798478521
0.11439836333162197 0.5194096109651201 0.3898758023401407
0.2028378664456915 0.3789031363980696 0.4272206803015129
0.21146904102801375 0.5092798301471143 0.4935377882055491
0.2980421269829662 0.4126386320517164 0.5180754798478521
0.31439836333162197 0.5194096109651201 0.3898758023401407
0.4028378664456915 0.3789031363980696 0.4272206803015129
0.41146904102801374 0.5092798301471143 0.4935377882055491
0.49804212698296624 0.4126386320517164 0.5180754798478521
0.5143983633316219 0.5194096109651201 0.3898758023401407
0.6028378664456915 0.3789031363980696 0.4272206803015129
0.6114690410280138 0.5092798301471143 0.4935377882055491
0.6980421269829663 0.4126386320517164 0.5180754798478521
0.714398363331622 0.5194096109651201 0.3898758023401407
0.8028378664456914 0.3789031363980696 0.4272206803015129
0.8114690410280136 0.5092798301471143 0.4935377882055491
0.8980421269829663 0.4126386320517164 0.5180754798478521
0.9143983633316219 0.5194096109651201 0.3898758023401407
0.002837866445691478 0.5789031363980696 0.4272206803015129
0.01146904102801373 0.7092798301471144 0.4935377882055491
0.0980421269829662 0.6126386320517164 0.5180754798478521
0.11439836333162197 0.71940961096512 0.3898758023401407
0.2028378664456915 0.5789031363980696 0.4272206803015129
0.21146904102801375 0.7092798301471144 0.4935377882055491
0.2980421269829662 0.6126386320517164 0.5180754798478521
0.31439836333162197 0.71940961096512 0.3898758023401407
0.4028378664456915 0.5789031363980696 0.4272206803015129
0.41146904102801374 0.7092798301471144 0.4935377882055491
0.49804212698296624 0.6126386320517164 0.5180754798478521
0.5143983633316219 0.71940961096512 0.3898758023401407
0.6028378664456915 0.5789031363980696 0.4272206803015129
0.6114690410280138 0.7092798301471144 0.4935377882055491
0.6980421269829663 0.6126386320517164 0.5180754798478521
0.714398363331622 0.71940961096512 0.3898758023401407
0.8028378664456914 0.5789031363980696 0.4272206803015129
0.8114690410280136 0.7092798301471144 0.4935377882055491
0.8980421269829663 0.6126386320517164 0.5180754798478521
0.9143983633316219 0.71940961096512 0.3898758023401407
0.002837866445691478 0.7789031363980696 0.4272206803015129
0.01146904102801373 0.9092798301471143 0.4935377882055491
0.0980421269829662 0.8126386320517165 0.5180754798478521
0.11439836333162197 0.9194096109651201 0.3898758023401407
0.2028378664456915 0.7789031363980696 0.4272206803015129
0.21146904102801375 0.9092798301471143 0.4935377882055491
0.2980421269829662 0.8126386320517165 0.5180754798478521
0.31439836333162197 0.9194096109651201 0.3898758023401407
0.4028378664456915 0.7789031363980696 0.4272206803015129
0.41146904102801374 0.9092798301471143 0.4935377882055491
0.49804212698296624 0.8126386320517165 0.5180754798478521
0.5143983633316219 0.9194096109651201 0.3898758023401407
0.6028378664456915 0.7789031363980696 0.4272206803015129
0.6114690410280138 0.9092798301471143 0.4935377882055491
0.6980421269829663 0.8126386320517165 0.5180754798478521
0.714398363331622 0.9194096109651201 0.3898758023401407
0.8028378664456914 0.7789031363980696 0.4272206803015129
0.8114690410280136 0.9092798301471143 0.4935377882055491
0.8980421269829663 0.8126386320517165 0.5180754798478521
0.9143983633316219 0.9194096109651201 0.3898758023401407
0.002837866445691478 -0.021096863601930436 0.6272206803015129
0.01146904102801373 0.10927983014711432 0.6935377882055491
0.0980421269829662 0.012638632051716434 0.7180754798478521
0.11439836333162197 0.11940961096511998 0.5898758023401407
0.2028378664456915 -0.021096863601930436 0.6272206803015129
0.21146904102801375 0.10927983014711432 0.6935377882055491
0.2980421269829662 0.012638632051716434 0.7180754798478521
0.31439836333162197 0.11940961096511998 0.5898758023401407
0.4028378664456915 -0.021096863601930436 0.6272206803015129
0.41146904102801374 0.10927983014711432 0.6935377882055491
0.49804212698296624 0.012638632051716434 0.7180754798478521
0.5143983633316219 0.11940961096511998 0.5898758023401407
0.6028378664456915 -0.021096863601930436 0.6272206803015129
0.6114690410280138 0.10927983014711432 0.6935377882055491
0.6980421269829663 0.012638632051716434 0.7180754798478521
0.714398363331622 0.11940961096511998 0.5898758023401407
0.8028378664456914 -0.021096863601930436 0.6272206803015129
0.8114690410280136 0.10927983014711432 0.6935377882055491
0.8980421269829663 0.012638632051716434 0.7180754798478521
0.9143983633316219 0.11940961096511998 0.5898758023401407
0.002837866445691478 0.17890313639806957 0.6272206803015129
0.01146904102801373 0.30927983014711435 0.6935377882055491
0.0980421269829662 0.21263863205171646 0.7180754798478521
0.11439836333162197 0.31940961096512 0.5898758023401407
0.2028378664456915 0.17890313639806957 0.6272206803015129
0.21146904102801375 0.30927983014711435 0.6935377882055491
0.2980421269829662 0.21263863205171646 0.7180754798478521
0.31439836333162197 0.31940961096512 0.5898758023401407
0.4028378664456915 0.17890313639806957 0.6272206803015129
0.41146904102801374 0.30927983014711435 0.6935377882055491
0.49804212698296624 0.21263863205171646 0.7180754798478521
0.5143983633316219 0.31940961096512 0.5898758023401407
0.6028378664456915 0.17890313639806957 0.6272206803015129
0.6114690410280138 0.30927983014711435 0.6935377882055491
0.6980421269829663 0.21263863205171646 0.7180754798478521
0.714398363331622 0.31940961096512 0.5898758023401407
0.8028378664456914 0.17890313639806957 0.6272206803015129
0.8114690410280136 0.30927983014711435 0.6935377882055491
0.8980421269829663 0.21263863205171646 0.7180754798478521
0.9143983633316219 0.31940961096512 0.5898758023401407
0.002837866445691478 0.3789031363980696 0.6272206803015129
0.01146904102801373 0.5092798301471143 0.6935377882055491
0.0980421269829662 0.4126386320517164 0.7180754798478521
0.11439836333162197 0.5194096109651201 0.5898758023401407
0.2028378664456915 0.3789031363980696 0.6272206803015129
0.21146904102801375 0.5092798301471143 0.6935377882055491
0.2980421269829662 0.4126386320517164 0.7180754798478521
0.31439836333162197 0.5194096109651201 0.5898758023401407
0.4028378664456915 0.3789031363980696 0.6272206803015129
0.41146904102801374 0.5092798301471143 0.6935377882055491
0.49804212698296624 0.4126386320517164 0.7180754798478521
0.5143983633316219 0.5194096109651201 0.5898758023401407
0.6028378664456915 0.3789031363980696 0.6272206803015129
0.6114690410280138 0.5092798301471143 0.6935377882055491
0.6980421269829663 0.4126386320517164 0.7180754798478521
0.714398363331622 0.5194096109651201 0.5898758023401407
0.8028378664456914 0.3789031363980696 0.6272206803015129
0.8114690410280136 0.5092798301471143 0.6935377882055491
0.8980421269829663 0.4126386320517164 0.7180754798478521
0.9143983633316219 0.5194096109651201 0.5898758023401407
0.002837866445691478 0.5789031363980696 0.6272206803015129
0.01146904102801373 0.7092798301471144 0.6935377882055491
0.0980421269829662 0.6126386320517164 0.7180754798478521
0.11439836333162197 0.71940961096512 0.5898758023401407
0.2028378664456915 0.5789031363980696 0.6272206803015129
0.21146904102801375 0.7092798301471144 0.6935377882055491
0.2980421269829662 0.6126386320517164 0.7180754798478521
0.31439836333162197 0.71940961096512 0.5898758023401407
0.4028378664456915 0.5789031363980696 0.6272206803015129
0.41146904102801374 0.7092798301471144 0.6935377882055491
0.49804212698296624 0.6126386320517164 0.7180754798478521
0.5143983633316219 0.71940961096512 0.5898758023401407
0.6028378664456915 0.5789031363980696 0.6272206803015129
0.6114690410280138 0.7092798301471144 0.6935377882055491
0.6980421269829663 0.6126386320517164 0.7180754798478521
0.714398363331622 0.71940961096512 0.5898758023401407
0.8028378664456914 0.5789031363980696 0.6272206803015129
0.8114690410280136 0.7092798301471144 0.6935377882055491
0.8980421269829663 0.6126386320517164 0.7180754798478521
0.9143983633316219 0.71940961096512 0.5898758023401407
0.002837866445691478 0.7789031363980696 0.6272206803015129
0.01146904102801373 0.9092798301471143 0.6935377882055491
0.0980421269829662 0.8126386320517165 0.7180754798478521
0.11439836333162197 0.9194096109651201 0.5898758023401407
0.2028378664456915 0.7789031363980696 0.6272206803015129
0.21146904102801375 0.9092798301471143 0.6935377882055491
0.2980421269829662 0.8126386320517165 0.7180754798478521
0.31439836333162197 0.9194096109651201 0.5898758023401407
0.4028378664456915 0.7789031363980696 0.6272206803015129
0.41146904102801374 0.9092798301471143 0.6935377882055491
0.49804212698296624 0.8126386320517165 0.7180754798478521
0.5143983633316219 0.9194096109651201 0.5898758023401407
0.6028378664456915 0.7789031363980696 0.6272206803015129
0.6114690410280138 0.9092798301471143 0.6935377882055491
0.6980421269829663 0.8126386320517165 0.7180754798478521
0.714398363331622 0.9194096109651201 0.5898758023401407
0.8028378664456914 0.7789031363980696 0.6272206803015129
0.8114690410280136 0.9092798301471143 0.6935377882055491
0.8980421269829663 0.8126386320517165 0.7180754798478521
0.9143983633316219 0.9194096109651201 0.5898758023401407
0.002837866445691478 -0.021096863601930436 0.827220680301513
0.01146904102801373 0.10927983014711432 0.8935377882055491
0.0980421269829662 0.012638632051716434 0.9180754798478521
0.11439836333162197 0.11940961096511998 0.7898758023401408
0.2028378664456915 -0.021096863601930436 0.827220680301513
0.21146904102801375 0.10927983014711432 0.8935377882055491
0.2980421269829662 0.012638632051716434 0.9180754798478521
0.31439836333162197 0.11940961096511998 0.7898758023401408
0.4028378664456915 -0.021096863601930436 0.827220680301513
0.41146904102801374 0.10927983014711432 0.8935377882055491
0.49804212698296624 0.012638632051716434 0.9180754798478521
0.5143983633316219 0.11940961096511998 0.7898758023401408
0.6028378664456915 -0.021096863601930436 0.827220680301513
0.6114690410280138 0.10927983014711432 0.8935377882055491
0.6980421269829663 0.012638632051716434 0.9180754798478521
0.714398363331622 0.11940961096511998 0.7898758023401408
0.8028378664456914 -0.021096863601930436 0.827220680301513
0.8114690410280136 0.10927983014711432 0.8935377882055491
0.8980421269829663 0.012638632051716434 0.9180754798478521
0.9143983633316219 0.11940961096511998 0.7898758023401408
0.002837866445691478 0.17890313639806957 0.827220680301513
0.01146904102801373 0.30927983014711435 0.8935377882055491
0.0980421269829662 0.21263863205171646 0.9180754798478521
0.11439836333162197 0.31940961096512 0.7898758023401408
0.2028378664456915 0.17890313639806957 0.827220680301513
0.21146904102801375 0.30927983014711435 0.8935377882055491
0.2980421269829662 0.21263863205171646 0.9180754798478521
0.31439836333162197 0.31940961096512 0.7898758023401408
0.4028378664456915 0.17890313639806957 0.827220680301513
0.41146904102801374 0.30927983014711435 0.8935377882055491
0.49804212698296624 0.21263863205171646 0.9180754798478521
0.5143983633316219 0.31940961096512 0.7898758023401408
0.6028378664456915 0.17890313639806957 0.827220680301513
0.6114690410280138 0.30927983014711435 0.8935377882055491
0.6980421269829663 0.21263863205171646 0.9180754798478521
0.714398363331622 0.31940961096512 0.7898758023401408
0.8028378664456914 0.17890313639806957 0.827220680301513
0.8114690410280136 0.30927983014711435 0.8935377882055491
0.8980421269829663 0.21263863205171646 0.9180754798478521
0.9143983633316219 0.31940961096512 0.7898758023401408
0.002837866445691478 0.3789031363980696 0.827220680301513
0.01146904102801373 0.5092798301471143 0.8935377882055491
0.0980421269829662 0.4126386320517164 0.9180754798478521
0.11439836333162197 0.5194096109651201 0.7898758023401408
0.2028378664456915 0.3789031363980696 0.827220680301513
0.21146904102801375 0.5092798301471143 0.8935377882055491
0.2980421269829662 0.4126386320517164 0.9180754798478521
0.31439836333162197 0.5194096109651201 0.7898758023401408
0.4028378664456915 0.3789031363980696 0.827220680301513
0.41146904102801374 0.5092798301471143 0.8935377882055491
0.49804212698296624 0.4126386320517164 0.9180754798478521
0.5143983633316219 0.5194096109651201 0.7898758023401408
0.6028378664456915 0.3789031363980696 0.827220680301513
0.6114690410280138 0.5092798301471143 0.8935377882055491
0.6980421269829663 0.4126386320517164 0.9180754798478521
0.714398363331622 0.5194096109651201 0.7898758023401408
0.8028378664456914 0.3789031363980696 0.827220680301513
0.8114690410280136 0.5092798301471143 0.8935377882055491
0.8980421269829663 0.4126386320517164 0.9180754798478521
0.9143983633316219 0.5194096109651201 0.7898758023401408
0.002837866445691478 0.5789031363980696 0.827220680301513
0.01146904102801373 0.7092798301471144 0.8935377882055491
0.0980421269829662 0.6126386320517164 0.9180754798478521
0.11439836333162197 0.71940961096512 0.7898758023401408
0.2028378664456915 0.5789031363980696 0.827220680301513
0.21146904102801375 0.7092798301471144 0.8935377882055491
0.2980421269829662 0.6126386320517164 0.9180754798478521
0.31439836333162197 0.71940961096512 0.7898758023401408
0.4028378664456915 0.5789031363980696 0.827220680301513
0.41146904102801374 0.7092798301471144 0.8935377882055491
0.49804212698296624 0.6126386320517164 0.9180754798478521
0.5143983633316219 0.71940961096512 0.7898758023401408
0.6028378664456915 0.5789031363980696 0.827220680301513
0.6114690410280138 0.7092798301471144 0.8935377882055491
0.6980421269829663 0.6126386320517164 0.9180754798478521
0.714398363331622 0.71940961096512 0.7898758023401408
0.8028378664456914 0.5789031363980696 0.827220680301513
0.8114690410280136 0.7092798301471144 0.8935377882055491
0.8980421269829663 0.6126386320517164 0.9180754798478521
0.9143983633316219 0.71940961096512 0.7898758023401408
0.002837866445691478 0.7789031363980696 0.827220680301513
0.01146904102801373 0.9092798301471143 0.8935377882055491
0.0980421269829662 0.8126386320517165 0.9180754798478521
0.11439836333162197 0.9194096109651201 0.7898758023401408
0.2028378664456915 0.7789031363980696 0.827220680301513
0.21146904102801375 0.9092798301471143 0.8935377882055491
0.2980421269829662 0.8126386320517165 0.9180754798478521
0.31439836333162197 0.9194096109651201 0.7898758023401408
0.4028378664456915 0.7789031363980696 0.827220680301513
0.41146904102801374 0.9092798301471143 0.8935377882055491
0.49804212698296624 0.8126386320517165 0.9180754798478521
0.5143983633316219 0.9194096109651201 0.7898758023401408
0.6028378664456915 0.7789031363980696 0.827220680301513
0.6114690410280138 0.9092798301471143 0.8935377882055491
0.6980421269829663 0.8126386320517165 0.9180754798478521
0.714398363331622 0.9194096109651201 0.7898758023401408
0.8028378664456914 0.7789031363980696 0.827220680301513
0.8114690410280136 0.9092798301471143 0.8935377882055491
0.8980421269829663 0.8126386320517165 0.9180754798478521
0.9143983633316219 0.9194096109651201 0.7898758023401408
0.09874295803193471 0.007574617789464711 0.004562206133021716
-0.009590311039110028 0.10539072276419188 0.01458509169300567
-0.029369602212649643 -0.02290968780110291 0.11144952069516023
0.08912435691012371 0.10255994134544166 0.10917904499009144
0.2987429580319347 0.007574617789464711 0.004562206133021716
0.19040968896088997 0.10539072276419188 0.01458509169300567
0.17063039778735037 -0.02290968780110291 0.11144952069516023
0.2891243569101237 0.10255994134544166 0.10917904499009144
0.4987429580319347 0.007574617789464711 0.004562206133021716
0.39040968896089 0.10539072276419188 0.01458509169300567
0.3706303977873504 -0.02290968780110291 0.11144952069516023
0.4891243569101238 0.10255994134544166 0.10917904499009144
0.6987429580319348 0.007574617789464711 0.004562206133021716
0.59040968896089 0.10539072276419188 0.01458509169300567
0.5706303977873504 -0.02290968780110291 0.11144952069516023
0.6891243569101237 0.10255994134544166 0.10917904499009144
0.8987429580319347 0.007574617789464711 0.004562206133021716
0.79040968896089 0.10539072276419188 0.01458509169300567
0.7706303977873503 -0.02290968780110291 0.11144952069516023
0.8891243569101237 0.10255994134544166 0.10917904499009144
0.09874295803193471 0.20757461778946473 0.004562206133021716
-0.009590311039110028 0.3053907227641919 0.01458509169300567
-0.029369602212649643 0.1770903121988971 0.11144952069516023
0.08912435691012371 0.3025599413454417 0.10917904499009144
0.2987429580319347 0.20757461778946473 0.004562206133021716
0.19040968896088997 0.3053907227641919 0.01458509169300567
0.17063039778735037 0.1770903121988971 0.11144952069516023
0.2891243569101237 0.3025599413454417 0.10917904499009144
0.4987429580319347 0.20757461778946473 0.004562206133021716
0.39040968896089 0.3053907227641919 0.01458509169300567
0.3706303977873504 0.1770903121988971 0.11144952069516023
0.4891243569101238 0.3025599413454417 0.10917904499009144
0.6987429580319348 0.20757461778946473 0.004562206133021716
0.59040968896089 0.3053907227641919 0.01458509169300567
0.5706303977873504 0.1770903121988971 0.11144952069516023
0.6891243569101237 0.3025599413454417 0.10917904499009144
0.8987429580319347 0.20757461778946473 0.004562206133021716
0.79040968896089 0.3053907227641919 0.01458509169300567
0.7706303977873503 0.1770903121988971 0.11144952069516023
0.8891243569101237 0.3025599413454417 0.10917904499009144
0.09874295803193471 0.40757461778946474 0.004562206133021716
-0.009590311039110028 0.5053907227641918 0.01458509169300567
-0.029369602212649643 0.3770903121988971 0.11144952069516023
0.08912435691012371 0.5025599413454417 0.10917904499009144
0.2987429580319347 0.40757461778946474 0.004562206133021716
0.19040968896088997 0.5053907227641918 0.01458509169300567
0.17063039778735037 0.3770903121988971 0.11144952069516023
0.2891243569101237 0.5025599413454417 0.10917904499009144
0.4987429580319347 0.40757461778946474 0.004562206133021716
0.39040968896089 0.5053907227641918 0.01458509169300567
0.3706303977873504 0.3770903121988971 0.11144952069516023
0.4891243569101238 0.5025599413454417 0.10917904499009144
0.6987429580319348 0.40757461778946474 0.004562206133021716
0.59040968896089 0.5053907227641918 0.01458509169300567
0.5706303977873504 0.3770903121988971 0.11144952069516023
0.6891243569101237 0.5025599413454417 0.10917904499009144
0.8987429580319347 0.40757461778946474 0.004562206133021716
0.79040968896089 0.5053907227641918 0.01458509169300567
0.7706303977873503 0.3770903121988971 0.11144952069516023
0.8891243569101237 0.5025599413454417 0.10917904499009144
0.09874295803193471 0.6075746177894648 0.004562206133021716
-0.009590311039110028 0.7053907227641919 0.01458509169300567
-0.029369602212649643 0.5770903121988971 0.11144952069516023
0.08912435691012371 0.7025599413454418 0.10917904499009144
0.2987429580319347 0.6075746177894648 0.004562206133021716
0.19040968896088997 0.7053907227641919 0.01458509169300567
0.17063039778735037 0.5770903121988971 0.11144952069516023
0.2891243569101237 0.7025599413454418 0.10917904499009144
0.4987429580319347 0.6075746177894648 0.004562206133021716
0.39040968896089 0.7053907227641919 0.01458509169300567
0.3706303977873504 0.5770903121988971 0.11144952069516023
0.4891243569101238 0.7025599413454418 0.10917904499009144
0.6987429580319348 0.6075746177894648 0.004562206133021716
0.59040968896089 0.7053907227641919 0.01458509169300567
0.5706303977873504 0.5770903121988971 0.11144952069516023
0.6891243569101237 0.7025599413454418 0.10917904499009144
0.8987429580319347 0.6075746177894648 0.004562206133021716
0.79040968896089 0.7053907227641919 0.01458509169300567
0.7706303977873503 0.5770903121988971 0.11144952069516023
0.8891243569101237 0.7025599413454418 0.10917904499009144
0.09874295803193471 0.8075746177894647 0.004562206133021716
-0.009590311039110028 0.9053907227641919 0.01458509169300567
-0.029369602212649643 0.7770903121988971 0.11144952069516023
0.08912435691012371 0.9025599413454417 0.10917904499009144
0.2987429580319347 0.8075746177894647 0.004562206133021716
0.19040968896088997 0.9053907227641919 0.01458509169300567
0.17063039778735037 0.7770903121988971 0.11144952069516023
0.2891243569101237 0.9025599413454417 0.10917904499009144
0.4987429580319347 0.8075746177894647 0.004562206133021716
0.39040968896089 0.9053907227641919 0.01458509169300567
0.3706303977873504 0.7770903121988971 0.11144952069516023
0.4891243569101238 0.9025599413454417 0.10917904499009144
0.6987429580319348 0.8075746177894647 0.004562206133021716
0.59040968896089 0.9053907227641919 0.01458509169300567
0.5706303977873504 0.7770903121988971 0.11144952069516023
0.6891243569101237 0.9025599413454417 0.10917904499009144
0.8987429580319347 0.8075746177894647 0.004562206133021716
0.79040968896089 0.9053907227641919 0.01458509169300567
0.7706303977873503 0.7770903121988971 0.11144952069516023
0.8891243569101237 0.9025599413454417 0.10917904499009144
0.09874295803193471 0.007574617789464711 0.20456220613302173
-0.009590311039110028 0.10539072276419188 0.21458509169300566
-0.029369602212649643 -0.02290968780110291 0.31144952069516024
0.08912435691012371 0.10255994134544166 0.30917904499009147
0.2987429580319347 0.007574617789464711 0.20456220613302173
0.19040968896088997 0.10539072276419188 0.21458509169300566
0.17063039778735037 -0.02290968780110291 0.31144952069516024
0.2891243569101237 0.10255994134544166 0.30917904499009147
0.4987429580319347 0.007574617789464711 0.20456220613302173
0.39040968896089 0.10539072276419188 0.21458509169300566
0.3706303977873504 -0.02290968780110291 0.31144952069516024
0.4891243569101238 0.10255994134544166 0.30917904499009147
0.6987429580319348 0.007574617789464711 0.20456220613302173
0.59040968896089 0.10539072276419188 0.21458509169300566
0.5706303977873504 -0.02290968780110291 0.31144952069516024
0.6891243569101237 0.10255994134544166 0.30917904499009147
0.8987429580319347 0.007574617789464711 0.20456220613302173
0.79040968896089 0.10539072276419188 0.21458509169300566
0.7706303977873503 -0.02290968780110291 0.31144952069516024
0.8891243569101237 0.10255994134544166 0.30917904499009147
0.09874295803193471 0.20757461778946473 0.20456220613302173
-0.009590311039110028 0.3053907227641919 0.21458509169300566
-0.029369602212649643 0.1770903121988971 0.31144952069516024
0.08912435691012371 0.3025599413454417 0.30917904499009147
0.2987429580319347 0.20757461778946473 0.20456220613302173
0.19040968896088997 0.3053907227641919 0.21458509169300566
0.17063039778735037 0.1770903121988971 0.31144952069516024
0.2891243569101237 0.3025599413454417 0.30917904499009147
0.4987429580319347 0.20757461778946473 0.20456220613302173
0.39040968896089 0.3053907227641919 0.21458509169300566
0.3706303977873504 0.1770903121988971 0.31144952069516024
0.4891243569101238 0.3025599413454417 0.30917904499009147
0.6987429580319348 0.20757461778946473 0.20456220613302173
0.59040968896089 0.3053907227641919 0.21458509169300566
0.5706303977873504 0.1770903121988971 0.31144952069516024
0.6891243569101237 0.3025599413454417 0.30917904499009147
0.8987429580319347 0.20757461778946473 0.20456220613302173
0.79040968896089 0.3053907227641919 0.21458509169300566
0.7706303977873503 0.1770903121988971 0.31144952069516024
0.8891243569101237 0.3025599413454417 0.30917904499009147
0.09874295803193471 0.40757461778946474 0.20456220613302173
-0.009590311039110028 0.5053907227641918 0.21458509169300566
-0.029369602212649643 0.3770903121988971 0.31144952069516024
0.08912435691012371 0.5025599413454417 0.30917904499009147
0.2987429580319347 0.40757461778946474 0.20456220613302173
0.19040968896088997 0.5053907227641918 0.21458509169300566
0.17063039778735037 0.3770903121988971 0.31144952069516024
0.2891243569101237 0.5025599413454417 0.30917904499009147
0.4987429580319347 0.40757461778946474 0.20456220613302173
0.39040968896089 0.5053907227641918 0.21458509169300566
0.3706303977873504 0.3770903121988971 0.31144952069516024
0.4891243569101238 0.5025599413454417 0.30917904499009147
0.6987429580319348 0.40757461778946474 0.20456220613302173
0.59040968896089 0.5053907227641918 0.21458509169300566
0.5706303977873504 0.3770903121988971 0.31144952069516024
0.6891243569101237 0.5025599413454417 0.30917904499009147
0.8987429580319347 0.40757461778946474 0.20456220613302173
0.79040968896089 0.5053907227641918 0.21458509169300566
0.7706303977873503 0.3770903121988971 0.31144952069516024
0.8891243569101237 0.5025599413454417 0.30917904499009147
0.09874295803193471 0.6075746177894648 0.20456220613302173
-0.009590311039110028 0.7053907227641919 0.21458509169300566
-0.029369602212649643 0.5770903121988971 0.31144952069516024
0.08912435691012371 0.7025599413454418 0.30917904499009147
0.2987429580319347 0.6075746177894648 0.20456220613302173
0.19040968896088997 0.7053907227641919 0.21458509169300566
0.17063039778735037 0.5770903121988971 0.31144952069516024
0.2891243569101237 0.7025599413454418 0.30917904499009147
0.4987429580319347 0.6075746177894648 0.20456220613302173
0.39040968896089 0.7053907227641919 0.21458509169300566
0.3706303977873504 0.5770903121988971 0.31144952069516024
0.4891243569101238 0.7025599413454418 0.30917904499009147
0.6987429580319348 0.6075746177894648 0.20456220613302173
0.59040968896089 0.7053907227641919 0.21458509169300566
0.5706303977873504 0.5770903121988971 0.31144952069516024
0.6891243569101237 0.7025599413454418 0.30917904499009147
0.8987429580319347 0.6075746177894648 0.20456220613302173
0.79040968896089 0.7053907227641919 0.21458509169300566
0.7706303977873503 0.5770903121988971 0.31144952069516024
0.8891243569101237 0.7025599413454418 0.30917904499009147
0.09874295803193471 0.8075746177894647 0.20456220613302173
-0.009590311039110028 0.9053907227641919 0.21458509169300566
-0.029369602212649643 0.7770903121988971 0.31144952069516024
0.08912435691012371 0.9025599413454417 0.30917904499009147
0.2987429580319347 0.8075746177894647 0.20456220613302173
0.19040968896088997 0.9053907227641919 0.21458509169300566
0.17063039778735037 0.7770903121988971 0.31144952069516024
0.2891243569101237 0.9025599413454417 0.30917904499009147
0.4987429580319347 0.8075746177894647 0.20456220613302173
0.39040968896089 0.9053907227641919 0.21458509169300566
0.3706303977873504 0.7770903121988971 0.31144952069516024
0.4891243569101238 0.9025599413454417 0.30917904499009147
0.6987429580319348 0.8075746177894647 0.20456220613302173
0.59040968896089 0.9053907227641919 0.21458509169300566
0.5706303977873504 0.7770903121988971 0.31144952069516024
0.6891243569101237 0.9025599413454417 0.30917904499009147
0.8987429580319347 0.8075746177894647 0.20456220613302173
0.79040968896089 0.9053907227641919 0.21458509169300566
0.7706303977873503 0.7770903121988971 0.31144952069516024
0.8891243569101237 0.9025599413454417 0.30917904499009147
0.09874295803193471 0.007574617789464711 0.40456220613302174
-0.009590311039110028 0.10539072276419188 0.41458509169300567
-0.029369602212649643 -0.02290968780110291 0.5114495206951603
0.08912435691012371 0.10255994134544166 0.5091790449900915
0.2987429580319347 0.007574617789464711 0.40456220613302174
0.19040968896088997 0.10539072276419188 0.41458509169300567
0.17063039778735037 -0.02290968780110291 0.5114495206951603
0.2891243569101237 0.10255994134544166 0.5091790449900915
0.4987429580319347 0.007574617789464711 0.40456220613302174
0.39040968896089 0.10539072276419188 0.41458509169300567
0.3706303977873504 -0.02290968780110291 0.5114495206951603
0.4891243569101238 0.10255994134544166 0.5091790449900915
0.6987429580319348 0.007574617789464711 0.40456220613302174
0.59040968896089 0.10539072276419188 0.41458509169300567
0.5706303977873504 -0.02290968780110291 0.5114495206951603
0.6891243569101237 0.10255994134544166 0.5091790449900915
0.8987429580319347 0.007574617789464711 0.40456220613302174
0.79040968896089 0.10539072276419188 0.41458509169300567
0.7706303977873503 -0.02290968780110291 0.5114495206951603
0.8891243569101237 0.10255994134544166 0.5091790449900915
0.09874295803193471 0.20757461778946473 0.40456220613302174
-0.009590311039110028 0.3053907227641919 0.41458509169300567
-0.029369602212649643 0.1770903121988971 0.5114495206951603
0.08912435691012371 0.3025599413454417 0.5091790449900915
0.2987429580319347 0.20757461778946473 0.40456220613302174
0.19040968896088997 0.3053907227641919 0.41458509169300567
0.17063039778735037 0.1770903121988971 0.5114495206951603
0.2891243569101237 0.3025599413454417 0.5091790449900915
0.4987429580319347 0.20757461778946473 0.40456220613302174
0.39040968896089 0.3053907227641919 0.41458509169300567
0.3706303977873504 0.1770903121988971 0.5114495206951603
0.4891243569101238 0.3025599413454417 0.5091790449900915
0.6987429580319348 0.20757461778946473 0.40456220613302174
0.59040968896089 0.3053907227641919 0.41458509169300567
0.5706303977873504 0.1770903121988971 0.5114495206951603
0.6891243569101237 0.3025599413454417 0.5091790449900915
0.8987429580319347 0.20757461778946473 0.40456220613302174
0.79040968896089 0.3053907227641919 0.41458509169300567
0.7706303977873503 0.1770903121988971 0.5114495206951603
0.8891243569101237 0.3025599413454417 0.5091790449900915
0.09874295803193471 0.40757461778946474 0.40456220613302174
-0.009590311039110028 0.5053907227641918 0.41458509169300567
-0.029369602212649643 0.3770903121988971 0.5114495206951603
0.08912435691012371 0.5025599413454417 0.5091790449900915
0.2987429580319347 0.40757461778946474 0.40456220613302174
0.19040968896088997 0.5053907227641918 0.41458509169300567
0.17063039778735037 0.3770903121988971 0.5114495206951603
0.2891243569101237 0.5025599413454417 0.5091790449900915
0.4987429580319347 0.40757461778946474 0.40456220613302174
0.39040968896089 0.5053907227641918 0.41458509169300567
0.3706303977873504 0.3770903121988971 0.5114495206951603
0.4891243569101238 0.5025599413454417 0.5091790449900915
0.6987429580319348 0.40757461778946474 0.40456220613302174
0.59040968896089 0.5053907227641918 0.41458509169300567
0.5706303977873504 0.3770903121988971 0.5114495206951603
0.6891243569101237 0.5025599413454417 0.5091790449900915
0.8987429580319347 0.40757461778946474 0.40456220613302174
0.79040968896089 0.5053907227641918 0.41458509169300567
0.7706303977873503 0.3770903121988971 0.5114495206951603
0.8891243569101237 0.5025599413454417 0.5091790449900915
0.09874295803193471 0.6075746177894648 0.40456220613302174
-0.009590311039110028 0.7053907227641919 0.41458509169300567
-0.029369602212649643 0.5770903121988971 0.5114495206951603
0.08912435691012371 0.7025599413454418 0.5091790449900915
0.2987429580319347 0.6075746177894648 0.40456220613302174
0.19040968896088997 0.7053907227641919 0.41458509169300567
0.17063039778735037 0.5770903121988971 0.5114495206951603
0.2891243569101237 0.7025599413454418 0.5091790449900915
0.4987429580319347 0.6075746177894648 0.40456220613302174
0.39040968896089 0.7053907227641919 0.41458509169300567
0.3706303977873504 0.5770903121988971 0.5114495206951603
0.4891243569101238 0.7025599413454418 0.5091790449900915
0.6987429580319348 0.6075746177894648 0.40456220613302174
0.59040968896089 0.7053907227641919 0.41458509169300567
0.5706303977873504 0.5770903121988971 0.5114495206951603
0.6891243569101237 0.7025599413454418 0.5091790449900915
0.8987429580319347 0.6075746177894648 0.40456220613302174
0.79040968896089 0.7053907227641919 0.41458509169300567
0.7706303977873503 0.5770903121988971 0.5114495206951603
0.8891243569101237 0.7025599413454418 0.5091790449900915
0.09874295803193471 0.8075746177894647 0.40456220613302174
-0.009590311039110028 0.9053907227641919 0.41458509169300567
-0.029369602212649643 0.7770903121988971 0.5114495206951603
0.08912435691012371 0.9025599413454417 0.5091790449900915
0.2987429580319347 0.8075746177894647 0.40456220613302174
0.19040968896088997 0.9053907227641919 0.41458509169300567
0.17063039778735037 0.7770903121988971 0.5114495206951603
0.2891243569101237 0.9025599413454417 0.5091790449900915
0.4987429580319347 0.8075746177894647 0.40456220613302174
0.39040968896089 0.9053907227641919 0.41458509169300567
0.3706303977873504 0.7770903121988971 0.5114495206951603
0.4891243569101238 0.9025599413454417 0.5091790449900915
0.6987429580319348 0.8075746177894647 0.40456220613302174
0.59040968896089 0.9053907227641919 0.41458509169300567
0.5706303977873504 0.7770903121988971 0.5114495206951603
0.6891243569101237 0.9025599413454417 0.5091790449900915
0.8987429580319347 0.8075746177894647 0.40456220613302174
0.79040968896089 0.9053907227641919 0.41458509169300567
0.7706303977873503 0.7770903121988971 0.5114495206951603
0.8891243569101237 0.9025599413454417 0.5091790449900915
0.09874295803193471 0.007574617789464711 0.6045622061330218
-0.009590311039110028 0.10539072276419188 0.6145850916930057
-0.029369602212649643 -0.02290968780110291 0.7114495206951603
0.08912435691012371 0.10255994134544166 0.7091790449900914
0.2987429580319347 0.007574617789464711 0.6045622061330218
0.19040968896088997 0.10539072276419188 0.6145850916930057
0.17063039778735037 -0.02290968780110291 0.7114495206951603
0.2891243569101237 0.10255994134544166 0.7091790449900914
0.4987429580319347 0.007574617789464711 0.6045622061330218
0.39040968896089 0.10539072276419188 0.6145850916930057
0.3706303977873504 -0.02290968780110291 0.7114495206951603
0.4891243569101238 0.10255994134544166 0.7091790449900914
0.6987429580319348 0.007574617789464711 0.6045622061330218
0.59040968896089 0.10539072276419188 0.6145850916930057
0.5706303977873504 -0.02290968780110291 0.7114495206951603
0.6891243569101237 0.10255994134544166 0.7091790449900914
0.8987429580319347 0.007574617789464711 0.6045622061330218
0.79040968896089 0.10539072276419188 0.6145850916930057
0.7706303977873503 -0.02290968780110291 0.7114495206951603
0.8891243569101237 0.10255994134544166 0.7091790449900914
0.09874295803193471 0.20757461778946473 0.6045622061330218
-0.009590311039110028 0.3053907227641919 0.6145850916930057
-0.029369602212649643 0.1770903121988971 0.7114495206951603
0.08912435691012371 0.3025599413454417 0.7091790449900914
0.2987429580319347 0.20757461778946473 0.6045622061330218
0.19040968896088997 0.3053907227641919 0.6145850916930057
0.17063039778735037 0.1770903121988971 0.7114495206951603
0.2891243569101237 0.3025599413454417 0.7091790449900914
0.4987429580319347 0.20757461778946473 0.6045622061330218
0.39040968896089 0.3053907227641919 0.6145850916930057
0.3706303977873504 0.1770903121988971 0.7114495206951603
0.4891243569101238 0.3025599413454417 0.7091790449900914
0.6987429580319348 0.20757461778946473 0.6045622061330218
0.59040968896089 0.3053907227641919 0.6145850916930057
0.5706303977873504 0.1770903121988971 0.7114495206951603
0.6891243569101237 0.3025599413454417 0.7091790449900914
0.8987429580319347 0.20757461778946473 0.6045622061330218
0.79040968896089 0.3053907227641919 0.6145850916930057
0.7706303977873503 0.1770903121988971 0.7114495206951603
0.8891243569101237 0.3025599413454417 0.7091790449900914
0.09874295803193471 0.40757461778946474 0.6045622061330218
-0.009590311039110028 0.5053907227641918 0.6145850916930057
-0.029369602212649643 0.3770903121988971 0.7114495206951603
0.08912435691012371 0.5025599413454417 0.7091790449900914
0.2987429580319347 0.40757461778946474 0.6045622061330218
0.19040968896088997 0.5053907227641918 0.6145850916930057
0.17063039778735037 0.3770903121988971 0.7114495206951603
0.2891243569101237 0.5025599413454417 0.7091790449900914
0.4987429580319347 0.40757461778946474 0.6045622061330218
0.39040968896089 0.5053907227641918 0.6145850916930057
0.3706303977873504 0.3770903121988971 0.7114495206951603
0.4891243569101238 0.5025599413454417 0.7091790449900914
0.6987429580319348 0.40757461778946474 0.6045622061330218
0.59040968896089 0.5053907227641918 0.6145850916930057
0.5706303977873504 0.3770903121988971 0.7114495206951603
0.6891243569101237 0.5025599413454417 0.7091790449900914
0.8987429580319347 0.40757461778946474 0.6045622061330218
0.79040968896089 0.5053907227641918 0.6145850916930057
0.7706303977873503 0.3770903121988971 0.7114495206951603
0.8891243569101237 0.5025599413454417 0.7091790449900914
0.09874295803193471 0.6075746177894648 0.6045622061330218
-0.009590311039110028 0.7053907227641919 0.6145850916930057
-0.029369602212649643 0.5770903121988971 0.7114495206951603
0.08912435691012371 0.7025599413454418 0.7091790449900914
0.2987429580319347 0.6075746177894648 0.6045622061330218
0.19040968896088997 0.7053907227641919 0.6145850916930057
0.17063039778735037 0.5770903121988971 0.7114495206951603
0.2891243569101237 0.7025599413454418 0.7091790449900914
0.4987429580319347 0.6075746177894648 0.6045622061330218
0.39040968896089 0.7053907227641919 0.6145850916930057
0.3706303977873504 0.5770903121988971 0.7114495206951603
0.4891243569101238 0.7025599413454418 0.7091790449900914
0.6987429580319348 0.6075746177894648 0.6045622061330218
0.59040968896089 0.7053907227641919 0.6145850916930057
0.5706303977873504 0.5770903121988971 0.7114495206951603
0.6891243569101237 0.7025599413454418 0.7091790449900914
0.8987429580319347 0.6075746177894648 0.6045622061330218
0.79040968896089 0.7053907227641919 0.6145850916930057
0.7706303977873503 0.5770903121988971 0.7114495206951603
0.8891243569101237 0.7025599413454418 0.7091790449900914
0.09874295803193471 0.8075746177894647 0.6045622061330218
-0.009590311039110028 0.9053907227641919 0.6145850916930057
-0.029369602212649643 0.7770903121988971 0.7114495206951603
0.08912435691012371 0.9025599413454417 0.7091790449900914
0.2987429580319347 0.8075746177894647 0.6045622061330218
0.19040968896088997 0.9053907227641919 0.6145850916930057
0.17063039778735037 0.7770903121988971 0.7114495206951603
0.2891243569101237 0.9025599413454417 0.7091790449900914
0.4987429580319347 0.8075746177894647 0.6045622061330218
0.39040968896089 0.9053907227641919 0.6145850916930057
0.3706303977873504 0.7770903121988971 0.7114495206951603
0.4891243569101238 0.9025599413454417 0.7091790449900914
0.6987429580319348 0.8075746177894647 0.6045622061330218
0.59040968896089 0.9053907227641919 0.6145850916930057
0.5706303977873504 0.7770903121988971 0.7114495206951603
0.6891243569101237 0.9025599413454417 0.7091790449900914
0.8987429580319347 0.8075746177894647 0.6045622061330218
0.79040968896089 0.9053907227641919 0.6145850916930057
0.7706303977873503 0.7770903121988971 0.7114495206951603
0.8891243569101237 0.9025599413454417 0.7091790449900914
0.09874295803193471 0.007574617789464711 0.8045622061330218
-0.009590311039110028 0.10539072276419188 0.8145850916930057
-0.029369602212649643 -0.02290968780110291 0.9114495206951603
0.08912435691012371 0.10255994134544166 0.9091790449900915
0.2987429580319347 0.007574617789464711 0.8045622061330218
0.19040968896088997 0.10539072276419188 0.8145850916930057
0.17063039778735037 -0.02290968780110291 0.9114495206951603
0.2891243569101237 0.10255994134544166 0.9091790449900915
0.4987429580319347 0.007574617789464711 0.8045622061330218
0.39040968896089 0.10539072276419188 0.8145850916930057
0.3706303977873504 -0.02290968780110291 0.9114495206951603
0.4891243569101238 0.10255994134544166 0.9091790449900915
0.6987429580319348 0.007574617789464711 0.8045622061330218
0.59040968896089 0.10539072276419188 0.8145850916930057
0.5706303977873504 -0.02290968780110291 0.9114495206951603
0.6891243569101237 0.10255994134544166 0.9091790449900915
0.8987429580319347 0.007574617789464711 0.8045622061330218
0.79040968896089 0.10539072276419188 0.8145850916930057
0.7706303977873503 -0.02290968780110291 0.9114495206951603
0.8891243569101237 0.10255994134544166 0.9091790449900915
0.09874295803193471 0.20757461778946473 0.8045622061330218
-0.009590311039110028 0.3053907227641919 0.8145850916930057
-0.029369602212649643 0.1770903121988971 0.9114495206951603
0.08912435691012371 0.3025599413454417 0.9091790449900915
0.2987429580319347 0.20757461778946473 0.8045622061330218
0.19040968896088997 0.3053907227641919 0.8145850916930057
0.17063039778735037 0.1770903121988971 0.9114495206951603
0.2891243569101237 0.3025599413454417 0.9091790449900915
0.4987429580319347 0.20757461778946473 0.8045622061330218
0.39040968896089 0.3053907227641919 0.8145850916930057
0.3706303977873504 0.1770903121988971 0.9114495206951603
0.4891243569101238 0.3025599413454417 0.9091790449900915
0.6987429580319348 0.20757461778946473 0.8045622061330218
0.59040968896089 0.3053907227641919 0.8145850916930057
0.5706303977873504 0.1770903121988971 0.9114495206951603
0.6891243569101237 0.3025599413454417 0.9091790449900915
0.8987429580319347 0.20757461778946473 0.8045622061330218
0.79040968896089 0.3053907227641919 0.8145850916930057
0.7706303977873503 0.1770903121988971 0.9114495206951603
0.8891243569101237 0.3025599413454417 0.9091790449900915
0.09874295803193471 0.40757461778946474 0.8045622061330218
-0.009590311039110028 0.5053907227641918 0.8145850916930057
-0.029369602212649643 0.3770903121988971 0.9114495206951603
0.08912435691012371 0.5025599413454417 0.9091790449900915
0.2987429580319347 0.40757461778946474 0.8045622061330218
0.19040968896088997 0.5053907227641918 0.8145850916930057
0.17063039778735037 0.3770903121988971 0.9114495206951603
0.2891243569101237 0.5025599413454417 0.9091790449900915
0.4987429580319347 0.40757461778946474 0.8045622061330218
0.39040968896089 0.5053907227641918 0.8145850916930057
0.3706303977873504 0.3770903121988971 0.9114495206951603
0.4891243569101238 0.5025599413454417 0.9091790449900915
0.6987429580319348 0.40757461778946474 0.8045622061330218
0.59040968896089 0.5053907227641918 0.8145850916930057
0.5706303977873504 0.3770903121988971 0.9114495206951603
0.6891243569101237 0.5025599413454417 0.9091790449900915
0.8987429580319347 0.40757461778946474 0.8045622061330218
0.79040968896089 0.5053907227641918 0.8145850916930057
0.7706303977873503 0.3770903121988971 0.9114495206951603
0.8891243569101237 0.5025599413454417 0.9091790449900915
0.09874295803193471 0.6075746177894648 0.8045622061330218
-0.009590311039110028 0.7053907227641919 0.8145850916930057
-0.029369602212649643 0.5770903121988971 0.9114495206951603
0.08912435691012371 0.7025599413454418 0.9091790449900915
0.2987429580319347 0.6075746177894648 0.8045622061330218
0.19040968896088997 0.7053907227641919 0.8145850916930057
0.17063039778735037 0.5770903121988971 0.9114495206951603
0.2891243569101237 0.7025599413454418 0.9091790449900915
0.4987429580319347 0.6075746177894648 0.8045622061330218
0.39040968896089 0.7053907227641919 0.8145850916930057
0.3706303977873504 0.5770903121988971 0.9114495206951603
0.4891243569101238 0.7025599413454418 0.9091790449900915
0.6987429580319348 0.6075746177894648 0.8045622061330218
0.59040968896089 0.7053907227641919 0.8145850916930057
0.5706303977873504 0.5770903121988971 0.9114495206951603
0.6891243569101237 0.7025599413454418 0.9091790449900915
0.8987429580319347 0.6075746177894648 0.8045622061330218
0.79040968896089 0.7053907227641919 0.8145850916930057
0.7706303977873503 0.5770903121988971 0.9114495206951603
0.8891243569101237 0.7025599413454418 0.9091790449900915
0.09874295803193471 0.8075746177894647 0.8045622061330218
-0.009590311039110028 0.9053907227641919 0.8145850916930057
-0.029369602212649643 0.7770903121988971 0.9114495206951603
0.08912435691012371 0.9025599413454417 0.9091790449900915
0.2987429580319347 0.8075746177894647 0.8045622061330218
0.19040968896088997 0.9053907227641919 0.8145850916930057
0.17063039778735037 0.7770903121988971 0.9114495206951603
0.2891243569101237 0.9025599413454417 0.9091790449900915
0.4987429580319347 0.8075746177894647 0.8045622061330218
0.39040968896089 0.9053907227641919 0.8145850916930057
0.3706303977873504 0.7770903121988971 0.9114495206951603
0.4891243569101238 0.9025599413454417 0.9091790449900915
0.6987429580319348 0.8075746177894647 0.8045622061330218
0.59040968896089 0.9053907227641919 0.8145850916930057
0.5706303977873504 0.7770903121988971 0.9114495206951603
0.6891243569101237 0.9025599413454417 0.9091790449900915
0.8987429580319347 0.8075746177894647 0.8045622061330218
0.79040968896089 0.9053907227641919 0.8145850916930057
0.7706303977873503 0.7770903121988971 0.9114495206951603
0.8891243569101237 0.9025599413454417 0.9091790449900915
