FCC BaO
5.61604
3.0 0.0 0.0
0.0 3.0 0.0
0.0 0.0 3.0
Ba O 
108 108 
Direct
-0.19220166547098685 -0.005403636507519895 0.1853288414963065
-0.13415609014890972 0.17045420718148785 -0.19499688025504552
0.4785006026877545 0.3809894072381755 0.052367825324984664
0.098299565001807 0.1164053517616124 -0.005518981331942452
0.14113166786234646 -0.005403636507519895 0.1853288414963065
0.19917724318442356 0.17045420718148785 -0.19499688025504552
0.8118339360210879 0.3809894072381755 0.052367825324984664
0.43163289833514035 0.1164053517616124 -0.005518981331942452
0.47446500119567975 -0.005403636507519895 0.1853288414963065
0.5325105765177569 0.17045420718148785 -0.19499688025504552
1.1451672693544213 0.3809894072381755 0.052367825324984664
0.7649662316684737 0.1164053517616124 -0.005518981331942452
-0.19220166547098685 0.3279296968258134 0.1853288414963065
-0.13415609014890972 0.5037875405148211 -0.19499688025504552
0.4785006026877545 0.7143227405715088 0.052367825324984664
0.098299565001807 0.44973868509494574 -0.005518981331942452
0.14113166786234646 0.3279296968258134 0.1853288414963065
0.19917724318442356 0.5037875405148211 -0.19499688025504552
0.8118339360210879 0.7143227405715088 0.052367825324984664
0.43163289833514035 0.44973868509494574 -0.005518981331942452
0.47446500119567975 0.3279296968258134 0.1853288414963065
0.5325105765177569 0.5037875405148211 -0.19499688025504552
1.1451672693544213 0.7143227405715088 0.052367825324984664
0.7649662316684737 0.44973868509494574 -0.005518981331942452
-0.19220166547098685 0.6612630301591467 0.1853288414963065
-0.13415609014890972 0.8371208738481545 -0.19499688025504552
0.4785006026877545 1.0476560739048422 0.052367825324984664
0.098299565001807 0.7830720184282791 -0.005518981331942452
0.14113166786234646 0.6612630301591467 0.1853288414963065
0.19917724318442356 0.8371208738481545 -0.19499688025504552
0.8118339360210879 1.0476560739048422 0.052367825324984664
0.43163289833514035 0.7830720184282791 -0.005518981331942452
0.47446500119567975 0.6612630301591467 0.1853288414963065
0.5325105765177569 0.8371208738481545 -0.19499688025504552
1.1451672693544213 1.0476560739048422 0.052367825324984664
0.7649662316684737 0.7830720184282791 -0.005518981331942452
-0.19220166547098685 -0.005403636507519895 0.5186621748296398
-0.13415609014890972 0.17045420718148785 0.1383364530782878
0.4785006026877545 0.3809894072381755 0.38570115865831794
0.098299565001807 0.1164053517616124 0.32781435200139086
0.14113166786234646 -0.005403636507519895 0.5186621748296398
0.19917724318442356 0.17045420718148785 0.1383364530782878
0.8118339360210879 0.3809894072381755 0.38570115865831794
0.43163289833514035 0.1164053517616124 0.32781435200139086
0.47446500119567975 -0.005403636507519895 0.5186621748296398
0.5325105765177569 0.17045420718148785 0.1383364530782878
1.1451672693544213 0.3809894072381755 0.38570115865831794
0.7649662316684737 0.1164053517616124 0.32781435200139086
-0.19220166547098685 0.3279296968258134 0.5186621748296398
-0.13415609014890972 0.5037875405148211 0.1383364530782878
0.4785006026877545 0.7143227405715088 0.38570115865831794
0.098299565001807 0.44973868509494574 0.32781435200139086
0.14113166786234646 0.3279296968258134 0.5186621748296398
0.19917724318442356 0.5037875405148211 0.1383364530782878
0.8118339360210879 0.7143227405715088 0.38570115865831794
0.43163289833514035 0.44973868509494574 0.32781435200139086
0.47446500119567975 0.3279296968258134 0.5186621748296398
0.5325105765177569 0.5037875405148211 0.1383364530782878
1.1451672693544213 0.7143227405715088 0.38570115865831794
0.7649662316684737 0.44973868509494574 0.32781435200139086
-0.19220166547098685 0.6612630301591467 0.5186621748296398
-0.13415609014890972 0.8371208738481545 0.1383364530782878
0.4785006026877545 1.0476560739048422 0.38570115865831794
0.098299565001807 0.7830720184282791 0.32781435200139086
0.14113166786234646 0.6612630301591467 0.5186621748296398
0.19917724318442356 0.8371208738481545 0.1383364530782878
0.8118339360210879 1.0476560739048422 0.38570115865831794
0.43163289833514035 0.7830720184282791 0.32781435200139086
0.47446500119567975 0.6612630301591467 0.5186621748296398
0.5325105765177569 0.8371208738481545 0.1383364530782878
1.1451672693544213 1.0476560739048422 0.38570115865831794
0.7649662316684737 0.7830720184282791 0.32781435200139086
-0.19220166547098685 -0.005403636507519895 0.8519955081629732
-0.13415609014890972 0.17045420718148785 0.4716697864116211
0.4785006026877545 0.3809894072381755 0.7190344919916513
0.098299565001807 0.1164053517616124 0.6611476853347242
0.14113166786234646 -0.005403636507519895 0.8519955081629732
0.19917724318442356 0.17045420718148785 0.4716697864116211
0.8118339360210879 0.3809894072381755 0.7190344919916513
0.43163289833514035 0.1164053517616124 0.6611476853347242
0.47446500119567975 -0.005403636507519895 0.8519955081629732
0.5325105765177569 0.17045420718148785 0.4716697864116211
1.1451672693544213 0.3809894072381755 0.7190344919916513
0.7649662316684737 0.1164053517616124 0.6611476853347242
-0.19220166547098685 0.3279296968258134 0.8519955081629732
-0.13415609014890972 0.5037875405148211 0.4716697864116211
0.4785006026877545 0.7143227405715088 0.7190344919916513
0.098299565001807 0.44973868509494574 0.6611476853347242
0.14113166786234646 0.3279296968258134 0.8519955081629732
0.19917724318442356 0.5037875405148211 0.4716697864116211
0.8118339360210879 0.7143227405715088 0.7190344919916513
0.43163289833514035 0.44973868509494574 0.6611476853347242
0.47446500119567975 0.3279296968258134 0.8519955081629732
0.5325105765177569 0.5037875405148211 0.4716697864116211
1.1451672693544213 0.7143227405715088 0.7190344919916513
0.7649662316684737 0.44973868509494574 0.6611476853347242
-0.19220166547098685 0.6612630301591467 0.8519955081629732
-0.13415609014890972 0.8371208738481545 0.4716697864116211
0.4785006026877545 1.0476560739048422 0.7190344919916513
0.098299565001807 0.7830720184282791 0.6611476853347242
0.14113166786234646 0.6612630301591467 0.8519955081629732
0.19917724318442356 0.8371208738481545 0.4716697864116211
0.8118339360210879 1.0476560739048422 0.7190344919916513
0.43163289833514035 0.7830720184282791 0.6611476853347242
0.47446500119567975 0.6612630301591467 0.8519955081629732
0.5325105765177569 0.8371208738481545 0.4716697864116211
1.1451672693544213 1.0476560739048422 0.7190344919916513
0.7649662316684737 0.7830720184282791 0.6611476853347242
0.3664799900658341 0.4465218042129002 0.04278658638730583
-0.3249776419614161 0.14389455439351795 0.45931597543581343
-0.03521980824505146 -0.16939477827863986 0.3075200053200424
0.044281289608541566 0.16477968486954725 -0.03881547503772177
0.6998133233991674 0.4465218042129002 0.04278658638730583
0.008355691371917235 0.14389455439351795 0.45931597543581343
0.29811352508828187 -0.16939477827863986 0.3075200053200424
0.37761462294187487 0.16477968486954725 -0.03881547503772177
1.0331466567325007 0.4465218042129002 0.04278658638730583
0.34168902470525053 0.14389455439351795 0.45931597543581343
0.6314468584216152 -0.16939477827863986 0.3075200053200424
0.7109479562752081 0.16477968486954725 -0.03881547503772177
0.3664799900658341 0.7798551375462335 0.04278658638730583
-0.3249776419614161 0.47722788772685126 0.45931597543581343
-0.03521980824505146 0.16393855505469346 0.3075200053200424
0.044281289608541566 0.49811301820288056 -0.03881547503772177
0.6998133233991674 0.7798551375462335 0.04278658638730583
0.008355691371917235 0.47722788772685126 0.45931597543581343
0.29811352508828187 0.16393855505469346 0.3075200053200424
0.37761462294187487 0.49811301820288056 -0.03881547503772177
1.0331466567325007 0.7798551375462335 0.04278658638730583
0.34168902470525053 0.47722788772685126 0.45931597543581343
0.6314468584216152 0.16393855505469346 0.3075200053200424
0.7109479562752081 0.49811301820288056 -0.03881547503772177
0.3664799900658341 1.1131884708795667 0.04278658638730583
-0.3249776419614161 0.8105612210601845 0.45931597543581343
-0.03521980824505146 0.4972718883880268 0.3075200053200424
0.044281289608541566 0.8314463515362138 -0.03881547503772177
0.6998133233991674 1.1131884708795667 0.04278658638730583
0.008355691371917235 0.8105612210601845 0.45931597543581343
0.29811352508828187 0.4972718883880268 0.3075200053200424
0.37761462294187487 0.8314463515362138 -0.03881547503772177
1.0331466567325007 1.1131884708795667 0.04278658638730583
0.34168902470525053 0.8105612210601845 0.45931597543581343
0.6314468584216152 0.4972718883880268 0.3075200053200424
0.7109479562752081 0.8314463515362138 -0.03881547503772177
0.3664799900658341 0.4465218042129002 0.37611991972063913
-0.3249776419614161 0.14389455439351795 0.7926493087691467
-0.03521980824505146 -0.16939477827863986 0.6408533386533757
0.044281289608541566 0.16477968486954725 0.2945178582956115
0.6998133233991674 0.4465218042129002 0.37611991972063913
0.008355691371917235 0.14389455439351795 0.7926493087691467
0.29811352508828187 -0.16939477827863986 0.6408533386533757
0.37761462294187487 0.16477968486954725 0.2945178582956115
1.0331466567325007 0.4465218042129002 0.37611991972063913
0.34168902470525053 0.14389455439351795 0.7926493087691467
0.6314468584216152 -0.16939477827863986 0.6408533386533757
0.7109479562752081 0.16477968486954725 0.2945178582956115
0.3664799900658341 0.7798551375462335 0.37611991972063913
-0.3249776419614161 0.47722788772685126 0.7926493087691467
-0.03521980824505146 0.16393855505469346 0.6408533386533757
0.044281289608541566 0.49811301820288056 0.2945178582956115
0.6998133233991674 0.7798551375462335 0.37611991972063913
0.008355691371917235 0.47722788772685126 0.7926493087691467
0.29811352508828187 0.16393855505469346 0.6408533386533757
0.37761462294187487 0.49811301820288056 0.2945178582956115
1.0331466567325007 0.7798551375462335 0.37611991972063913
0.34168902470525053 0.47722788772685126 0.7926493087691467
0.6314468584216152 0.16393855505469346 0.6408533386533757
0.7109479562752081 0.49811301820288056 0.2945178582956115
0.3664799900658341 1.1131884708795667 0.37611991972063913
-0.3249776419614161 0.8105612210601845 0.7926493087691467
-0.03521980824505146 0.4972718883880268 0.6408533386533757
0.044281289608541566 0.8314463515362138 0.2945178582956115
0.6998133233991674 1.1131884708795667 0.37611991972063913
0.008355691371917235 0.8105612210601845 0.7926493087691467
0.29811352508828187 0.4972718883880268 0.6408533386533757
0.37761462294187487 0.8314463515362138 0.2945178582956115
1.0331466567325007 1.1131884708795667 0.37611991972063913
0.34168902470525053 0.8105612210601845 0.7926493087691467
0.6314468584216152 0.4972718883880268 0.6408533386533757
0.7109479562752081 0.8314463515362138 0.2945178582956115
0.3664799900658341 0.4465218042129002 0.7094532530539724
-0.3249776419614161 0.14389455439351795 1.1259826421024801
-0.03521980824505146 -0.16939477827863986 0.974186671986709
0.044281289608541566 0.16477968486954725 0.6278511916289449
0.6998133233991674 0.4465218042129002 0.7094532530539724
0.008355691371917235 0.14389455439351795 1.1259826421024801
0.29811352508828187 -0.16939477827863986 0.974186671986709
0.37761462294187487 0.16477968486954725 0.6278511916289449
1.0331466567325007 0.4465218042129002 0.7094532530539724
0.34168902470525053 0.14389455439351795 1.1259826421024801
0.6314468584216152 -0.16939477827863986 0.974186671986709
0.7109479562752081 0.16477968486954725 0.6278511916289449
0.3664799900658341 0.7798551375462335 0.7094532530539724
-0.3249776419614161 0.47722788772685126 1.1259826421024801
-0.03521980824505146 0.16393855505469346 0.974186671986709
0.044281289608541566 0.49811301820288056 0.6278511916289449
0.6998133233991674 0.7798551375462335 0.7094532530539724
0.008355691371917235 0.47722788772685126 1.1259826421024801
0.29811352508828187 0.16393855505469346 0.974186671986709
0.37761462294187487 0.49811301820288056 0.6278511916289449
1.0331466567325007 0.7798551375462335 0.7094532530539724
0.34168902470525053 0.47722788772685126 1.1259826421024801
0.6314468584216152 0.16393855505469346 0.974186671986709
0.7109479562752081 0.49811301820288056 0.6278511916289449
0.3664799900658341 1.1131884708795667 0.7094532530539724
-0.3249776419614161 0.8105612210601845 1.1259826421024801
-0.03521980824505146 0.4972718883880268 0.974186671986709
0.044281289608541566 0.8314463515362138 0.6278511916289449
0.6998133233991674 1.1131884708795667 0.7094532530539724
0.008355691371917235 0.8105612210601845 1.1259826421024801
0.29811352508828187 0.4972718883880268 0.974186671986709
0.37761462294187487 0.8314463515362138 0.6278511916289449
1.0331466567325007 1.1131884708795667 0.7094532530539724
0.34168902470525053 0.8105612210601845 1.1259826421024801
0.6314468584216152 0.4972718883880268 0.974186671986709
0.7109479562752081 0.8314463515362138 0.6278511916289449
