FCC BaO
5.61604
3.0 0.0 0.0
0.0 3.0 0.0
0.0 0.0 3.0
Ba O 
108 108 
Direct
-0.19885700638594686 -0.0018415526946221402 0.10283433127776544
-0.02298808743304815 0.23993556168680713 0.2217999345447989
-0.005439791518172291 0.017394276976576938 0.13367818953000618
0.3692678157038992 0.34791430462686496 -0.26841254580505297
0.13447632694738645 -0.0018415526946221402 0.10283433127776544
0.31034524590028517 0.23993556168680713 0.2217999345447989
0.327893541815161 0.017394276976576938 0.13367818953000618
0.7026011490372325 0.34791430462686496 -0.26841254580505297
0.4678096602807198 -0.0018415526946221402 0.10283433127776544
0.6436785792336185 0.23993556168680713 0.2217999345447989
0.6612268751484943 0.017394276976576938 0.13367818953000618
1.0359344823705658 0.34791430462686496 -0.26841254580505297
-0.19885700638594686 0.3314917806387112 0.10283433127776544
-0.02298808743304815 0.5732688950201404 0.2217999345447989
-0.005439791518172291 0.35072761030991023 0.13367818953000618
0.3692678157038992 0.6812476379601984 -0.26841254580505297
0.13447632694738645 0.3314917806387112 0.10283433127776544
0.31034524590028517 0.5732688950201404 0.2217999345447989
0.327893541815161 0.35072761030991023 0.13367818953000618
0.7026011490372325 0.6812476379601984 -0.26841254580505297
0.4678096602807198 0.3314917806387112 0.10283433127776544
0.6436785792336185 0.5732688950201404 0.2217999345447989
0.6612268751484943 0.35072761030991023 0.13367818953000618
1.0359344823705658 0.6812476379601984 -0.26841254580505297
-0.19885700638594686 0.6648251139720445 0.10283433127776544
-0.02298808743304815 0.9066022283534738 0.2217999345447989
-0.005439791518172291 0.6840609436432437 0.13367818953000618
0.3692678157038992 1.0145809712935316 -0.26841254580505297
0.13447632694738645 0.6648251139720445 0.10283433127776544
0.31034524590028517 0.9066022283534738 0.2217999345447989
0.327893541815161 0.6840609436432437 0.13367818953000618
0.7026011490372325 1.0145809712935316 -0.26841254580505297
0.4678096602807198 0.6648251139720445 0.10283433127776544
0.6436785792336185 0.9066022283534738 0.2217999345447989
0.6612268751484943 0.6840609436432437 0.13367818953000618
1.0359344823705658 1.0145809712935316 -0.26841254580505297
-0.19885700638594686 -0.0018415526946221402 0.4361676646110988
-0.02298808743304815 0.23993556168680713 0.5551332678781322
-0.005439791518172291 0.017394276976576938 0.46701152286333947
0.3692678157038992 0.34791430462686496 0.06492078752828034
0.13447632694738645 -0.0018415526946221402 0.4361676646110988
0.31034524590028517 0.23993556168680713 0.5551332678781322
0.327893541815161 0.017394276976576938 0.46701152286333947
0.7026011490372325 0.34791430462686496 0.06492078752828034
0.4678096602807198 -0.0018415526946221402 0.4361676646110988
0.6436785792336185 0.23993556168680713 0.5551332678781322
0.6612268751484943 0.017394276976576938 0.46701152286333947
1.0359344823705658 0.34791430462686496 0.06492078752828034
-0.19885700638594686 0.3314917806387112 0.4361676646110988
-0.02298808743304815 0.5732688950201404 0.5551332678781322
-0.005439791518172291 0.35072761030991023 0.46701152286333947
0.3692678157038992 0.6812476379601984 0.06492078752828034
0.13447632694738645 0.3314917806387112 0.4361676646110988
0.31034524590028517 0.5732688950201404 0.5551332678781322
0.327893541815161 0.35072761030991023 0.46701152286333947
0.7026011490372325 0.6812476379601984 0.06492078752828034
0.4678096602807198 0.3314917806387112 0.4361676646110988
0.6436785792336185 0.5732688950201404 0.5551332678781322
0.6612268751484943 0.35072761030991023 0.46701152286333947
1.0359344823705658 0.6812476379601984 0.06492078752828034
-0.19885700638594686 0.6648251139720445 0.4361676646110988
-0.02298808743304815 0.9066022283534738 0.5551332678781322
-0.005439791518172291 0.6840609436432437 0.46701152286333947
0.3692678157038992 1.0145809712935316 0.06492078752828034
0.13447632694738645 0.6648251139720445 0.4361676646110988
0.31034524590028517 0.9066022283534738 0.5551332678781322
0.327893541815161 0.6840609436432437 0.46701152286333947
0.7026011490372325 1.0145809712935316 0.06492078752828034
0.4678096602807198 0.6648251139720445 0.4361676646110988
0.6436785792336185 0.9066022283534738 0.5551332678781322
0.6612268751484943 0.6840609436432437 0.46701152286333947
1.0359344823705658 1.0145809712935316 0.06492078752828034
-0.19885700638594686 -0.0018415526946221402 0.769500997944432
-0.02298808743304815 0.23993556168680713 0.8884666012114655
-0.005439791518172291 0.017394276976576938 0.8003448561966728
0.3692678157038992 0.34791430462686496 0.3982541208616137
0.13447632694738645 -0.0018415526946221402 0.769500997944432
0.31034524590028517 0.23993556168680713 0.8884666012114655
0.327893541815161 0.017394276976576938 0.8003448561966728
0.7026011490372325 0.34791430462686496 0.3982541208616137
0.4678096602807198 -0.0018415526946221402 0.769500997944432
0.6436785792336185 0.23993556168680713 0.8884666012114655
0.6612268751484943 0.017394276976576938 0.8003448561966728
1.0359344823705658 0.34791430462686496 0.3982541208616137
-0.19885700638594686 0.3314917806387112 0.769500997944432
-0.02298808743304815 0.5732688950201404 0.8884666012114655
-0.005439791518172291 0.35072761030991023 0.8003448561966728
0.3692678157038992 0.6812476379601984 0.3982541208616137
0.13447632694738645 0.3314917806387112 0.769500997944432
0.31034524590028517 0.5732688950201404 0.8884666012114655
0.327893541815161 0.35072761030991023 0.8003448561966728
0.7026011490372325 0.6812476379601984 0.3982541208616137
0.4678096602807198 0.3314917806387112 0.769500997944432
0.6436785792336185 0.5732688950201404 0.8884666012114655
0.6612268751484943 0.35072761030991023 0.8003448561966728
1.0359344823705658 0.6812476379601984 0.3982541208616137
-0.19885700638594686 0.6648251139720445 0.769500997944432
-0.02298808743304815 0.9066022283534738 0.8884666012114655
-0.005439791518172291 0.6840609436432437 0.8003448561966728
0.3692678157038992 1.0145809712935316 0.3982541208616137
0.13447632694738645 0.6648251139720445 0.769500997944432
0.31034524590028517 0.9066022283534738 0.8884666012114655
0.327893541815161 0.6840609436432437 0.8003448561966728
0.7026011490372325 1.0145809712935316 0.3982541208616137
0.4678096602807198 0.6648251139720445 0.769500997944432
0.6436785792336185 0.9066022283534738 0.8884666012114655
0.6612268751484943 0.6840609436432437 0.8003448561966728
1.0359344823705658 1.0145809712935316 0.3982541208616137
0.22042212348439963 0.18095453198716 0.10575896209245006
0.001570570763459167 0.08023015327855663 -0.23426778406936438
-0.09905301087566049 0.11129504882505453 0.37406802320056487
0.12285729933677692 0.12807656367675768 0.06284550908443946
0.553755456817733 0.18095453198716 0.10575896209245006
0.3349039040967925 0.08023015327855663 -0.23426778406936438
0.23428032245767283 0.11129504882505453 0.37406802320056487
0.45619063267011023 0.12807656367675768 0.06284550908443946
0.8870887901510663 0.18095453198716 0.10575896209245006
0.6682372374301259 0.08023015327855663 -0.23426778406936438
0.5676136557910061 0.11129504882505453 0.37406802320056487
0.7895239660034435 0.12807656367675768 0.06284550908443946
0.22042212348439963 0.5142878653204933 0.10575896209245006
0.001570570763459167 0.4135634866118899 -0.23426778406936438
-0.09905301087566049 0.44462838215838785 0.37406802320056487
0.12285729933677692 0.46140989701009105 0.06284550908443946
0.553755456817733 0.5142878653204933 0.10575896209245006
0.3349039040967925 0.4135634866118899 -0.23426778406936438
0.23428032245767283 0.44462838215838785 0.37406802320056487
0.45619063267011023 0.46140989701009105 0.06284550908443946
0.8870887901510663 0.5142878653204933 0.10575896209245006
0.6682372374301259 0.4135634866118899 -0.23426778406936438
0.5676136557910061 0.44462838215838785 0.37406802320056487
0.7895239660034435 0.46140989701009105 0.06284550908443946
0.22042212348439963 0.8476211986538266 0.10575896209245006
0.001570570763459167 0.7468968199452233 -0.23426778406936438
-0.09905301087566049 0.7779617154917211 0.37406802320056487
0.12285729933677692 0.7947432303434243 0.06284550908443946
0.553755456817733 0.8476211986538266 0.10575896209245006
0.3349039040967925 0.7468968199452233 -0.23426778406936438
0.23428032245767283 0.7779617154917211 0.37406802320056487
0.45619063267011023 0.7947432303434243 0.06284550908443946
0.8870887901510663 0.8476211986538266 0.10575896209245006
0.6682372374301259 0.7468968199452233 -0.23426778406936438
0.5676136557910061 0.7779617154917211 0.37406802320056487
0.7895239660034435 0.7947432303434243 0.06284550908443946
0.22042212348439963 0.18095453198716 0.43909229542578343
0.001570570763459167 0.08023015327855663 0.09906554926396893
-0.09905301087566049 0.11129504882505453 0.7074013565338981
0.12285729933677692 0.12807656367675768 0.3961788424177728
0.553755456817733 0.18095453198716 0.43909229542578343
0.3349039040967925 0.08023015327855663 0.09906554926396893
0.23428032245767283 0.11129504882505453 0.7074013565338981
0.45619063267011023 0.12807656367675768 0.3961788424177728
0.8870887901510663 0.18095453198716 0.43909229542578343
0.6682372374301259 0.08023015327855663 0.09906554926396893
0.5676136557910061 0.11129504882505453 0.7074013565338981
0.7895239660034435 0.12807656367675768 0.3961788424177728
0.22042212348439963 0.5142878653204933 0.43909229542578343
0.001570570763459167 0.4135634866118899 0.09906554926396893
-0.09905301087566049 0.44462838215838785 0.7074013565338981
0.12285729933677692 0.46140989701009105 0.3961788424177728
0.553755456817733 0.5142878653204933 0.43909229542578343
0.3349039040967925 0.4135634866118899 0.09906554926396893
0.23428032245767283 0.44462838215838785 0.7074013565338981
0.45619063267011023 0.46140989701009105 0.3961788424177728
0.8870887901510663 0.5142878653204933 0.43909229542578343
0.6682372374301259 0.4135634866118899 0.09906554926396893
0.5676136557910061 0.44462838215838785 0.7074013565338981
0.7895239660034435 0.46140989701009105 0.3961788424177728
0.22042212348439963 0.8476211986538266 0.43909229542578343
0.001570570763459167 0.7468968199452233 0.09906554926396893
-0.09905301087566049 0.7779617154917211 0.7074013565338981
0.12285729933677692 0.7947432303434243 0.3961788424177728
0.553755456817733 0.8476211986538266 0.43909229542578343
0.3349039040967925 0.7468968199452233 0.09906554926396893
0.23428032245767283 0.7779617154917211 0.7074013565338981
0.45619063267011023 0.7947432303434243 0.3961788424177728
0.8870887901510663 0.8476211986538266 0.43909229542578343
0.6682372374301259 0.7468968199452233 0.09906554926396893
0.5676136557910061 0.7779617154917211 0.7074013565338981
0.7895239660034435 0.7947432303434243 0.3961788424177728
0.22042212348439963 0.18095453198716 0.7724256287591167
0.001570570763459167 0.08023015327855663 0.43239888259730225
-0.09905301087566049 0.11129504882505453 1.0407346898672314
0.12285729933677692 0.12807656367675768 0.729512175751106
0.553755456817733 0.18095453198716 0.7724256287591167
0.3349039040967925 0.08023015327855663 0.43239888259730225
0.23428032245767283 0.11129504882505453 1.0407346898672314
0.45619063267011023 0.12807656367675768 0.729512175751106
0.8870887901510663 0.18095453198716 0.7724256287591167
0.6682372374301259 0.08023015327855663 0.43239888259730225
0.5676136557910061 0.11129504882505453 1.0407346898672314
0.7895239660034435 0.12807656367675768 0.729512175751106
0.22042212348439963 0.5142878653204933 0.7724256287591167
0.001570570763459167 0.4135634866118899 0.43239888259730225
-0.09905301087566049 0.44462838215838785 1.0407346898672314
0.12285729933677692 0.46140989701009105 0.729512175751106
0.553755456817733 0.5142878653204933 0.7724256287591167
0.3349039040967925 0.4135634866118899 0.43239888259730225
0.23428032245767283 0.44462838215838785 1.0407346898672314
0.45619063267011023 0.46140989701009105 0.729512175751106
0.8870887901510663 0.5142878653204933 0.7724256287591167
0.6682372374301259 0.4135634866118899 0.43239888259730225
0.5676136557910061 0.44462838215838785 1.0407346898672314
0.7895239660034435 0.46140989701009105 0.729512175751106
0.22042212348439963 0.8476211986538266 0.7724256287591167
0.001570570763459167 0.7468968199452233 0.43239888259730225
-0.09905301087566049 0.7779617154917211 1.0407346898672314
0.12285729933677692 0.7947432303434243 0.729512175751106
0.553755456817733 0.8476211986538266 0.7724256287591167
0.3349039040967925 0.7468968199452233 0.43239888259730225
0.23428032245767283 0.7779617154917211 1.0407346898672314
0.45619063267011023 0.7947432303434243 0.729512175751106
0.8870887901510663 0.8476211986538266 0.7724256287591167
0.6682372374301259 0.7468968199452233 0.43239888259730225
0.5676136557910061 0.7779617154917211 1.0407346898672314
0.7895239660034435 0.7947432303434243 0.729512175751106
