FCC BaO
5.61604
9.071147352221452 6.803360514166091 0.0
6.803360514166091 9.071147352221452 0.0
0.0 0.0 3.0
Ba O 
432 432 
Direct
0.0 0.0 0.0
0.0 0.08333333333333333 0.16666666666666666
0.08333333333333333 0.0 0.16666666666666666
0.08333333333333333 0.08333333333333333 0.0
0.16666666666666666 0.0 0.0
0.16666666666666666 0.08333333333333333 0.16666666666666666
0.25 0.0 0.16666666666666666
0.25 0.08333333333333333 0.0
0.3333333333333333 0.0 0.0
0.3333333333333333 0.08333333333333333 0.16666666666666666
0.41666666666666663 0.0 0.16666666666666666
0.41666666666666663 0.08333333333333333 0.0
0.5 0.0 0.0
0.5 0.08333333333333333 0.16666666666666666
0.5833333333333333 0.0 0.16666666666666666
0.5833333333333333 0.08333333333333333 0.0
0.6666666666666666 0.0 0.0
0.6666666666666666 0.08333333333333333 0.16666666666666666
0.75 0.0 0.16666666666666666
0.75 0.08333333333333333 0.0
0.8333333333333333 0.0 0.0
0.8333333333333333 0.08333333333333333 0.16666666666666666
0.9166666666666666 0.0 0.16666666666666666
0.9166666666666666 0.08333333333333333 0.0
0.0 0.16666666666666666 0.0
0.0 0.25 0.16666666666666666
0.08333333333333333 0.16666666666666666 0.16666666666666666
0.08333333333333333 0.25 0.0
0.16666666666666666 0.16666666666666666 0.0
0.16666666666666666 0.25 0.16666666666666666
0.25 0.16666666666666666 0.16666666666666666
0.25 0.25 0.0
0.3333333333333333 0.16666666666666666 0.0
0.3333333333333333 0.25 0.16666666666666666
0.41666666666666663 0.16666666666666666 0.16666666666666666
0.41666666666666663 0.25 0.0
0.5 0.16666666666666666 0.0
0.5 0.25 0.16666666666666666
0.5833333333333333 0.16666666666666666 0.16666666666666666
0.5833333333333333 0.25 0.0
0.6666666666666666 0.16666666666666666 0.0
0.6666666666666666 0.25 0.16666666666666666
0.75 0.16666666666666666 0.16666666666666666
0.75 0.25 0.0
0.8333333333333333 0.16666666666666666 0.0
0.8333333333333333 0.25 0.16666666666666666
0.9166666666666666 0.16666666666666666 0.16666666666666666
0.9166666666666666 0.25 0.0
0.0 0.3333333333333333 0.0
0.0 0.41666666666666663 0.16666666666666666
0.08333333333333333 0.3333333333333333 0.16666666666666666
0.08333333333333333 0.41666666666666663 0.0
0.16666666666666666 0.3333333333333333 0.0
0.16666666666666666 0.41666666666666663 0.16666666666666666
0.25 0.3333333333333333 0.16666666666666666
0.25 0.41666666666666663 0.0
0.3333333333333333 0.3333333333333333 0.0
0.3333333333333333 0.41666666666666663 0.16666666666666666
0.41666666666666663 0.3333333333333333 0.16666666666666666
0.41666666666666663 0.41666666666666663 0.0
0.5 0.3333333333333333 0.0
0.5 0.41666666666666663 0.16666666666666666
0.5833333333333333 0.3333333333333333 0.16666666666666666
0.5833333333333333 0.41666666666666663 0.0
0.6666666666666666 0.3333333333333333 0.0
0.6666666666666666 0.41666666666666663 0.16666666666666666
0.75 0.3333333333333333 0.16666666666666666
0.75 0.41666666666666663 0.0
0.8333333333333333 0.3333333333333333 0.0
0.8333333333333333 0.41666666666666663 0.16666666666666666
0.9166666666666666 0.3333333333333333 0.16666666666666666
0.9166666666666666 0.41666666666666663 0.0
0.0 0.5 0.0
0.0 0.5833333333333333 0.16666666666666666
0.08333333333333333 0.5 0.16666666666666666
0.08333333333333333 0.5833333333333333 0.0
0.16666666666666666 0.5 0.0
0.16666666666666666 0.5833333333333333 0.16666666666666666
0.25 0.5 0.16666666666666666
0.25 0.5833333333333333 0.0
0.3333333333333333 0.5 0.0
0.3333333333333333 0.5833333333333333 0.16666666666666666
0.41666666666666663 0.5 0.16666666666666666
0.41666666666666663 0.5833333333333333 0.0
0.5 0.5 0.0
0.5 0.5833333333333333 0.16666666666666666
0.5833333333333333 0.5 0.16666666666666666
0.5833333333333333 0.5833333333333333 0.0
0.6666666666666666 0.5 0.0
0.6666666666666666 0.5833333333333333 0.16666666666666666
0.75 0.5 0.16666666666666666
0.75 0.5833333333333333 0.0
0.8333333333333333 0.5 0.0
0.8333333333333333 0.5833333333333333 0.16666666666666666
0.9166666666666666 0.5 0.16666666666666666
0.9166666666666666 0.5833333333333333 0.0
0.0 0.6666666666666666 0.0
0.0 0.75 0.16666666666666666
0.08333333333333333 0.6666666666666666 0.16666666666666666
0.08333333333333333 0.75 0.0
0.16666666666666666 0.6666666666666666 0.0
0.16666666666666666 0.75 0.16666666666666666
0.25 0.6666666666666666 0.16666666666666666
0.25 0.75 0.0
0.3333333333333333 0.6666666666666666 0.0
0.3333333333333333 0.75 0.16666666666666666
0.41666666666666663 0.6666666666666666 0.16666666666666666
0.41666666666666663 0.75 0.0
0.5 0.6666666666666666 0.0
0.5 0.75 0.16666666666666666
0.5833333333333333 0.6666666666666666 0.16666666666666666
0.5833333333333333 0.75 0.0
0.6666666666666666 0.6666666666666666 0.0
0.6666666666666666 0.75 0.16666666666666666
0.75 0.6666666666666666 0.16666666666666666
0.75 0.75 0.0
0.8333333333333333 0.6666666666666666 0.0
0.8333333333333333 0.75 0.16666666666666666
0.9166666666666666 0.6666666666666666 0.16666666666666666
0.9166666666666666 0.75 0.0
0.0 0.8333333333333333 0.0
0.0 0.9166666666666666 0.16666666666666666
0.08333333333333333 0.8333333333333333 0.16666666666666666
0.08333333333333333 0.9166666666666666 0.0
0.16666666666666666 0.8333333333333333 0.0
0.16666666666666666 0.9166666666666666 0.16666666666666666
0.25 0.8333333333333333 0.16666666666666666
0.25 0.9166666666666666 0.0
0.3333333333333333 0.8333333333333333 0.0
0.3333333333333333 0.9166666666666666 0.16666666666666666
0.41666666666666663 0.8333333333333333 0.16666666666666666
0.41666666666666663 0.9166666666666666 0.0
0.5 0.8333333333333333 0.0
0.5 0.9166666666666666 0.16666666666666666
0.5833333333333333 0.8333333333333333 0.16666666666666666
0.5833333333333333 0.9166666666666666 0.0
0.6666666666666666 0.8333333333333333 0.0
0.6666666666666666 0.9166666666666666 0.16666666666666666
0.75 0.8333333333333333 0.16666666666666666
0.75 0.9166666666666666 0.0
0.8333333333333333 0.8333333333333333 0.0
0.8333333333333333 0.9166666666666666 0.16666666666666666
0.9166666666666666 0.8333333333333333 0.16666666666666666
0.9166666666666666 0.9166666666666666 0.0
0.0 0.0 0.3333333333333333
0.0 0.08333333333333333 0.5
0.08333333333333333 0.0 0.5
0.08333333333333333 0.08333333333333333 0.3333333333333333
0.16666666666666666 0.0 0.3333333333333333
0.16666666666666666 0.08333333333333333 0.5
0.25 0.0 0.5
0.25 0.08333333333333333 0.3333333333333333
0.3333333333333333 0.0 0.3333333333333333
0.3333333333333333 0.08333333333333333 0.5
0.41666666666666663 0.0 0.5
0.41666666666666663 0.08333333333333333 0.3333333333333333
0.5 0.0 0.3333333333333333
0.5 0.08333333333333333 0.5
0.5833333333333333 0.0 0.5
0.5833333333333333 0.08333333333333333 0.3333333333333333
0.6666666666666666 0.0 0.3333333333333333
0.6666666666666666 0.08333333333333333 0.5
0.75 0.0 0.5
0.75 0.08333333333333333 0.3333333333333333
0.8333333333333333 0.0 0.3333333333333333
0.8333333333333333 0.08333333333333333 0.5
0.9166666666666666 0.0 0.5
0.9166666666666666 0.08333333333333333 0.3333333333333333
0.0 0.16666666666666666 0.3333333333333333
0.0 0.25 0.5
0.08333333333333333 0.16666666666666666 0.5
0.08333333333333333 0.25 0.3333333333333333
0.16666666666666666 0.16666666666666666 0.3333333333333333
0.16666666666666666 0.25 0.5
0.25 0.16666666666666666 0.5
0.25 0.25 0.3333333333333333
0.3333333333333333 0.16666666666666666 0.3333333333333333
0.3333333333333333 0.25 0.5
0.41666666666666663 0.16666666666666666 0.5
0.41666666666666663 0.25 0.3333333333333333
0.5 0.16666666666666666 0.3333333333333333
0.5 0.25 0.5
0.5833333333333333 0.16666666666666666 0.5
0.5833333333333333 0.25 0.3333333333333333
0.6666666666666666 0.16666666666666666 0.3333333333333333
0.6666666666666666 0.25 0.5
0.75 0.16666666666666666 0.5
0.75 0.25 0.3333333333333333
0.8333333333333333 0.16666666666666666 0.3333333333333333
0.8333333333333333 0.25 0.5
0.9166666666666666 0.16666666666666666 0.5
0.9166666666666666 0.25 0.3333333333333333
0.0 0.3333333333333333 0.3333333333333333
0.0 0.41666666666666663 0.5
0.08333333333333333 0.3333333333333333 0.5
0.08333333333333333 0.41666666666666663 0.3333333333333333
0.16666666666666666 0.3333333333333333 0.3333333333333333
0.16666666666666666 0.41666666666666663 0.5
0.25 0.3333333333333333 0.5
0.25 0.41666666666666663 0.3333333333333333
0.3333333333333333 0.3333333333333333 0.3333333333333333
0.3333333333333333 0.41666666666666663 0.5
0.41666666666666663 0.3333333333333333 0.5
0.41666666666666663 0.41666666666666663 0.3333333333333333
0.5 0.3333333333333333 0.3333333333333333
0.5 0.41666666666666663 0.5
0.5833333333333333 0.3333333333333333 0.5
0.5833333333333333 0.41666666666666663 0.3333333333333333
0.6666666666666666 0.3333333333333333 0.3333333333333333
0.6666666666666666 0.41666666666666663 0.5
0.75 0.3333333333333333 0.5
0.75 0.41666666666666663 0.3333333333333333
0.8333333333333333 0.3333333333333333 0.3333333333333333
0.8333333333333333 0.41666666666666663 0.5
0.9166666666666666 0.3333333333333333 0.5
0.9166666666666666 0.41666666666666663 0.3333333333333333
0.0 0.5 0.3333333333333333
0.0 0.5833333333333333 0.5
0.08333333333333333 0.5 0.5
0.08333333333333333 0.5833333333333333 0.3333333333333333
0.16666666666666666 0.5 0.3333333333333333
0.16666666666666666 0.5833333333333333 0.5
0.25 0.5 0.5
0.25 0.5833333333333333 0.3333333333333333
0.3333333333333333 0.5 0.3333333333333333
0.3333333333333333 0.5833333333333333 0.5
0.41666666666666663 0.5 0.5
0.41666666666666663 0.5833333333333333 0.3333333333333333
0.5 0.5 0.3333333333333333
0.5 0.5833333333333333 0.5
0.5833333333333333 0.5 0.5
0.5833333333333333 0.5833333333333333 0.3333333333333333
0.6666666666666666 0.5 0.3333333333333333
0.6666666666666666 0.5833333333333333 0.5
0.75 0.5 0.5
0.75 0.5833333333333333 0.3333333333333333
0.8333333333333333 0.5 0.3333333333333333
0.8333333333333333 0.5833333333333333 0.5
0.9166666666666666 0.5 0.5
0.9166666666666666 0.5833333333333333 0.3333333333333333
0.0 0.6666666666666666 0.3333333333333333
0.0 0.75 0.5
0.08333333333333333 0.6666666666666666 0.5
0.08333333333333333 0.75 0.3333333333333333
0.16666666666666666 0.6666666666666666 0.3333333333333333
0.16666666666666666 0.75 0.5
0.25 0.6666666666666666 0.5
0.25 0.75 0.3333333333333333
0.3333333333333333 0.6666666666666666 0.3333333333333333
0.3333333333333333 0.75 0.5
0.41666666666666663 0.6666666666666666 0.5
0.41666666666666663 0.75 0.3333333333333333
0.5 0.6666666666666666 0.3333333333333333
0.5 0.75 0.5
0.5833333333333333 0.6666666666666666 0.5
0.5833333333333333 0.75 0.3333333333333333
0.6666666666666666 0.6666666666666666 0.3333333333333333
0.6666666666666666 0.75 0.5
0.75 0.6666666666666666 0.5
0.75 0.75 0.3333333333333333
0.8333333333333333 0.6666666666666666 0.3333333333333333
0.8333333333333333 0.75 0.5
0.9166666666666666 0.6666666666666666 0.5
0.9166666666666666 0.75 0.3333333333333333
0.0 0.8333333333333333 0.3333333333333333
0.0 0.9166666666666666 0.5
0.08333333333333333 0.8333333333333333 0.5
0.08333333333333333 0.9166666666666666 0.3333333333333333
0.16666666666666666 0.8333333333333333 0.3333333333333333
0.16666666666666666 0.9166666666666666 0.5
0.25 0.8333333333333333 0.5
0.25 0.9166666666666666 0.3333333333333333
0.3333333333333333 0.8333333333333333 0.3333333333333333
0.3333333333333333 0.9166666666666666 0.5
0.41666666666666663 0.8333333333333333 0.5
0.41666666666666663 0.9166666666666666 0.3333333333333333
0.5 0.8333333333333333 0.3333333333333333
0.5 0.9166666666666666 0.5
0.5833333333333333 0.8333333333333333 0.5
0.5833333333333333 0.9166666666666666 0.3333333333333333
0.6666666666666666 0.8333333333333333 0.3333333333333333
0.6666666666666666 0.9166666666666666 0.5
0.75 0.8333333333333333 0.5
0.75 0.9166666666666666 0.3333333333333333
0.8333333333333333 0.8333333333333333 0.3333333333333333
0.8333333333333333 0.9166666666666666 0.5
0.9166666666666666 0.8333333333333333 0.5
0.9166666666666666 0.9166666666666666 0.3333333333333333
0.0 0.0 0.6666666666666666
0.0 0.08333333333333333 0.8333333333333333
0.08333333333333333 0.0 0.8333333333333333
0.08333333333333333 0.08333333333333333 0.6666666666666666
0.16666666666666666 0.0 0.6666666666666666
0.16666666666666666 0.08333333333333333 0.8333333333333333
0.25 0.0 0.8333333333333333
0.25 0.08333333333333333 0.6666666666666666
0.3333333333333333 0.0 0.6666666666666666
0.3333333333333333 0.08333333333333333 0.8333333333333333
0.41666666666666663 0.0 0.8333333333333333
0.41666666666666663 0.08333333333333333 0.6666666666666666
0.5 0.0 0.6666666666666666
0.5 0.08333333333333333 0.8333333333333333
0.5833333333333333 0.0 0.8333333333333333
0.5833333333333333 0.08333333333333333 0.6666666666666666
0.6666666666666666 0.0 0.6666666666666666
0.6666666666666666 0.08333333333333333 0.8333333333333333
0.75 0.0 0.8333333333333333
0.75 0.08333333333333333 0.6666666666666666
0.8333333333333333 0.0 0.6666666666666666
0.8333333333333333 0.08333333333333333 0.8333333333333333
0.9166666666666666 0.0 0.8333333333333333
0.9166666666666666 0.08333333333333333 0.6666666666666666
0.0 0.16666666666666666 0.6666666666666666
0.0 0.25 0.8333333333333333
0.08333333333333333 0.16666666666666666 0.8333333333333333
0.08333333333333333 0.25 0.6666666666666666
0.16666666666666666 0.16666666666666666 0.6666666666666666
0.16666666666666666 0.25 0.8333333333333333
0.25 0.16666666666666666 0.8333333333333333
0.25 0.25 0.6666666666666666
0.3333333333333333 0.16666666666666666 0.6666666666666666
0.3333333333333333 0.25 0.8333333333333333
0.41666666666666663 0.16666666666666666 0.8333333333333333
0.41666666666666663 0.25 0.6666666666666666
0.5 0.16666666666666666 0.6666666666666666
0.5 0.25 0.8333333333333333
0.5833333333333333 0.16666666666666666 0.8333333333333333
0.5833333333333333 0.25 0.6666666666666666
0.6666666666666666 0.16666666666666666 0.6666666666666666
0.6666666666666666 0.25 0.8333333333333333
0.75 0.16666666666666666 0.8333333333333333
0.75 0.25 0.6666666666666666
0.8333333333333333 0.16666666666666666 0.6666666666666666
0.8333333333333333 0.25 0.8333333333333333
0.9166666666666666 0.16666666666666666 0.8333333333333333
0.9166666666666666 0.25 0.6666666666666666
0.0 0.3333333333333333 0.6666666666666666
0.0 0.41666666666666663 0.8333333333333333
0.08333333333333333 0.3333333333333333 0.8333333333333333
0.08333333333333333 0.41666666666666663 0.6666666666666666
0.16666666666666666 0.3333333333333333 0.6666666666666666
0.16666666666666666 0.41666666666666663 0.8333333333333333
0.25 0.3333333333333333 0.8333333333333333
0.25 0.41666666666666663 0.6666666666666666
0.3333333333333333 0.3333333333333333 0.6666666666666666
0.3333333333333333 0.41666666666666663 0.8333333333333333
0.41666666666666663 0.3333333333333333 0.8333333333333333
0.41666666666666663 0.41666666666666663 0.6666666666666666
0.5 0.3333333333333333 0.6666666666666666
0.5 0.41666666666666663 0.8333333333333333
0.5833333333333333 0.3333333333333333 0.8333333333333333
0.5833333333333333 0.41666666666666663 0.6666666666666666
0.6666666666666666 0.3333333333333333 0.6666666666666666
0.6666666666666666 0.41666666666666663 0.8333333333333333
0.75 0.3333333333333333 0.8333333333333333
0.75 0.41666666666666663 0.6666666666666666
0.8333333333333333 0.3333333333333333 0.6666666666666666
0.8333333333333333 0.41666666666666663 0.8333333333333333
0.9166666666666666 0.3333333333333333 0.8333333333333333
0.9166666666666666 0.41666666666666663 0.6666666666666666
0.0 0.5 0.6666666666666666
0.0 0.5833333333333333 0.8333333333333333
0.08333333333333333 0.5 0.8333333333333333
0.08333333333333333 0.5833333333333333 0.6666666666666666
0.16666666666666666 0.5 0.6666666666666666
0.16666666666666666 0.5833333333333333 0.8333333333333333
0.25 0.5 0.8333333333333333
0.25 0.5833333333333333 0.6666666666666666
0.3333333333333333 0.5 0.6666666666666666
0.3333333333333333 0.5833333333333333 0.8333333333333333
0.41666666666666663 0.5 0.8333333333333333
0.41666666666666663 0.5833333333333333 0.6666666666666666
0.5 0.5 0.6666666666666666
0.5 0.5833333333333333 0.8333333333333333
0.5833333333333333 0.5 0.8333333333333333
0.5833333333333333 0.5833333333333333 0.6666666666666666
0.6666666666666666 0.5 0.6666666666666666
0.6666666666666666 0.5833333333333333 0.8333333333333333
0.75 0.5 0.8333333333333333
0.75 0.5833333333333333 0.6666666666666666
0.8333333333333333 0.5 0.6666666666666666
0.8333333333333333 0.5833333333333333 0.8333333333333333
0.9166666666666666 0.5 0.8333333333333333
0.9166666666666666 0.5833333333333333 0.6666666666666666
0.0 0.6666666666666666 0.6666666666666666
0.0 0.75 0.8333333333333333
0.08333333333333333 0.6666666666666666 0.8333333333333333
0.08333333333333333 0.75 0.6666666666666666
0.16666666666666666 0.6666666666666666 0.6666666666666666
0.16666666666666666 0.75 0.8333333333333333
0.25 0.6666666666666666 0.8333333333333333
0.25 0.75 0.6666666666666666
0.3333333333333333 0.6666666666666666 0.6666666666666666
0.3333333333333333 0.75 0.8333333333333333
0.41666666666666663 0.6666666666666666 0.8333333333333333
0.41666666666666663 0.75 0.6666666666666666
0.5 0.6666666666666666 0.6666666666666666
0.5 0.75 0.8333333333333333
0.5833333333333333 0.6666666666666666 0.8333333333333333
0.5833333333333333 0.75 0.6666666666666666
0.6666666666666666 0.6666666666666666 0.6666666666666666
0.6666666666666666 0.75 0.8333333333333333
0.75 0.6666666666666666 0.8333333333333333
0.75 0.75 0.6666666666666666
0.8333333333333333 0.6666666666666666 0.6666666666666666
0.8333333333333333 0.75 0.8333333333333333
0.9166666666666666 0.6666666666666666 0.8333333333333333
0.9166666666666666 0.75 0.6666666666666666
0.0 0.8333333333333333 0.6666666666666666
0.0 0.9166666666666666 0.8333333333333333
0.08333333333333333 0.8333333333333333 0.8333333333333333
0.08333333333333333 0.9166666666666666 0.6666666666666666
0.16666666666666666 0.8333333333333333 0.6666666666666666
0.16666666666666666 0.9166666666666666 0.8333333333333333
0.25 0.8333333333333333 0.8333333333333333
0.25 0.9166666666666666 0.6666666666666666
0.3333333333333333 0.8333333333333333 0.6666666666666666
0.3333333333333333 0.9166666666666666 0.8333333333333333
0.41666666666666663 0.8333333333333333 0.8333333333333333
0.41666666666666663 0.9166666666666666 0.6666666666666666
0.5 0.8333333333333333 0.6666666666666666
0.5 0.9166666666666666 0.8333333333333333
0.5833333333333333 0.8333333333333333 0.8333333333333333
0.5833333333333333 0.9166666666666666 0.6666666666666666
0.6666666666666666 0.8333333333333333 0.6666666666666666
0.6666666666666666 0.9166666666666666 0.8333333333333333
0.75 0.8333333333333333 0.8333333333333333
0.75 0.9166666666666666 0.6666666666666666
0.8333333333333333 0.8333333333333333 0.6666666666666666
0.8333333333333333 0.9166666666666666 0.8333333333333333
0.9166666666666666 0.8333333333333333 0.8333333333333333
0.9166666666666666 0.9166666666666666 0.6666666666666666
0.08333333333333333 0.0 0.0
0.0 0.08333333333333333 0.0
0.0 0.0 0.16666666666666666
0.08333333333333333 0.08333333333333333 0.16666666666666666
0.25 0.0 0.0
0.16666666666666666 0.08333333333333333 0.0
0.16666666666666666 0.0 0.16666666666666666
0.25 0.08333333333333333 0.16666666666666666
0.41666666666666663 0.0 0.0
0.3333333333333333 0.08333333333333333 0.0
0.3333333333333333 0.0 0.16666666666666666
0.41666666666666663 0.08333333333333333 0.16666666666666666
0.5833333333333333 0.0 0.0
0.5 0.08333333333333333 0.0
0.5 0.0 0.16666666666666666
0.5833333333333333 0.08333333333333333 0.16666666666666666
0.75 0.0 0.0
0.6666666666666666 0.08333333333333333 0.0
0.6666666666666666 0.0 0.16666666666666666
0.75 0.08333333333333333 0.16666666666666666
0.9166666666666666 0.0 0.0
0.8333333333333333 0.08333333333333333 0.0
0.8333333333333333 0.0 0.16666666666666666
0.9166666666666666 0.08333333333333333 0.16666666666666666
0.08333333333333333 0.16666666666666666 0.0
0.0 0.25 0.0
0.0 0.16666666666666666 0.16666666666666666
0.08333333333333333 0.25 0.16666666666666666
0.25 0.16666666666666666 0.0
0.16666666666666666 0.25 0.0
0.16666666666666666 0.16666666666666666 0.16666666666666666
0.25 0.25 0.16666666666666666
0.41666666666666663 0.16666666666666666 0.0
0.3333333333333333 0.25 0.0
0.3333333333333333 0.16666666666666666 0.16666666666666666
0.41666666666666663 0.25 0.16666666666666666
0.5833333333333333 0.16666666666666666 0.0
0.5 0.25 0.0
0.5 0.16666666666666666 0.16666666666666666
0.5833333333333333 0.25 0.16666666666666666
0.75 0.16666666666666666 0.0
0.6666666666666666 0.25 0.0
0.6666666666666666 0.16666666666666666 0.16666666666666666
0.75 0.25 0.16666666666666666
0.9166666666666666 0.16666666666666666 0.0
0.8333333333333333 0.25 0.0
0.8333333333333333 0.16666666666666666 0.16666666666666666
0.9166666666666666 0.25 0.16666666666666666
0.08333333333333333 0.3333333333333333 0.0
0.0 0.41666666666666663 0.0
0.0 0.3333333333333333 0.16666666666666666
0.08333333333333333 0.41666666666666663 0.16666666666666666
0.25 0.3333333333333333 0.0
0.16666666666666666 0.41666666666666663 0.0
0.16666666666666666 0.3333333333333333 0.16666666666666666
0.25 0.41666666666666663 0.16666666666666666
0.41666666666666663 0.3333333333333333 0.0
0.3333333333333333 0.41666666666666663 0.0
0.3333333333333333 0.3333333333333333 0.16666666666666666
0.41666666666666663 0.41666666666666663 0.16666666666666666
0.5833333333333333 0.3333333333333333 0.0
0.5 0.41666666666666663 0.0
0.5 0.3333333333333333 0.16666666666666666
0.5833333333333333 0.41666666666666663 0.16666666666666666
0.75 0.3333333333333333 0.0
0.6666666666666666 0.41666666666666663 0.0
0.6666666666666666 0.3333333333333333 0.16666666666666666
0.75 0.41666666666666663 0.16666666666666666
0.9166666666666666 0.3333333333333333 0.0
0.8333333333333333 0.41666666666666663 0.0
0.8333333333333333 0.3333333333333333 0.16666666666666666
0.9166666666666666 0.41666666666666663 0.16666666666666666
0.08333333333333333 0.5 0.0
0.0 0.5833333333333333 0.0
0.0 0.5 0.16666666666666666
0.08333333333333333 0.5833333333333333 0.16666666666666666
0.25 0.5 0.0
0.16666666666666666 0.5833333333333333 0.0
0.16666666666666666 0.5 0.16666666666666666
0.25 0.5833333333333333 0.16666666666666666
0.41666666666666663 0.5 0.0
0.3333333333333333 0.5833333333333333 0.0
0.3333333333333333 0.5 0.16666666666666666
0.41666666666666663 0.5833333333333333 0.16666666666666666
0.5833333333333333 0.5 0.0
0.5 0.5833333333333333 0.0
0.5 0.5 0.16666666666666666
0.5833333333333333 0.5833333333333333 0.16666666666666666
0.75 0.5 0.0
0.6666666666666666 0.5833333333333333 0.0
0.6666666666666666 0.5 0.16666666666666666
0.75 0.5833333333333333 0.16666666666666666
0.9166666666666666 0.5 0.0
0.8333333333333333 0.5833333333333333 0.0
0.8333333333333333 0.5 0.16666666666666666
0.9166666666666666 0.5833333333333333 0.16666666666666666
0.08333333333333333 0.6666666666666666 0.0
0.0 0.75 0.0
0.0 0.6666666666666666 0.16666666666666666
0.08333333333333333 0.75 0.16666666666666666
0.25 0.6666666666666666 0.0
0.16666666666666666 0.75 0.0
0.16666666666666666 0.6666666666666666 0.16666666666666666
0.25 0.75 0.16666666666666666
0.41666666666666663 0.6666666666666666 0.0
0.3333333333333333 0.75 0.0
0.3333333333333333 0.6666666666666666 0.16666666666666666
0.41666666666666663 0.75 0.16666666666666666
0.5833333333333333 0.6666666666666666 0.0
0.5 0.75 0.0
0.5 0.6666666666666666 0.16666666666666666
0.5833333333333333 0.75 0.16666666666666666
0.75 0.6666666666666666 0.0
0.6666666666666666 0.75 0.0
0.6666666666666666 0.6666666666666666 0.16666666666666666
0.75 0.75 0.16666666666666666
0.9166666666666666 0.6666666666666666 0.0
0.8333333333333333 0.75 0.0
0.8333333333333333 0.6666666666666666 0.16666666666666666
0.9166666666666666 0.75 0.16666666666666666
0.08333333333333333 0.8333333333333333 0.0
0.0 0.9166666666666666 0.0
0.0 0.8333333333333333 0.16666666666666666
0.08333333333333333 0.9166666666666666 0.16666666666666666
0.25 0.8333333333333333 0.0
0.16666666666666666 0.9166666666666666 0.0
0.16666666666666666 0.8333333333333333 0.16666666666666666
0.25 0.9166666666666666 0.16666666666666666
0.41666666666666663 0.8333333333333333 0.0
0.3333333333333333 0.9166666666666666 0.0
0.3333333333333333 0.8333333333333333 0.16666666666666666
0.41666666666666663 0.9166666666666666 0.16666666666666666
0.5833333333333333 0.8333333333333333 0.0
0.5 0.9166666666666666 0.0
0.5 0.8333333333333333 0.16666666666666666
0.5833333333333333 0.9166666666666666 0.16666666666666666
0.75 0.8333333333333333 0.0
0.6666666666666666 0.9166666666666666 0.0
0.6666666666666666 0.8333333333333333 0.16666666666666666
0.75 0.9166666666666666 0.16666666666666666
0.9166666666666666 0.8333333333333333 0.0
0.8333333333333333 0.9166666666666666 0.0
0.8333333333333333 0.8333333333333333 0.16666666666666666
0.9166666666666666 0.9166666666666666 0.16666666666666666
0.08333333333333333 0.0 0.3333333333333333
0.0 0.08333333333333333 0.3333333333333333
0.0 0.0 0.5
0.08333333333333333 0.08333333333333333 0.5
0.25 0.0 0.3333333333333333
0.16666666666666666 0.08333333333333333 0.3333333333333333
0.16666666666666666 0.0 0.5
0.25 0.08333333333333333 0.5
0.41666666666666663 0.0 0.3333333333333333
0.3333333333333333 0.08333333333333333 0.3333333333333333
0.3333333333333333 0.0 0.5
0.41666666666666663 0.08333333333333333 0.5
0.5833333333333333 0.0 0.3333333333333333
0.5 0.08333333333333333 0.3333333333333333
0.5 0.0 0.5
0.5833333333333333 0.08333333333333333 0.5
0.75 0.0 0.3333333333333333
0.6666666666666666 0.08333333333333333 0.3333333333333333
0.6666666666666666 0.0 0.5
0.75 0.08333333333333333 0.5
0.9166666666666666 0.0 0.3333333333333333
0.8333333333333333 0.08333333333333333 0.3333333333333333
0.8333333333333333 0.0 0.5
0.9166666666666666 0.08333333333333333 0.5
0.08333333333333333 0.16666666666666666 0.3333333333333333
0.0 0.25 0.3333333333333333
0.0 0.16666666666666666 0.5
0.08333333333333333 0.25 0.5
0.25 0.16666666666666666 0.3333333333333333
0.16666666666666666 0.25 0.3333333333333333
0.16666666666666666 0.16666666666666666 0.5
0.25 0.25 0.5
0.41666666666666663 0.16666666666666666 0.3333333333333333
0.3333333333333333 0.25 0.3333333333333333
0.3333333333333333 0.16666666666666666 0.5
0.41666666666666663 0.25 0.5
0.5833333333333333 0.16666666666666666 0.3333333333333333
0.5 0.25 0.3333333333333333
0.5 0.16666666666666666 0.5
0.5833333333333333 0.25 0.5
0.75 0.16666666666666666 0.3333333333333333
0.6666666666666666 0.25 0.3333333333333333
0.6666666666666666 0.16666666666666666 0.5
0.75 0.25 0.5
0.9166666666666666 0.16666666666666666 0.3333333333333333
0.8333333333333333 0.25 0.3333333333333333
0.8333333333333333 0.16666666666666666 0.5
0.9166666666666666 0.25 0.5
0.08333333333333333 0.3333333333333333 0.3333333333333333
0.0 0.41666666666666663 0.3333333333333333
0.0 0.3333333333333333 0.5
0.08333333333333333 0.41666666666666663 0.5
0.25 0.3333333333333333 0.3333333333333333
0.16666666666666666 0.41666666666666663 0.3333333333333333
0.16666666666666666 0.3333333333333333 0.5
0.25 0.41666666666666663 0.5
0.41666666666666663 0.3333333333333333 0.3333333333333333
0.3333333333333333 0.41666666666666663 0.3333333333333333
0.3333333333333333 0.3333333333333333 0.5
0.41666666666666663 0.41666666666666663 0.5
0.5833333333333333 0.3333333333333333 0.3333333333333333
0.5 0.41666666666666663 0.3333333333333333
0.5 0.3333333333333333 0.5
0.5833333333333333 0.41666666666666663 0.5
0.75 0.3333333333333333 0.3333333333333333
0.6666666666666666 0.41666666666666663 0.3333333333333333
0.6666666666666666 0.3333333333333333 0.5
0.75 0.41666666666666663 0.5
0.9166666666666666 0.3333333333333333 0.3333333333333333
0.8333333333333333 0.41666666666666663 0.3333333333333333
0.8333333333333333 0.3333333333333333 0.5
0.9166666666666666 0.41666666666666663 0.5
0.08333333333333333 0.5 0.3333333333333333
0.0 0.5833333333333333 0.3333333333333333
0.0 0.5 0.5
0.08333333333333333 0.5833333333333333 0.5
0.25 0.5 0.3333333333333333
0.16666666666666666 0.5833333333333333 0.3333333333333333
0.16666666666666666 0.5 0.5
0.25 0.5833333333333333 0.5
0.41666666666666663 0.5 0.3333333333333333
0.3333333333333333 0.5833333333333333 0.3333333333333333
0.3333333333333333 0.5 0.5
0.41666666666666663 0.5833333333333333 0.5
0.5833333333333333 0.5 0.3333333333333333
0.5 0.5833333333333333 0.3333333333333333
0.5 0.5 0.5
0.5833333333333333 0.5833333333333333 0.5
0.75 0.5 0.3333333333333333
0.6666666666666666 0.5833333333333333 0.3333333333333333
0.6666666666666666 0.5 0.5
0.75 0.5833333333333333 0.5
0.9166666666666666 0.5 0.3333333333333333
0.8333333333333333 0.5833333333333333 0.3333333333333333
0.8333333333333333 0.5 0.5
0.9166666666666666 0.5833333333333333 0.5
0.08333333333333333 0.6666666666666666 0.3333333333333333
0.0 0.75 0.3333333333333333
0.0 0.6666666666666666 0.5
0.08333333333333333 0.75 0.5
0.25 0.6666666666666666 0.3333333333333333
0.16666666666666666 0.75 0.3333333333333333
0.16666666666666666 0.6666666666666666 0.5
0.25 0.75 0.5
0.41666666666666663 0.6666666666666666 0.3333333333333333
0.3333333333333333 0.75 0.3333333333333333
0.3333333333333333 0.6666666666666666 0.5
0.41666666666666663 0.75 0.5
0.5833333333333333 0.6666666666666666 0.3333333333333333
0.5 0.75 0.3333333333333333
0.5 0.6666666666666666 0.5
0.5833333333333333 0.75 0.5
0.75 0.6666666666666666 0.3333333333333333
0.6666666666666666 0.75 0.3333333333333333
0.6666666666666666 0.6666666666666666 0.5
0.75 0.75 0.5
0.9166666666666666 0.6666666666666666 0.3333333333333333
0.8333333333333333 0.75 0.3333333333333333
0.8333333333333333 0.6666666666666666 0.5
0.9166666666666666 0.75 0.5
0.08333333333333333 0.8333333333333333 0.3333333333333333
0.0 0.9166666666666666 0.3333333333333333
0.0 0.8333333333333333 0.5
0.08333333333333333 0.9166666666666666 0.5
0.25 0.8333333333333333 0.3333333333333333
0.16666666666666666 0.9166666666666666 0.3333333333333333
0.16666666666666666 0.8333333333333333 0.5
0.25 0.9166666666666666 0.5
0.41666666666666663 0.8333333333333333 0.3333333333333333
0.3333333333333333 0.9166666666666666 0.3333333333333333
0.3333333333333333 0.8333333333333333 0.5
0.41666666666666663 0.9166666666666666 0.5
0.5833333333333333 0.8333333333333333 0.3333333333333333
0.5 0.9166666666666666 0.3333333333333333
0.5 0.8333333333333333 0.5
0.5833333333333333 0.9166666666666666 0.5
0.75 0.8333333333333333 0.3333333333333333
0.6666666666666666 0.9166666666666666 0.3333333333333333
0.6666666666666666 0.8333333333333333 0.5
0.75 0.9166666666666666 0.5
0.9166666666666666 0.8333333333333333 0.3333333333333333
0.8333333333333333 0.9166666666666666 0.3333333333333333
0.8333333333333333 0.8333333333333333 0.5
0.9166666666666666 0.9166666666666666 0.5
0.08333333333333333 0.0 0.6666666666666666
0.0 0.08333333333333333 0.6666666666666666
0.0 0.0 0.8333333333333333
0.08333333333333333 0.08333333333333333 0.8333333333333333
0.25 0.0 0.6666666666666666
0.16666666666666666 0.08333333333333333 0.6666666666666666
0.16666666666666666 0.0 0.8333333333333333
0.25 0.08333333333333333 0.8333333333333333
0.41666666666666663 0.0 0.6666666666666666
0.3333333333333333 0.08333333333333333 0.6666666666666666
0.3333333333333333 0.0 0.8333333333333333
0.41666666666666663 0.08333333333333333 0.8333333333333333
0.5833333333333333 0.0 0.6666666666666666
0.5 0.08333333333333333 0.6666666666666666
0.5 0.0 0.8333333333333333
0.5833333333333333 0.08333333333333333 0.8333333333333333
0.75 0.0 0.6666666666666666
0.6666666666666666 0.08333333333333333 0.6666666666666666
0.6666666666666666 0.0 0.8333333333333333
0.75 0.08333333333333333 0.8333333333333333
0.9166666666666666 0.0 0.6666666666666666
0.8333333333333333 0.08333333333333333 0.6666666666666666
0.8333333333333333 0.0 0.8333333333333333
0.9166666666666666 0.08333333333333333 0.8333333333333333
0.08333333333333333 0.16666666666666666 0.6666666666666666
0.0 0.25 0.6666666666666666
0.0 0.16666666666666666 0.8333333333333333
0.08333333333333333 0.25 0.8333333333333333
0.25 0.16666666666666666 0.6666666666666666
0.16666666666666666 0.25 0.6666666666666666
0.16666666666666666 0.16666666666666666 0.8333333333333333
0.25 0.25 0.8333333333333333
0.41666666666666663 0.16666666666666666 0.6666666666666666
0.3333333333333333 0.25 0.6666666666666666
0.3333333333333333 0.16666666666666666 0.8333333333333333
0.41666666666666663 0.25 0.8333333333333333
0.5833333333333333 0.16666666666666666 0.6666666666666666
0.5 0.25 0.6666666666666666
0.5 0.16666666666666666 0.8333333333333333
0.5833333333333333 0.25 0.8333333333333333
0.75 0.16666666666666666 0.6666666666666666
0.6666666666666666 0.25 0.6666666666666666
0.6666666666666666 0.16666666666666666 0.8333333333333333
0.75 0.25 0.8333333333333333
0.9166666666666666 0.16666666666666666 0.6666666666666666
0.8333333333333333 0.25 0.6666666666666666
0.8333333333333333 0.16666666666666666 0.8333333333333333
0.9166666666666666 0.25 0.8333333333333333
0.08333333333333333 0.3333333333333333 0.6666666666666666
0.0 0.41666666666666663 0.6666666666666666
0.0 0.3333333333333333 0.8333333333333333
0.08333333333333333 0.41666666666666663 0.8333333333333333
0.25 0.3333333333333333 0.6666666666666666
0.16666666666666666 0.41666666666666663 0.6666666666666666
0.16666666666666666 0.3333333333333333 0.8333333333333333
0.25 0.41666666666666663 0.8333333333333333
0.41666666666666663 0.3333333333333333 0.6666666666666666
0.3333333333333333 0.41666666666666663 0.6666666666666666
0.3333333333333333 0.3333333333333333 0.8333333333333333
0.41666666666666663 0.41666666666666663 0.8333333333333333
0.5833333333333333 0.3333333333333333 0.6666666666666666
0.5 0.41666666666666663 0.6666666666666666
0.5 0.3333333333333333 0.8333333333333333
0.5833333333333333 0.41666666666666663 0.8333333333333333
0.75 0.3333333333333333 0.6666666666666666
0.6666666666666666 0.41666666666666663 0.6666666666666666
0.6666666666666666 0.3333333333333333 0.8333333333333333
0.75 0.41666666666666663 0.8333333333333333
0.9166666666666666 0.3333333333333333 0.6666666666666666
0.8333333333333333 0.41666666666666663 0.6666666666666666
0.8333333333333333 0.3333333333333333 0.8333333333333333
0.9166666666666666 0.41666666666666663 0.8333333333333333
0.08333333333333333 0.5 0.6666666666666666
0.0 0.5833333333333333 0.6666666666666666
0.0 0.5 0.8333333333333333
0.08333333333333333 0.5833333333333333 0.8333333333333333
0.25 0.5 0.6666666666666666
0.16666666666666666 0.5833333333333333 0.6666666666666666
0.16666666666666666 0.5 0.8333333333333333
0.25 0.5833333333333333 0.8333333333333333
0.41666666666666663 0.5 0.6666666666666666
0.3333333333333333 0.5833333333333333 0.6666666666666666
0.3333333333333333 0.5 0.8333333333333333
0.41666666666666663 0.5833333333333333 0.8333333333333333
0.5833333333333333 0.5 0.6666666666666666
0.5 0.5833333333333333 0.6666666666666666
0.5 0.5 0.8333333333333333
0.5833333333333333 0.5833333333333333 0.8333333333333333
0.75 0.5 0.6666666666666666
0.6666666666666666 0.5833333333333333 0.6666666666666666
0.6666666666666666 0.5 0.8333333333333333
0.75 0.5833333333333333 0.8333333333333333
0.9166666666666666 0.5 0.6666666666666666
0.8333333333333333 0.5833333333333333 0.6666666666666666
0.8333333333333333 0.5 0.8333333333333333
0.9166666666666666 0.5833333333333333 0.8333333333333333
0.08333333333333333 0.6666666666666666 0.6666666666666666
0.0 0.75 0.6666666666666666
0.0 0.6666666666666666 0.8333333333333333
0.08333333333333333 0.75 0.8333333333333333
0.25 0.6666666666666666 0.6666666666666666
0.16666666666666666 0.75 0.6666666666666666
0.16666666666666666 0.6666666666666666 0.8333333333333333
0.25 0.75 0.8333333333333333
0.41666666666666663 0.6666666666666666 0.6666666666666666
0.3333333333333333 0.75 0.6666666666666666
0.3333333333333333 0.6666666666666666 0.8333333333333333
0.41666666666666663 0.75 0.8333333333333333
0.5833333333333333 0.6666666666666666 0.6666666666666666
0.5 0.75 0.6666666666666666
0.5 0.6666666666666666 0.8333333333333333
0.5833333333333333 0.75 0.8333333333333333
0.75 0.6666666666666666 0.6666666666666666
0.6666666666666666 0.75 0.6666666666666666
0.6666666666666666 0.6666666666666666 0.8333333333333333
0.75 0.75 0.8333333333333333
0.9166666666666666 0.6666666666666666 0.6666666666666666
0.8333333333333333 0.75 0.6666666666666666
0.8333333333333333 0.6666666666666666 0.8333333333333333
0.9166666666666666 0.75 0.8333333333333333
0.08333333333333333 0.8333333333333333 0.6666666666666666
0.0 0.9166666666666666 0.6666666666666666
0.0 0.8333333333333333 0.8333333333333333
0.08333333333333333 0.9166666666666666 0.8333333333333333
0.25 0.8333333333333333 0.6666666666666666
0.16666666666666666 0.9166666666666666 0.6666666666666666
0.16666666666666666 0.8333333333333333 0.8333333333333333
0.25 0.9166666666666666 0.8333333333333333
0.41666666666666663 0.8333333333333333 0.6666666666666666
0.3333333333333333 0.9166666666666666 0.6666666666666666
0.3333333333333333 0.8333333333333333 0.8333333333333333
0.41666666666666663 0.9166666666666666 0.8333333333333333
0.5833333333333333 0.8333333333333333 0.6666666666666666
0.5 0.9166666666666666 0.6666666666666666
0.5 0.8333333333333333 0.8333333333333333
0.5833333333333333 0.9166666666666666 0.8333333333333333
0.75 0.8333333333333333 0.6666666666666666
0.6666666666666666 0.9166666666666666 0.6666666666666666
0.6666666666666666 0.8333333333333333 0.8333333333333333
0.75 0.9166666666666666 0.8333333333333333
0.9166666666666666 0.8333333333333333 0.6666666666666666
0.8333333333333333 0.9166666666666666 0.6666666666666666
0.8333333333333333 0.8333333333333333 0.8333333333333333
0.9166666666666666 0.9166666666666666 0.8333333333333333
