FCC BaO
5.61604
3.0 0.0 0.0
0.0 3.0 0.0
0.0 0.0 3.0
Ba O 
108 108 
Direct
0.24497959088681248 -0.29218498402826 0.3380543293592201
0.1941201284227411 0.12486222351190591 0.4193608698953913
-0.03895542404867001 -0.5762326145177536 0.21493239592559443
-0.0005035398310304269 0.0645285419356463 -0.02633853620255943
0.5783129242201458 -0.29218498402826 0.3380543293592201
0.5274534617560744 0.12486222351190591 0.4193608698953913
0.2943779092846633 -0.5762326145177536 0.21493239592559443
0.3328297935023029 0.0645285419356463 -0.02633853620255943
0.9116462575534792 -0.29218498402826 0.3380543293592201
0.8607867950894077 0.12486222351190591 0.4193608698953913
0.6277112426179966 -0.5762326145177536 0.21493239592559443
0.6661631268356363 0.0645285419356463 -0.02633853620255943
0.24497959088681248 0.04114834930507334 0.3380543293592201
0.1941201284227411 0.4581955568452392 0.4193608698953913
-0.03895542404867001 -0.2428992811844204 0.21493239592559443
-0.0005035398310304269 0.3978618752689796 -0.02633853620255943
0.5783129242201458 0.04114834930507334 0.3380543293592201
0.5274534617560744 0.4581955568452392 0.4193608698953913
0.2943779092846633 -0.2428992811844204 0.21493239592559443
0.3328297935023029 0.3978618752689796 -0.02633853620255943
0.9116462575534792 0.04114834930507334 0.3380543293592201
0.8607867950894077 0.4581955568452392 0.4193608698953913
0.6277112426179966 -0.2428992811844204 0.21493239592559443
0.6661631268356363 0.3978618752689796 -0.02633853620255943
0.24497959088681248 0.37448168263840664 0.3380543293592201
0.1941201284227411 0.7915288901785726 0.4193608698953913
-0.03895542404867001 0.09043405214891294 0.21493239592559443
-0.0005035398310304269 0.7311952086023129 -0.02633853620255943
0.5783129242201458 0.37448168263840664 0.3380543293592201
0.5274534617560744 0.7915288901785726 0.4193608698953913
0.2943779092846633 0.09043405214891294 0.21493239592559443
0.3328297935023029 0.7311952086023129 -0.02633853620255943
0.9116462575534792 0.37448168263840664 0.3380543293592201
0.8607867950894077 0.7915288901785726 0.4193608698953913
0.6277112426179966 0.09043405214891294 0.21493239592559443
0.6661631268356363 0.7311952086023129 -0.02633853620255943
0.24497959088681248 -0.29218498402826 0.6713876626925535
0.1941201284227411 0.12486222351190591 0.7526942032287246
-0.03895542404867001 -0.5762326145177536 0.5482657292589277
-0.0005035398310304269 0.0645285419356463 0.3069947971307739
0.5783129242201458 -0.29218498402826 0.6713876626925535
0.5274534617560744 0.12486222351190591 0.7526942032287246
0.2943779092846633 -0.5762326145177536 0.5482657292589277
0.3328297935023029 0.0645285419356463 0.3069947971307739
0.9116462575534792 -0.29218498402826 0.6713876626925535
0.8607867950894077 0.12486222351190591 0.7526942032287246
0.6277112426179966 -0.5762326145177536 0.5482657292589277
0.6661631268356363 0.0645285419356463 0.3069947971307739
0.24497959088681248 0.04114834930507334 0.6713876626925535
0.1941201284227411 0.4581955568452392 0.7526942032287246
-0.03895542404867001 -0.2428992811844204 0.5482657292589277
-0.0005035398310304269 0.3978618752689796 0.3069947971307739
0.5783129242201458 0.04114834930507334 0.6713876626925535
0.5274534617560744 0.4581955568452392 0.7526942032287246
0.2943779092846633 -0.2428992811844204 0.5482657292589277
0.3328297935023029 0.3978618752689796 0.3069947971307739
0.9116462575534792 0.04114834930507334 0.6713876626925535
0.8607867950894077 0.4581955568452392 0.7526942032287246
0.6277112426179966 -0.2428992811844204 0.5482657292589277
0.6661631268356363 0.3978618752689796 0.3069947971307739
0.24497959088681248 0.37448168263840664 0.6713876626925535
0.1941201284227411 0.7915288901785726 0.7526942032287246
-0.03895542404867001 0.09043405214891294 0.5482657292589277
-0.0005035398310304269 0.7311952086023129 0.3069947971307739
0.5783129242201458 0.37448168263840664 0.6713876626925535
0.5274534617560744 0.7915288901785726 0.7526942032287246
0.2943779092846633 0.09043405214891294 0.5482657292589277
0.3328297935023029 0.7311952086023129 0.3069947971307739
0.9116462575534792 0.37448168263840664 0.6713876626925535
0.8607867950894077 0.7915288901785726 0.7526942032287246
0.6277112426179966 0.09043405214891294 0.5482657292589277
0.6661631268356363 0.7311952086023129 0.3069947971307739
0.24497959088681248 -0.29218498402826 1.0047209960258867
0.1941201284227411 0.12486222351190591 1.086027536562058
-0.03895542404867001 -0.5762326145177536 0.881599062592261
-0.0005035398310304269 0.0645285419356463 0.6403281304641072
0.5783129242201458 -0.29218498402826 1.0047209960258867
0.5274534617560744 0.12486222351190591 1.086027536562058
0.2943779092846633 -0.5762326145177536 0.881599062592261
0.3328297935023029 0.0645285419356463 0.6403281304641072
0.9116462575534792 -0.29218498402826 1.0047209960258867
0.8607867950894077 0.12486222351190591 1.086027536562058
0.6277112426179966 -0.5762326145177536 0.881599062592261
0.6661631268356363 0.0645285419356463 0.6403281304641072
0.24497959088681248 0.04114834930507334 1.0047209960258867
0.1941201284227411 0.4581955568452392 1.086027536562058
-0.03895542404867001 -0.2428992811844204 0.881599062592261
-0.0005035398310304269 0.3978618752689796 0.6403281304641072
0.5783129242201458 0.04114834930507334 1.0047209960258867
0.5274534617560744 0.4581955568452392 1.086027536562058
0.2943779092846633 -0.2428992811844204 0.881599062592261
0.3328297935023029 0.3978618752689796 0.6403281304641072
0.9116462575534792 0.04114834930507334 1.0047209960258867
0.8607867950894077 0.4581955568452392 1.086027536562058
0.6277112426179966 -0.2428992811844204 0.881599062592261
0.6661631268356363 0.3978618752689796 0.6403281304641072
0.24497959088681248 0.37448168263840664 1.0047209960258867
0.1941201284227411 0.7915288901785726 1.086027536562058
-0.03895542404867001 0.09043405214891294 0.881599062592261
-0.0005035398310304269 0.7311952086023129 0.6403281304641072
0.5783129242201458 0.37448168263840664 1.0047209960258867
0.5274534617560744 0.7915288901785726 1.086027536562058
0.2943779092846633 0.09043405214891294 0.881599062592261
0.3328297935023029 0.7311952086023129 0.6403281304641072
0.9116462575534792 0.37448168263840664 1.0047209960258867
0.8607867950894077 0.7915288901785726 1.086027536562058
0.6277112426179966 0.09043405214891294 0.881599062592261
0.6661631268356363 0.7311952086023129 0.6403281304641072
0.3181999202530097 -0.3283475955267404 -0.16925994737639055
-0.27630568320703264 0.5335262476530942 -0.4002059115115176
0.5221186460999437 0.30784162138893567 0.4743402842303457
0.11135990867465152 0.4971149998004634 0.17957355676295067
0.651533253586343 -0.3283475955267404 -0.16925994737639055
0.05702765012630069 0.5335262476530942 -0.4002059115115176
0.8554519794332771 0.30784162138893567 0.4743402842303457
0.4446932420079848 0.4971149998004634 0.17957355676295067
0.9848665869196763 -0.3283475955267404 -0.16925994737639055
0.390360983459634 0.5335262476530942 -0.4002059115115176
1.1887853127666104 0.30784162138893567 0.4743402842303457
0.7780265753413182 0.4971149998004634 0.17957355676295067
0.3181999202530097 0.004985737806592875 -0.16925994737639055
-0.27630568320703264 0.8668595809864275 -0.4002059115115176
0.5221186460999437 0.6411749547222689 0.4743402842303457
0.11135990867465152 0.8304483331337967 0.17957355676295067
0.651533253586343 0.004985737806592875 -0.16925994737639055
0.05702765012630069 0.8668595809864275 -0.4002059115115176
0.8554519794332771 0.6411749547222689 0.4743402842303457
0.4446932420079848 0.8304483331337967 0.17957355676295067
0.9848665869196763 0.004985737806592875 -0.16925994737639055
0.390360983459634 0.8668595809864275 -0.4002059115115176
1.1887853127666104 0.6411749547222689 0.4743402842303457
0.7780265753413182 0.8304483331337967 0.17957355676295067
0.3181999202530097 0.3383190711399262 -0.16925994737639055
-0.27630568320703264 1.2001929143197607 -0.4002059115115176
0.5221186460999437 0.9745082880556023 0.4743402842303457
0.11135990867465152 1.16378166646713 0.17957355676295067
0.651533253586343 0.3383190711399262 -0.16925994737639055
0.05702765012630069 1.2001929143197607 -0.4002059115115176
0.8554519794332771 0.9745082880556023 0.4743402842303457
0.4446932420079848 1.16378166646713 0.17957355676295067
0.9848665869196763 0.3383190711399262 -0.16925994737639055
0.390360983459634 1.2001929143197607 -0.4002059115115176
1.1887853127666104 0.9745082880556023 0.4743402842303457
0.7780265753413182 1.16378166646713 0.17957355676295067
0.3181999202530097 -0.3283475955267404 0.16407338595694276
-0.27630568320703264 0.5335262476530942 -0.06687257817818426
0.5221186460999437 0.30784162138893567 0.807673617563679
0.11135990867465152 0.4971149998004634 0.512906890096284
0.651533253586343 -0.3283475955267404 0.16407338595694276
0.05702765012630069 0.5335262476530942 -0.06687257817818426
0.8554519794332771 0.30784162138893567 0.807673617563679
0.4446932420079848 0.4971149998004634 0.512906890096284
0.9848665869196763 -0.3283475955267404 0.16407338595694276
0.390360983459634 0.5335262476530942 -0.06687257817818426
1.1887853127666104 0.30784162138893567 0.807673617563679
0.7780265753413182 0.4971149998004634 0.512906890096284
0.3181999202530097 0.004985737806592875 0.16407338595694276
-0.27630568320703264 0.8668595809864275 -0.06687257817818426
0.5221186460999437 0.6411749547222689 0.807673617563679
0.11135990867465152 0.8304483331337967 0.512906890096284
0.651533253586343 0.004985737806592875 0.16407338595694276
0.05702765012630069 0.8668595809864275 -0.06687257817818426
0.8554519794332771 0.6411749547222689 0.807673617563679
0.4446932420079848 0.8304483331337967 0.512906890096284
0.9848665869196763 0.004985737806592875 0.16407338595694276
0.390360983459634 0.8668595809864275 -0.06687257817818426
1.1887853127666104 0.6411749547222689 0.807673617563679
0.7780265753413182 0.8304483331337967 0.512906890096284
0.3181999202530097 0.3383190711399262 0.16407338595694276
-0.27630568320703264 1.2001929143197607 -0.06687257817818426
0.5221186460999437 0.9745082880556023 0.807673617563679
0.11135990867465152 1.16378166646713 0.512906890096284
0.651533253586343 0.3383190711399262 0.16407338595694276
0.05702765012630069 1.2001929143197607 -0.06687257817818426
0.8554519794332771 0.9745082880556023 0.807673617563679
0.4446932420079848 1.16378166646713 0.512906890096284
0.9848665869196763 0.3383190711399262 0.16407338595694276
0.390360983459634 1.2001929143197607 -0.06687257817818426
1.1887853127666104 0.9745082880556023 0.807673617563679
0.7780265753413182 1.16378166646713 0.512906890096284
0.3181999202530097 -0.3283475955267404 0.4974067192902761
-0.27630568320703264 0.5335262476530942 0.26646075515514905
0.5221186460999437 0.30784162138893567 1.1410069508970122
0.11135990867465152 0.4971149998004634 0.8462402234296174
0.651533253586343 -0.3283475955267404 0.4974067192902761
0.05702765012630069 0.5335262476530942 0.26646075515514905
0.8554519794332771 0.30784162138893567 1.1410069508970122
0.4446932420079848 0.4971149998004634 0.8462402234296174
0.9848665869196763 -0.3283475955267404 0.4974067192902761
0.390360983459634 0.5335262476530942 0.26646075515514905
1.1887853127666104 0.30784162138893567 1.1410069508970122
0.7780265753413182 0.4971149998004634 0.8462402234296174
0.3181999202530097 0.004985737806592875 0.4974067192902761
-0.27630568320703264 0.8668595809864275 0.26646075515514905
0.5221186460999437 0.6411749547222689 1.1410069508970122
0.11135990867465152 0.8304483331337967 0.8462402234296174
0.651533253586343 0.004985737806592875 0.4974067192902761
0.05702765012630069 0.8668595809864275 0.26646075515514905
0.8554519794332771 0.6411749547222689 1.1410069508970122
0.4446932420079848 0.8304483331337967 0.8462402234296174
0.9848665869196763 0.004985737806592875 0.4974067192902761
0.390360983459634 0.8668595809864275 0.26646075515514905
1.1887853127666104 0.6411749547222689 1.1410069508970122
0.7780265753413182 0.8304483331337967 0.8462402234296174
0.3181999202530097 0.3383190711399262 0.4974067192902761
-0.27630568320703264 1.2001929143197607 0.26646075515514905
0.5221186460999437 0.9745082880556023 1.1410069508970122
0.11135990867465152 1.16378166646713 0.8462402234296174
0.651533253586343 0.3383190711399262 0.4974067192902761
0.05702765012630069 1.2001929143197607 0.26646075515514905
0.8554519794332771 0.9745082880556023 1.1410069508970122
0.4446932420079848 1.16378166646713 0.8462402234296174
0.9848665869196763 0.3383190711399262 0.4974067192902761
0.390360983459634 1.2001929143197607 0.26646075515514905
1.1887853127666104 0.9745082880556023 1.1410069508970122
0.7780265753413182 1.16378166646713 0.8462402234296174
