FCC BaO
5.61604
3.0 0.0 0.0
0.0 3.0 0.0
0.0 0.0 3.0
Ba O 
108 108 
Direct
-0.014629639091243457 0.016188391799775357 0.010853919106289378
0.04077819112917966 0.14182904296705454 0.15300128532627236
0.16528490302705479 0.0021284759618657835 0.19476844255359654
0.17526398801020496 0.13126279271192492 -0.003913552506111786
0.3187036942420899 0.016188391799775357 0.010853919106289378
0.37411152446251295 0.14182904296705454 0.15300128532627236
0.49861823636038816 0.0021284759618657835 0.19476844255359654
0.5085973213435382 0.13126279271192492 -0.003913552506111786
0.6520370275754231 0.016188391799775357 0.010853919106289378
0.7074448577958463 0.14182904296705454 0.15300128532627236
0.8319515696937214 0.0021284759618657835 0.19476844255359654
0.8419306546768716 0.13126279271192492 -0.003913552506111786
-0.014629639091243457 0.3495217251331087 0.010853919106289378
0.04077819112917966 0.4751623763003879 0.15300128532627236
0.16528490302705479 0.3354618092951991 0.19476844255359654
0.17526398801020496 0.4645961260452583 -0.003913552506111786
0.3187036942420899 0.3495217251331087 0.010853919106289378
0.37411152446251295 0.4751623763003879 0.15300128532627236
0.49861823636038816 0.3354618092951991 0.19476844255359654
0.5085973213435382 0.4645961260452583 -0.003913552506111786
0.6520370275754231 0.3495217251331087 0.010853919106289378
0.7074448577958463 0.4751623763003879 0.15300128532627236
0.8319515696937214 0.3354618092951991 0.19476844255359654
0.8419306546768716 0.4645961260452583 -0.003913552506111786
-0.014629639091243457 0.682855058466442 0.010853919106289378
0.04077819112917966 0.8084957096337211 0.15300128532627236
0.16528490302705479 0.6687951426285325 0.19476844255359654
0.17526398801020496 0.7979294593785916 -0.003913552506111786
0.3187036942420899 0.682855058466442 0.010853919106289378
0.37411152446251295 0.8084957096337211 0.15300128532627236
0.49861823636038816 0.6687951426285325 0.19476844255359654
0.5085973213435382 0.7979294593785916 -0.003913552506111786
0.6520370275754231 0.682855058466442 0.010853919106289378
0.7074448577958463 0.8084957096337211 0.15300128532627236
0.8319515696937214 0.6687951426285325 0.19476844255359654
0.8419306546768716 0.7979294593785916 -0.003913552506111786
-0.014629639091243457 0.016188391799775357 0.34418725243962267
0.04077819112917966 0.14182904296705454 0.4863346186596057
0.16528490302705479 0.0021284759618657835 0.5281017758869299
0.17526398801020496 0.13126279271192492 0.32941978082722156
0.3187036942420899 0.016188391799775357 0.34418725243962267
0.37411152446251295 0.14182904296705454 0.4863346186596057
0.49861823636038816 0.0021284759618657835 0.5281017758869299
0.5085973213435382 0.13126279271192492 0.32941978082722156
0.6520370275754231 0.016188391799775357 0.34418725243962267
0.7074448577958463 0.14182904296705454 0.4863346186596057
0.8319515696937214 0.0021284759618657835 0.5281017758869299
0.8419306546768716 0.13126279271192492 0.32941978082722156
-0.014629639091243457 0.3495217251331087 0.34418725243962267
0.04077819112917966 0.4751623763003879 0.4863346186596057
0.16528490302705479 0.3354618092951991 0.5281017758869299
0.17526398801020496 0.4645961260452583 0.32941978082722156
0.3187036942420899 0.3495217251331087 0.34418725243962267
0.37411152446251295 0.4751623763003879 0.4863346186596057
0.49861823636038816 0.3354618092951991 0.5281017758869299
0.5085973213435382 0.4645961260452583 0.32941978082722156
0.6520370275754231 0.3495217251331087 0.34418725243962267
0.7074448577958463 0.4751623763003879 0.4863346186596057
0.8319515696937214 0.3354618092951991 0.5281017758869299
0.8419306546768716 0.4645961260452583 0.32941978082722156
-0.014629639091243457 0.682855058466442 0.34418725243962267
0.04077819112917966 0.8084957096337211 0.4863346186596057
0.16528490302705479 0.6687951426285325 0.5281017758869299
0.17526398801020496 0.7979294593785916 0.32941978082722156
0.3187036942420899 0.682855058466442 0.34418725243962267
0.37411152446251295 0.8084957096337211 0.4863346186596057
0.49861823636038816 0.6687951426285325 0.5281017758869299
0.5085973213435382 0.7979294593785916 0.32941978082722156
0.6520370275754231 0.682855058466442 0.34418725243962267
0.7074448577958463 0.8084957096337211 0.4863346186596057
0.8319515696937214 0.6687951426285325 0.5281017758869299
0.8419306546768716 0.7979294593785916 0.32941978082722156
-0.014629639091243457 0.016188391799775357 0.677520585772956
0.04077819112917966 0.14182904296705454 0.8196679519929391
0.16528490302705479 0.0021284759618657835 0.8614351092202632
0.17526398801020496 0.13126279271192492 0.6627531141605548
0.3187036942420899 0.016188391799775357 0.677520585772956
0.37411152446251295 0.14182904296705454 0.8196679519929391
0.49861823636038816 0.0021284759618657835 0.8614351092202632
0.5085973213435382 0.13126279271192492 0.6627531141605548
0.6520370275754231 0.016188391799775357 0.677520585772956
0.7074448577958463 0.14182904296705454 0.8196679519929391
0.8319515696937214 0.0021284759618657835 0.8614351092202632
0.8419306546768716 0.13126279271192492 0.6627531141605548
-0.014629639091243457 0.3495217251331087 0.677520585772956
0.04077819112917966 0.4751623763003879 0.8196679519929391
0.16528490302705479 0.3354618092951991 0.8614351092202632
0.17526398801020496 0.4645961260452583 0.6627531141605548
0.3187036942420899 0.3495217251331087 0.677520585772956
0.37411152446251295 0.4751623763003879 0.8196679519929391
0.49861823636038816 0.3354618092951991 0.8614351092202632
0.5085973213435382 0.4645961260452583 0.6627531141605548
0.6520370275754231 0.3495217251331087 0.677520585772956
0.7074448577958463 0.4751623763003879 0.8196679519929391
0.8319515696937214 0.3354618092951991 0.8614351092202632
0.8419306546768716 0.4645961260452583 0.6627531141605548
-0.014629639091243457 0.682855058466442 0.677520585772956
0.04077819112917966 0.8084957096337211 0.8196679519929391
0.16528490302705479 0.6687951426285325 0.8614351092202632
0.17526398801020496 0.7979294593785916 0.6627531141605548
0.3187036942420899 0.682855058466442 0.677520585772956
0.37411152446251295 0.8084957096337211 0.8196679519929391
0.49861823636038816 0.6687951426285325 0.8614351092202632
0.5085973213435382 0.7979294593785916 0.6627531141605548
0.6520370275754231 0.682855058466442 0.677520585772956
0.7074448577958463 0.8084957096337211 0.8196679519929391
0.8319515696937214 0.6687951426285325 0.8614351092202632
0.8419306546768716 0.7979294593785916 0.6627531141605548
0.20138984515708339 -0.03054215559846556 -0.047296092031953174
-0.03343612598172031 0.15727507983566064 -0.015056264536697197
-0.010593965683533647 0.04193624204648405 0.18411212667339621
0.1661270331482309 0.1787847960101812 0.14804582569882335
0.5347231784904167 -0.03054215559846556 -0.047296092031953174
0.299897207351613 0.15727507983566064 -0.015056264536697197
0.32273936764979966 0.04193624204648405 0.18411212667339621
0.4994603664815642 0.1787847960101812 0.14804582569882335
0.86805651182375 -0.03054215559846556 -0.047296092031953174
0.6332305406849463 0.15727507983566064 -0.015056264536697197
0.656072700983133 0.04193624204648405 0.18411212667339621
0.8327936998148975 0.1787847960101812 0.14804582569882335
0.20138984515708339 0.30279117773486774 -0.047296092031953174
-0.03343612598172031 0.49060841316899395 -0.015056264536697197
-0.010593965683533647 0.3752695753798174 0.18411212667339621
0.1661270331482309 0.5121181293435145 0.14804582569882335
0.5347231784904167 0.30279117773486774 -0.047296092031953174
0.299897207351613 0.49060841316899395 -0.015056264536697197
0.32273936764979966 0.3752695753798174 0.18411212667339621
0.4994603664815642 0.5121181293435145 0.14804582569882335
0.86805651182375 0.30279117773486774 -0.047296092031953174
0.6332305406849463 0.49060841316899395 -0.015056264536697197
0.656072700983133 0.3752695753798174 0.18411212667339621
0.8327936998148975 0.5121181293435145 0.14804582569882335
0.20138984515708339 0.636124511068201 -0.047296092031953174
-0.03343612598172031 0.8239417465023272 -0.015056264536697197
-0.010593965683533647 0.7086029087131507 0.18411212667339621
0.1661270331482309 0.8454514626768479 0.14804582569882335
0.5347231784904167 0.636124511068201 -0.047296092031953174
0.299897207351613 0.8239417465023272 -0.015056264536697197
0.32273936764979966 0.7086029087131507 0.18411212667339621
0.4994603664815642 0.8454514626768479 0.14804582569882335
0.86805651182375 0.636124511068201 -0.047296092031953174
0.6332305406849463 0.8239417465023272 -0.015056264536697197
0.656072700983133 0.7086029087131507 0.18411212667339621
0.8327936998148975 0.8454514626768479 0.14804582569882335
0.20138984515708339 -0.03054215559846556 0.28603724130138014
-0.03343612598172031 0.15727507983566064 0.3182770687966361
-0.010593965683533647 0.04193624204648405 0.5174454600067295
0.1661270331482309 0.1787847960101812 0.48137915903215667
0.5347231784904167 -0.03054215559846556 0.28603724130138014
0.299897207351613 0.15727507983566064 0.3182770687966361
0.32273936764979966 0.04193624204648405 0.5174454600067295
0.4994603664815642 0.1787847960101812 0.48137915903215667
0.86805651182375 -0.03054215559846556 0.28603724130138014
0.6332305406849463 0.15727507983566064 0.3182770687966361
0.656072700983133 0.04193624204648405 0.5174454600067295
0.8327936998148975 0.1787847960101812 0.48137915903215667
0.20138984515708339 0.30279117773486774 0.28603724130138014
-0.03343612598172031 0.49060841316899395 0.3182770687966361
-0.010593965683533647 0.3752695753798174 0.5174454600067295
0.1661270331482309 0.5121181293435145 0.48137915903215667
0.5347231784904167 0.30279117773486774 0.28603724130138014
0.299897207351613 0.49060841316899395 0.3182770687966361
0.32273936764979966 0.3752695753798174 0.5174454600067295
0.4994603664815642 0.5121181293435145 0.48137915903215667
0.86805651182375 0.30279117773486774 0.28603724130138014
0.6332305406849463 0.49060841316899395 0.3182770687966361
0.656072700983133 0.3752695753798174 0.5174454600067295
0.8327936998148975 0.5121181293435145 0.48137915903215667
0.20138984515708339 0.636124511068201 0.28603724130138014
-0.03343612598172031 0.8239417465023272 0.3182770687966361
-0.010593965683533647 0.7086029087131507 0.5174454600067295
0.1661270331482309 0.8454514626768479 0.48137915903215667
0.5347231784904167 0.636124511068201 0.28603724130138014
0.299897207351613 0.8239417465023272 0.3182770687966361
0.32273936764979966 0.7086029087131507 0.5174454600067295
0.4994603664815642 0.8454514626768479 0.48137915903215667
0.86805651182375 0.636124511068201 0.28603724130138014
0.6332305406849463 0.8239417465023272 0.3182770687966361
0.656072700983133 0.7086029087131507 0.5174454600067295
0.8327936998148975 0.8454514626768479 0.48137915903215667
0.20138984515708339 -0.03054215559846556 0.6193705746347135
-0.03343612598172031 0.15727507983566064 0.6516104021299695
-0.010593965683533647 0.04193624204648405 0.8507787933400628
0.1661270331482309 0.1787847960101812 0.81471249236549
0.5347231784904167 -0.03054215559846556 0.6193705746347135
0.299897207351613 0.15727507983566064 0.6516104021299695
0.32273936764979966 0.04193624204648405 0.8507787933400628
0.4994603664815642 0.1787847960101812 0.81471249236549
0.86805651182375 -0.03054215559846556 0.6193705746347135
0.6332305406849463 0.15727507983566064 0.6516104021299695
0.656072700983133 0.04193624204648405 0.8507787933400628
0.8327936998148975 0.1787847960101812 0.81471249236549
0.20138984515708339 0.30279117773486774 0.6193705746347135
-0.03343612598172031 0.49060841316899395 0.6516104021299695
-0.010593965683533647 0.3752695753798174 0.8507787933400628
0.1661270331482309 0.5121181293435145 0.81471249236549
0.5347231784904167 0.30279117773486774 0.6193705746347135
0.299897207351613 0.49060841316899395 0.6516104021299695
0.32273936764979966 0.3752695753798174 0.8507787933400628
0.4994603664815642 0.5121181293435145 0.81471249236549
0.86805651182375 0.30279117773486774 0.6193705746347135
0.6332305406849463 0.49060841316899395 0.6516104021299695
0.656072700983133 0.3752695753798174 0.8507787933400628
0.8327936998148975 0.5121181293435145 0.81471249236549
0.20138984515708339 0.636124511068201 0.6193705746347135
-0.03343612598172031 0.8239417465023272 0.6516104021299695
-0.010593965683533647 0.7086029087131507 0.8507787933400628
0.1661270331482309 0.8454514626768479 0.81471249236549
0.5347231784904167 0.636124511068201 0.6193705746347135
0.299897207351613 0.8239417465023272 0.6516104021299695
0.32273936764979966 0.7086029087131507 0.8507787933400628
0.4994603664815642 0.8454514626768479 0.81471249236549
0.86805651182375 0.636124511068201 0.6193705746347135
0.6332305406849463 0.8239417465023272 0.6516104021299695
0.656072700983133 0.7086029087131507 0.8507787933400628
0.8327936998148975 0.8454514626768479 0.81471249236549
