FCC BaO
3.971
5.0 0.0 0.0
0.0 5.0 0.0
0.0 0.0 5.0
Ba O 
500 500 
Direct
0.018615250705573554 -0.0009258489432478544 0.017786441683274732
0.0077579428876551355 0.11539541363075578 0.11526779435093047
0.11876929610642342 -0.00536059272594654 0.11704459998442052
0.11448243572673787 0.10028550147991858 -0.025414755410332862
0.21861525070557355 -0.0009258489432478544 0.017786441683274732
0.20775794288765514 0.11539541363075578 0.11526779435093047
0.31876929610642346 -0.00536059272594654 0.11704459998442052
0.3144824357267379 0.10028550147991858 -0.025414755410332862
0.4186152507055736 -0.0009258489432478544 0.017786441683274732
0.40775794288765516 0.11539541363075578 0.11526779435093047
0.5187692961064235 -0.00536059272594654 0.11704459998442052
0.5144824357267378 0.10028550147991858 -0.025414755410332862
0.6186152507055737 -0.0009258489432478544 0.017786441683274732
0.6077579428876552 0.11539541363075578 0.11526779435093047
0.7187692961064235 -0.00536059272594654 0.11704459998442052
0.7144824357267379 0.10028550147991858 -0.025414755410332862
0.8186152507055736 -0.0009258489432478544 0.017786441683274732
0.8077579428876552 0.11539541363075578 0.11526779435093047
0.9187692961064235 -0.00536059272594654 0.11704459998442052
0.9144824357267378 0.10028550147991858 -0.025414755410332862
0.018615250705573554 0.19907415105675216 0.017786441683274732
0.0077579428876551355 0.3153954136307558 0.11526779435093047
0.11876929610642342 0.1946394072740535 0.11704459998442052
0.11448243572673787 0.3002855014799186 -0.025414755410332862
0.21861525070557355 0.19907415105675216 0.017786441683274732
0.20775794288765514 0.3153954136307558 0.11526779435093047
0.31876929610642346 0.1946394072740535 0.11704459998442052
0.3144824357267379 0.3002855014799186 -0.025414755410332862
0.4186152507055736 0.19907415105675216 0.017786441683274732
0.40775794288765516 0.3153954136307558 0.11526779435093047
0.5187692961064235 0.1946394072740535 0.11704459998442052
0.5144824357267378 0.3002855014799186 -0.025414755410332862
0.6186152507055737 0.19907415105675216 0.017786441683274732
0.6077579428876552 0.3153954136307558 0.11526779435093047
0.7187692961064235 0.1946394072740535 0.11704459998442052
0.7144824357267379 0.3002855014799186 -0.025414755410332862
0.8186152507055736 0.19907415105675216 0.017786441683274732
0.8077579428876552 0.3153954136307558 0.11526779435093047
0.9187692961064235 0.1946394072740535 0.11704459998442052
0.9144824357267378 0.3002855014799186 -0.025414755410332862
0.018615250705573554 0.39907415105675215 0.017786441683274732
0.0077579428876551355 0.5153954136307558 0.11526779435093047
0.11876929610642342 0.3946394072740535 0.11704459998442052
0.11448243572673787 0.5002855014799187 -0.025414755410332862
0.21861525070557355 0.39907415105675215 0.017786441683274732
0.20775794288765514 0.5153954136307558 0.11526779435093047
0.31876929610642346 0.3946394072740535 0.11704459998442052
0.3144824357267379 0.5002855014799187 -0.025414755410332862
0.4186152507055736 0.39907415105675215 0.017786441683274732
0.40775794288765516 0.5153954136307558 0.11526779435093047
0.5187692961064235 0.3946394072740535 0.11704459998442052
0.5144824357267378 0.5002855014799187 -0.025414755410332862
0.6186152507055737 0.39907415105675215 0.017786441683274732
0.6077579428876552 0.5153954136307558 0.11526779435093047
0.7187692961064235 0.3946394072740535 0.11704459998442052
0.7144824357267379 0.5002855014799187 -0.025414755410332862
0.8186152507055736 0.39907415105675215 0.017786441683274732
0.8077579428876552 0.5153954136307558 0.11526779435093047
0.9187692961064235 0.3946394072740535 0.11704459998442052
0.9144824357267378 0.5002855014799187 -0.025414755410332862
0.018615250705573554 0.5990741510567522 0.017786441683274732
0.0077579428876551355 0.7153954136307559 0.11526779435093047
0.11876929610642342 0.5946394072740534 0.11704459998442052
0.11448243572673787 0.7002855014799186 -0.025414755410332862
0.21861525070557355 0.5990741510567522 0.017786441683274732
0.20775794288765514 0.7153954136307559 0.11526779435093047
0.31876929610642346 0.5946394072740534 0.11704459998442052
0.3144824357267379 0.7002855014799186 -0.025414755410332862
0.4186152507055736 0.5990741510567522 0.017786441683274732
0.40775794288765516 0.7153954136307559 0.11526779435093047
0.5187692961064235 0.5946394072740534 0.11704459998442052
0.5144824357267378 0.7002855014799186 -0.025414755410332862
0.6186152507055737 0.5990741510567522 0.017786441683274732
0.6077579428876552 0.7153954136307559 0.11526779435093047
0.7187692961064235 0.5946394072740534 0.11704459998442052
0.7144824357267379 0.7002855014799186 -0.025414755410332862
0.8186152507055736 0.5990741510567522 0.017786441683274732
0.8077579428876552 0.7153954136307559 0.11526779435093047
0.9187692961064235 0.5946394072740534 0.11704459998442052
0.9144824357267378 0.7002855014799186 -0.025414755410332862
0.018615250705573554 0.7990741510567522 0.017786441683274732
0.0077579428876551355 0.9153954136307558 0.11526779435093047
0.11876929610642342 0.7946394072740535 0.11704459998442052
0.11448243572673787 0.9002855014799187 -0.025414755410332862
0.21861525070557355 0.7990741510567522 0.017786441683274732
0.20775794288765514 0.9153954136307558 0.11526779435093047
0.31876929610642346 0.7946394072740535 0.11704459998442052
0.3144824357267379 0.9002855014799187 -0.025414755410332862
0.4186152507055736 0.7990741510567522 0.017786441683274732
0.40775794288765516 0.9153954136307558 0.11526779435093047
0.5187692961064235 0.7946394072740535 0.11704459998442052
0.5144824357267378 0.9002855014799187 -0.025414755410332862
0.6186152507055737 0.7990741510567522 0.017786441683274732
0.6077579428876552 0.9153954136307558 0.11526779435093047
0.7187692961064235 0.7946394072740535 0.11704459998442052
0.7144824357267379 0.9002855014799187 -0.025414755410332862
0.8186152507055736 0.7990741510567522 0.017786441683274732
0.8077579428876552 0.9153954136307558 0.11526779435093047
0.9187692961064235 0.7946394072740535 0.11704459998442052
0.9144824357267378 0.9002855014799187 -0.025414755410332862
0.018615250705573554 -0.0009258489432478544 0.21778644168327477
0.0077579428876551355 0.11539541363075578 0.3152677943509305
0.11876929610642342 -0.00536059272594654 0.3170445999844205
0.11448243572673787 0.10028550147991858 0.17458524458966715
0.21861525070557355 -0.0009258489432478544 0.21778644168327477
0.20775794288765514 0.11539541363075578 0.3152677943509305
0.31876929610642346 -0.00536059272594654 0.3170445999844205
0.3144824357267379 0.10028550147991858 0.17458524458966715
0.4186152507055736 -0.0009258489432478544 0.21778644168327477
0.40775794288765516 0.11539541363075578 0.3152677943509305
0.5187692961064235 -0.00536059272594654 0.3170445999844205
0.5144824357267378 0.10028550147991858 0.17458524458966715
0.6186152507055737 -0.0009258489432478544 0.21778644168327477
0.6077579428876552 0.11539541363075578 0.3152677943509305
0.7187692961064235 -0.00536059272594654 0.3170445999844205
0.7144824357267379 0.10028550147991858 0.17458524458966715
0.8186152507055736 -0.0009258489432478544 0.21778644168327477
0.8077579428876552 0.11539541363075578 0.3152677943509305
0.9187692961064235 -0.00536059272594654 0.3170445999844205
0.9144824357267378 0.10028550147991858 0.17458524458966715
0.018615250705573554 0.19907415105675216 0.21778644168327477
0.0077579428876551355 0.3153954136307558 0.3152677943509305
0.11876929610642342 0.1946394072740535 0.3170445999844205
0.11448243572673787 0.3002855014799186 0.17458524458966715
0.21861525070557355 0.19907415105675216 0.21778644168327477
0.20775794288765514 0.3153954136307558 0.3152677943509305
0.31876929610642346 0.1946394072740535 0.3170445999844205
0.3144824357267379 0.3002855014799186 0.17458524458966715
0.4186152507055736 0.19907415105675216 0.21778644168327477
0.40775794288765516 0.3153954136307558 0.3152677943509305
0.5187692961064235 0.1946394072740535 0.3170445999844205
0.5144824357267378 0.3002855014799186 0.17458524458966715
0.6186152507055737 0.19907415105675216 0.21778644168327477
0.6077579428876552 0.3153954136307558 0.3152677943509305
0.7187692961064235 0.1946394072740535 0.3170445999844205
0.7144824357267379 0.3002855014799186 0.17458524458966715
0.8186152507055736 0.19907415105675216 0.21778644168327477
0.8077579428876552 0.3153954136307558 0.3152677943509305
0.9187692961064235 0.1946394072740535 0.3170445999844205
0.9144824357267378 0.3002855014799186 0.17458524458966715
0.018615250705573554 0.39907415105675215 0.21778644168327477
0.0077579428876551355 0.5153954136307558 0.3152677943509305
0.11876929610642342 0.3946394072740535 0.3170445999844205
0.11448243572673787 0.5002855014799187 0.17458524458966715
0.21861525070557355 0.39907415105675215 0.21778644168327477
0.20775794288765514 0.5153954136307558 0.3152677943509305
0.31876929610642346 0.3946394072740535 0.3170445999844205
0.3144824357267379 0.5002855014799187 0.17458524458966715
0.4186152507055736 0.39907415105675215 0.21778644168327477
0.40775794288765516 0.5153954136307558 0.3152677943509305
0.5187692961064235 0.3946394072740535 0.3170445999844205
0.5144824357267378 0.5002855014799187 0.17458524458966715
0.6186152507055737 0.39907415105675215 0.21778644168327477
0.6077579428876552 0.5153954136307558 0.3152677943509305
0.7187692961064235 0.3946394072740535 0.3170445999844205
0.7144824357267379 0.5002855014799187 0.17458524458966715
0.8186152507055736 0.39907415105675215 0.21778644168327477
0.8077579428876552 0.5153954136307558 0.3152677943509305
0.9187692961064235 0.3946394072740535 0.3170445999844205
0.9144824357267378 0.5002855014799187 0.17458524458966715
0.018615250705573554 0.5990741510567522 0.21778644168327477
0.0077579428876551355 0.7153954136307559 0.3152677943509305
0.11876929610642342 0.5946394072740534 0.3170445999844205
0.11448243572673787 0.7002855014799186 0.17458524458966715
0.21861525070557355 0.5990741510567522 0.21778644168327477
0.20775794288765514 0.7153954136307559 0.3152677943509305
0.31876929610642346 0.5946394072740534 0.3170445999844205
0.3144824357267379 0.7002855014799186 0.17458524458966715
0.4186152507055736 0.5990741510567522 0.21778644168327477
0.40775794288765516 0.7153954136307559 0.3152677943509305
0.5187692961064235 0.5946394072740534 0.3170445999844205
0.5144824357267378 0.7002855014799186 0.17458524458966715
0.6186152507055737 0.5990741510567522 0.21778644168327477
0.6077579428876552 0.7153954136307559 0.3152677943509305
0.7187692961064235 0.5946394072740534 0.3170445999844205
0.7144824357267379 0.7002855014799186 0.17458524458966715
0.8186152507055736 0.5990741510567522 0.21778644168327477
0.8077579428876552 0.7153954136307559 0.3152677943509305
0.9187692961064235 0.5946394072740534 0.3170445999844205
0.9144824357267378 0.7002855014799186 0.17458524458966715
0.018615250705573554 0.7990741510567522 0.21778644168327477
0.0077579428876551355 0.9153954136307558 0.3152677943509305
0.11876929610642342 0.7946394072740535 0.3170445999844205
0.11448243572673787 0.9002855014799187 0.17458524458966715
0.21861525070557355 0.7990741510567522 0.21778644168327477
0.20775794288765514 0.9153954136307558 0.3152677943509305
0.31876929610642346 0.7946394072740535 0.3170445999844205
0.3144824357267379 0.9002855014799187 0.17458524458966715
0.4186152507055736 0.7990741510567522 0.21778644168327477
0.40775794288765516 0.9153954136307558 0.3152677943509305
0.5187692961064235 0.7946394072740535 0.3170445999844205
0.5144824357267378 0.9002855014799187 0.17458524458966715
0.6186152507055737 0.7990741510567522 0.21778644168327477
0.6077579428876552 0.9153954136307558 0.3152677943509305
0.7187692961064235 0.7946394072740535 0.3170445999844205
0.7144824357267379 0.9002855014799187 0.17458524458966715
0.8186152507055736 0.7990741510567522 0.21778644168327477
0.8077579428876552 0.9153954136307558 0.3152677943509305
0.9187692961064235 0.7946394072740535 0.3170445999844205
0.9144824357267378 0.9002855014799187 0.17458524458966715
0.018615250705573554 -0.0009258489432478544 0.4177864416832748
0.0077579428876551355 0.11539541363075578 0.5152677943509305
0.11876929610642342 -0.00536059272594654 0.5170445999844205
0.11448243572673787 0.10028550147991858 0.37458524458966713
0.21861525070557355 -0.0009258489432478544 0.4177864416832748
0.20775794288765514 0.11539541363075578 0.5152677943509305
0.31876929610642346 -0.00536059272594654 0.5170445999844205
0.3144824357267379 0.10028550147991858 0.37458524458966713
0.4186152507055736 -0.0009258489432478544 0.4177864416832748
0.40775794288765516 0.11539541363075578 0.5152677943509305
0.5187692961064235 -0.00536059272594654 0.5170445999844205
0.5144824357267378 0.10028550147991858 0.37458524458966713
0.6186152507055737 -0.0009258489432478544 0.4177864416832748
0.6077579428876552 0.11539541363075578 0.5152677943509305
0.7187692961064235 -0.00536059272594654 0.5170445999844205
0.7144824357267379 0.10028550147991858 0.37458524458966713
0.8186152507055736 -0.0009258489432478544 0.4177864416832748
0.8077579428876552 0.11539541363075578 0.5152677943509305
0.9187692961064235 -0.00536059272594654 0.5170445999844205
0.9144824357267378 0.10028550147991858 0.37458524458966713
0.018615250705573554 0.19907415105675216 0.4177864416832748
0.0077579428876551355 0.3153954136307558 0.5152677943509305
0.11876929610642342 0.1946394072740535 0.5170445999844205
0.11448243572673787 0.3002855014799186 0.37458524458966713
0.21861525070557355 0.19907415105675216 0.4177864416832748
0.20775794288765514 0.3153954136307558 0.5152677943509305
0.31876929610642346 0.1946394072740535 0.5170445999844205
0.3144824357267379 0.3002855014799186 0.37458524458966713
0.4186152507055736 0.19907415105675216 0.4177864416832748
0.40775794288765516 0.3153954136307558 0.5152677943509305
0.5187692961064235 0.1946394072740535 0.5170445999844205
0.5144824357267378 0.3002855014799186 0.37458524458966713
0.6186152507055737 0.19907415105675216 0.4177864416832748
0.6077579428876552 0.3153954136307558 0.5152677943509305
0.7187692961064235 0.1946394072740535 0.5170445999844205
0.7144824357267379 0.3002855014799186 0.37458524458966713
0.8186152507055736 0.19907415105675216 0.4177864416832748
0.8077579428876552 0.3153954136307558 0.5152677943509305
0.9187692961064235 0.1946394072740535 0.5170445999844205
0.9144824357267378 0.3002855014799186 0.37458524458966713
0.018615250705573554 0.39907415105675215 0.4177864416832748
0.0077579428876551355 0.5153954136307558 0.5152677943509305
0.11876929610642342 0.3946394072740535 0.5170445999844205
0.11448243572673787 0.5002855014799187 0.37458524458966713
0.21861525070557355 0.39907415105675215 0.4177864416832748
0.20775794288765514 0.5153954136307558 0.5152677943509305
0.31876929610642346 0.3946394072740535 0.5170445999844205
0.3144824357267379 0.5002855014799187 0.37458524458966713
0.4186152507055736 0.39907415105675215 0.4177864416832748
0.40775794288765516 0.5153954136307558 0.5152677943509305
0.5187692961064235 0.3946394072740535 0.5170445999844205
0.5144824357267378 0.5002855014799187 0.37458524458966713
0.6186152507055737 0.39907415105675215 0.4177864416832748
0.6077579428876552 0.5153954136307558 0.5152677943509305
0.7187692961064235 0.3946394072740535 0.5170445999844205
0.7144824357267379 0.5002855014799187 0.37458524458966713
0.8186152507055736 0.39907415105675215 0.4177864416832748
0.8077579428876552 0.5153954136307558 0.5152677943509305
0.9187692961064235 0.3946394072740535 0.5170445999844205
0.9144824357267378 0.5002855014799187 0.37458524458966713
0.018615250705573554 0.5990741510567522 0.4177864416832748
0.0077579428876551355 0.7153954136307559 0.5152677943509305
0.11876929610642342 0.5946394072740534 0.5170445999844205
0.11448243572673787 0.7002855014799186 0.37458524458966713
0.21861525070557355 0.5990741510567522 0.4177864416832748
0.20775794288765514 0.7153954136307559 0.5152677943509305
0.31876929610642346 0.5946394072740534 0.5170445999844205
0.3144824357267379 0.7002855014799186 0.37458524458966713
0.4186152507055736 0.5990741510567522 0.4177864416832748
0.40775794288765516 0.7153954136307559 0.5152677943509305
0.5187692961064235 0.5946394072740534 0.5170445999844205
0.5144824357267378 0.7002855014799186 0.37458524458966713
0.6186152507055737 0.5990741510567522 0.4177864416832748
0.6077579428876552 0.7153954136307559 0.5152677943509305
0.7187692961064235 0.5946394072740534 0.5170445999844205
0.7144824357267379 0.7002855014799186 0.37458524458966713
0.8186152507055736 0.5990741510567522 0.4177864416832748
0.8077579428876552 0.7153954136307559 0.5152677943509305
0.9187692961064235 0.5946394072740534 0.5170445999844205
0.9144824357267378 0.7002855014799186 0.37458524458966713
0.018615250705573554 0.7990741510567522 0.4177864416832748
0.0077579428876551355 0.9153954136307558 0.5152677943509305
0.11876929610642342 0.7946394072740535 0.5170445999844205
0.11448243572673787 0.9002855014799187 0.37458524458966713
0.21861525070557355 0.7990741510567522 0.4177864416832748
0.20775794288765514 0.9153954136307558 0.5152677943509305
0.31876929610642346 0.7946394072740535 0.5170445999844205
0.3144824357267379 0.9002855014799187 0.37458524458966713
0.4186152507055736 0.7990741510567522 0.4177864416832748
0.40775794288765516 0.9153954136307558 0.5152677943509305
0.5187692961064235 0.7946394072740535 0.5170445999844205
0.5144824357267378 0.9002855014799187 0.37458524458966713
0.6186152507055737 0.7990741510567522 0.4177864416832748
0.6077579428876552 0.9153954136307558 0.5152677943509305
0.7187692961064235 0.7946394072740535 0.5170445999844205
0.7144824357267379 0.9002855014799187 0.37458524458966713
0.8186152507055736 0.7990741510567522 0.4177864416832748
0.8077579428876552 0.9153954136307558 0.5152677943509305
0.9187692961064235 0.7946394072740535 0.5170445999844205
0.9144824357267378 0.9002855014799187 0.37458524458966713
0.018615250705573554 -0.0009258489432478544 0.6177864416832748
0.0077579428876551355 0.11539541363075578 0.7152677943509306
0.11876929610642342 -0.00536059272594654 0.7170445999844205
0.11448243572673787 0.10028550147991858 0.5745852445896672
0.21861525070557355 -0.0009258489432478544 0.6177864416832748
0.20775794288765514 0.11539541363075578 0.7152677943509306
0.31876929610642346 -0.00536059272594654 0.7170445999844205
0.3144824357267379 0.10028550147991858 0.5745852445896672
0.4186152507055736 -0.0009258489432478544 0.6177864416832748
0.40775794288765516 0.11539541363075578 0.7152677943509306
0.5187692961064235 -0.00536059272594654 0.7170445999844205
0.5144824357267378 0.10028550147991858 0.5745852445896672
0.6186152507055737 -0.0009258489432478544 0.6177864416832748
0.6077579428876552 0.11539541363075578 0.7152677943509306
0.7187692961064235 -0.00536059272594654 0.7170445999844205
0.7144824357267379 0.10028550147991858 0.5745852445896672
0.8186152507055736 -0.0009258489432478544 0.6177864416832748
0.8077579428876552 0.11539541363075578 0.7152677943509306
0.9187692961064235 -0.00536059272594654 0.7170445999844205
0.9144824357267378 0.10028550147991858 0.5745852445896672
0.018615250705573554 0.19907415105675216 0.6177864416832748
0.0077579428876551355 0.3153954136307558 0.7152677943509306
0.11876929610642342 0.1946394072740535 0.7170445999844205
0.11448243572673787 0.3002855014799186 0.5745852445896672
0.21861525070557355 0.19907415105675216 0.6177864416832748
0.20775794288765514 0.3153954136307558 0.7152677943509306
0.31876929610642346 0.1946394072740535 0.7170445999844205
0.3144824357267379 0.3002855014799186 0.5745852445896672
0.4186152507055736 0.19907415105675216 0.6177864416832748
0.40775794288765516 0.3153954136307558 0.7152677943509306
0.5187692961064235 0.1946394072740535 0.7170445999844205
0.5144824357267378 0.3002855014799186 0.5745852445896672
0.6186152507055737 0.19907415105675216 0.6177864416832748
0.6077579428876552 0.3153954136307558 0.7152677943509306
0.7187692961064235 0.1946394072740535 0.7170445999844205
0.7144824357267379 0.3002855014799186 0.5745852445896672
0.8186152507055736 0.19907415105675216 0.6177864416832748
0.8077579428876552 0.3153954136307558 0.7152677943509306
0.9187692961064235 0.1946394072740535 0.7170445999844205
0.9144824357267378 0.3002855014799186 0.5745852445896672
0.018615250705573554 0.39907415105675215 0.6177864416832748
0.0077579428876551355 0.5153954136307558 0.7152677943509306
0.11876929610642342 0.3946394072740535 0.7170445999844205
0.11448243572673787 0.5002855014799187 0.5745852445896672
0.21861525070557355 0.39907415105675215 0.6177864416832748
0.20775794288765514 0.5153954136307558 0.7152677943509306
0.31876929610642346 0.3946394072740535 0.7170445999844205
0.3144824357267379 0.5002855014799187 0.5745852445896672
0.4186152507055736 0.39907415105675215 0.6177864416832748
0.40775794288765516 0.5153954136307558 0.7152677943509306
0.5187692961064235 0.3946394072740535 0.7170445999844205
0.5144824357267378 0.5002855014799187 0.5745852445896672
0.6186152507055737 0.39907415105675215 0.6177864416832748
0.6077579428876552 0.5153954136307558 0.7152677943509306
0.7187692961064235 0.3946394072740535 0.7170445999844205
0.7144824357267379 0.5002855014799187 0.5745852445896672
0.8186152507055736 0.39907415105675215 0.6177864416832748
0.8077579428876552 0.5153954136307558 0.7152677943509306
0.9187692961064235 0.3946394072740535 0.7170445999844205
0.9144824357267378 0.5002855014799187 0.5745852445896672
0.018615250705573554 0.5990741510567522 0.6177864416832748
0.0077579428876551355 0.7153954136307559 0.7152677943509306
0.11876929610642342 0.5946394072740534 0.7170445999844205
0.11448243572673787 0.7002855014799186 0.5745852445896672
0.21861525070557355 0.5990741510567522 0.6177864416832748
0.20775794288765514 0.7153954136307559 0.7152677943509306
0.31876929610642346 0.5946394072740534 0.7170445999844205
0.3144824357267379 0.7002855014799186 0.5745852445896672
0.4186152507055736 0.5990741510567522 0.6177864416832748
0.40775794288765516 0.7153954136307559 0.7152677943509306
0.5187692961064235 0.5946394072740534 0.7170445999844205
0.5144824357267378 0.7002855014799186 0.5745852445896672
0.6186152507055737 0.5990741510567522 0.6177864416832748
0.6077579428876552 0.7153954136307559 0.7152677943509306
0.7187692961064235 0.5946394072740534 0.7170445999844205
0.7144824357267379 0.7002855014799186 0.5745852445896672
0.8186152507055736 0.5990741510567522 0.6177864416832748
0.8077579428876552 0.7153954136307559 0.7152677943509306
0.9187692961064235 0.5946394072740534 0.7170445999844205
0.9144824357267378 0.7002855014799186 0.5745852445896672
0.018615250705573554 0.7990741510567522 0.6177864416832748
0.0077579428876551355 0.9153954136307558 0.7152677943509306
0.11876929610642342 0.7946394072740535 0.7170445999844205
0.11448243572673787 0.9002855014799187 0.5745852445896672
0.21861525070557355 0.7990741510567522 0.6177864416832748
0.20775794288765514 0.9153954136307558 0.7152677943509306
0.31876929610642346 0.7946394072740535 0.7170445999844205
0.3144824357267379 0.9002855014799187 0.5745852445896672
0.4186152507055736 0.7990741510567522 0.6177864416832748
0.40775794288765516 0.9153954136307558 0.7152677943509306
0.5187692961064235 0.7946394072740535 0.7170445999844205
0.5144824357267378 0.9002855014799187 0.5745852445896672
0.6186152507055737 0.7990741510567522 0.6177864416832748
0.6077579428876552 0.9153954136307558 0.7152677943509306
0.7187692961064235 0.7946394072740535 0.7170445999844205
0.7144824357267379 0.9002855014799187 0.5745852445896672
0.8186152507055736 0.7990741510567522 0.6177864416832748
0.8077579428876552 0.9153954136307558 0.7152677943509306
0.9187692961064235 0.7946394072740535 0.7170445999844205
0.9144824357267378 0.9002855014799187 0.5745852445896672
0.018615250705573554 -0.0009258489432478544 0.8177864416832747
0.0077579428876551355 0.11539541363075578 0.9152677943509305
0.11876929610642342 -0.00536059272594654 0.9170445999844206
0.11448243572673787 0.10028550147991858 0.7745852445896673
0.21861525070557355 -0.0009258489432478544 0.8177864416832747
0.20775794288765514 0.11539541363075578 0.9152677943509305
0.31876929610642346 -0.00536059272594654 0.9170445999844206
0.3144824357267379 0.10028550147991858 0.7745852445896673
0.4186152507055736 -0.0009258489432478544 0.8177864416832747
0.40775794288765516 0.11539541363075578 0.9152677943509305
0.5187692961064235 -0.00536059272594654 0.9170445999844206
0.5144824357267378 0.10028550147991858 0.7745852445896673
0.6186152507055737 -0.0009258489432478544 0.8177864416832747
0.6077579428876552 0.11539541363075578 0.9152677943509305
0.7187692961064235 -0.00536059272594654 0.9170445999844206
0.7144824357267379 0.10028550147991858 0.7745852445896673
0.8186152507055736 -0.0009258489432478544 0.8177864416832747
0.8077579428876552 0.11539541363075578 0.9152677943509305
0.9187692961064235 -0.00536059272594654 0.9170445999844206
0.9144824357267378 0.10028550147991858 0.7745852445896673
0.018615250705573554 0.19907415105675216 0.8177864416832747
0.0077579428876551355 0.3153954136307558 0.9152677943509305
0.11876929610642342 0.1946394072740535 0.9170445999844206
0.11448243572673787 0.3002855014799186 0.7745852445896673
0.21861525070557355 0.19907415105675216 0.8177864416832747
0.20775794288765514 0.3153954136307558 0.9152677943509305
0.31876929610642346 0.1946394072740535 0.9170445999844206
0.3144824357267379 0.3002855014799186 0.7745852445896673
0.4186152507055736 0.19907415105675216 0.8177864416832747
0.40775794288765516 0.3153954136307558 0.9152677943509305
0.5187692961064235 0.1946394072740535 0.9170445999844206
0.5144824357267378 0.3002855014799186 0.7745852445896673
0.6186152507055737 0.19907415105675216 0.8177864416832747
0.6077579428876552 0.3153954136307558 0.9152677943509305
0.7187692961064235 0.1946394072740535 0.9170445999844206
0.7144824357267379 0.3002855014799186 0.7745852445896673
0.8186152507055736 0.19907415105675216 0.8177864416832747
0.8077579428876552 0.3153954136307558 0.9152677943509305
0.9187692961064235 0.1946394072740535 0.9170445999844206
0.9144824357267378 0.3002855014799186 0.7745852445896673
0.018615250705573554 0.39907415105675215 0.8177864416832747
0.0077579428876551355 0.5153954136307558 0.9152677943509305
0.11876929610642342 0.3946394072740535 0.9170445999844206
0.11448243572673787 0.5002855014799187 0.7745852445896673
0.21861525070557355 0.39907415105675215 0.8177864416832747
0.20775794288765514 0.5153954136307558 0.9152677943509305
0.31876929610642346 0.3946394072740535 0.9170445999844206
0.3144824357267379 0.5002855014799187 0.7745852445896673
0.4186152507055736 0.39907415105675215 0.8177864416832747
0.40775794288765516 0.5153954136307558 0.9152677943509305
0.5187692961064235 0.3946394072740535 0.9170445999844206
0.5144824357267378 0.5002855014799187 0.7745852445896673
0.6186152507055737 0.39907415105675215 0.8177864416832747
0.6077579428876552 0.5153954136307558 0.9152677943509305
0.7187692961064235 0.3946394072740535 0.9170445999844206
0.7144824357267379 0.5002855014799187 0.7745852445896673
0.8186152507055736 0.39907415105675215 0.8177864416832747
0.8077579428876552 0.5153954136307558 0.9152677943509305
0.9187692961064235 0.3946394072740535 0.9170445999844206
0.9144824357267378 0.5002855014799187 0.7745852445896673
0.018615250705573554 0.5990741510567522 0.8177864416832747
0.0077579428876551355 0.7153954136307559 0.9152677943509305
0.11876929610642342 0.5946394072740534 0.9170445999844206
0.11448243572673787 0.7002855014799186 0.7745852445896673
0.21861525070557355 0.5990741510567522 0.8177864416832747
0.20775794288765514 0.7153954136307559 0.9152677943509305
0.31876929610642346 0.5946394072740534 0.9170445999844206
0.3144824357267379 0.7002855014799186 0.7745852445896673
0.4186152507055736 0.5990741510567522 0.8177864416832747
0.40775794288765516 0.7153954136307559 0.9152677943509305
0.5187692961064235 0.5946394072740534 0.9170445999844206
0.5144824357267378 0.7002855014799186 0.7745852445896673
0.6186152507055737 0.5990741510567522 0.8177864416832747
0.6077579428876552 0.7153954136307559 0.9152677943509305
0.7187692961064235 0.5946394072740534 0.9170445999844206
0.7144824357267379 0.7002855014799186 0.7745852445896673
0.8186152507055736 0.5990741510567522 0.8177864416832747
0.8077579428876552 0.7153954136307559 0.9152677943509305
0.9187692961064235 0.5946394072740534 0.9170445999844206
0.9144824357267378 0.7002855014799186 0.7745852445896673
0.018615250705573554 0.7990741510567522 0.8177864416832747
0.0077579428876551355 0.9153954136307558 0.9152677943509305
0.11876929610642342 0.7946394072740535 0.9170445999844206
0.11448243572673787 0.9002855014799187 0.7745852445896673
0.21861525070557355 0.7990741510567522 0.8177864416832747
0.20775794288765514 0.9153954136307558 0.9152677943509305
0.31876929610642346 0.7946394072740535 0.9170445999844206
0.3144824357267379 0.9002855014799187 0.7745852445896673
0.4186152507055736 0.7990741510567522 0.8177864416832747
0.40775794288765516 0.9153954136307558 0.9152677943509305
0.5187692961064235 0.7946394072740535 0.9170445999844206
0.5144824357267378 0.9002855014799187 0.7745852445896673
0.6186152507055737 0.7990741510567522 0.8177864416832747
0.6077579428876552 0.9153954136307558 0.9152677943509305
0.7187692961064235 0.7946394072740535 0.9170445999844206
0.7144824357267379 0.9002855014799187 0.7745852445896673
0.8186152507055736 0.7990741510567522 0.8177864416832747
0.8077579428876552 0.9153954136307558 0.9152677943509305
0.9187692961064235 0.7946394072740535 0.9170445999844206
0.9144824357267378 0.9002855014799187 0.7745852445896673
0.10793795750468815 -0.010454816015448808 0.02860326977105599
-0.022821648187512443 0.0759451870781518 0.025247545377394376
0.002633676453024005 -0.008305431126816467 0.11939049598238938
0.09837012880995638 0.10379667778647457 0.12421307271364385
0.30793795750468816 -0.010454816015448808 0.02860326977105599
0.17717835181248756 0.0759451870781518 0.025247545377394376
0.20263367645302402 -0.008305431126816467 0.11939049598238938
0.2983701288099564 0.10379667778647457 0.12421307271364385
0.5079379575046882 -0.010454816015448808 0.02860326977105599
0.3771783518124876 0.0759451870781518 0.025247545377394376
0.402633676453024 -0.008305431126816467 0.11939049598238938
0.4983701288099564 0.10379667778647457 0.12421307271364385
0.7079379575046882 -0.010454816015448808 0.02860326977105599
0.5771783518124876 0.0759451870781518 0.025247545377394376
0.602633676453024 -0.008305431126816467 0.11939049598238938
0.6983701288099564 0.10379667778647457 0.12421307271364385
0.9079379575046883 -0.010454816015448808 0.02860326977105599
0.7771783518124876 0.0759451870781518 0.025247545377394376
0.8026336764530241 -0.008305431126816467 0.11939049598238938
0.8983701288099564 0.10379667778647457 0.12421307271364385
0.10793795750468815 0.18954518398455122 0.02860326977105599
-0.022821648187512443 0.2759451870781518 0.025247545377394376
0.002633676453024005 0.19169456887318354 0.11939049598238938
0.09837012880995638 0.3037966777864746 0.12421307271364385
0.30793795750468816 0.18954518398455122 0.02860326977105599
0.17717835181248756 0.2759451870781518 0.025247545377394376
0.20263367645302402 0.19169456887318354 0.11939049598238938
0.2983701288099564 0.3037966777864746 0.12421307271364385
0.5079379575046882 0.18954518398455122 0.02860326977105599
0.3771783518124876 0.2759451870781518 0.025247545377394376
0.402633676453024 0.19169456887318354 0.11939049598238938
0.4983701288099564 0.3037966777864746 0.12421307271364385
0.7079379575046882 0.18954518398455122 0.02860326977105599
0.5771783518124876 0.2759451870781518 0.025247545377394376
0.602633676453024 0.19169456887318354 0.11939049598238938
0.6983701288099564 0.3037966777864746 0.12421307271364385
0.9079379575046883 0.18954518398455122 0.02860326977105599
0.7771783518124876 0.2759451870781518 0.025247545377394376
0.8026336764530241 0.19169456887318354 0.11939049598238938
0.8983701288099564 0.3037966777864746 0.12421307271364385
0.10793795750468815 0.3895451839845512 0.02860326977105599
-0.022821648187512443 0.47594518707815187 0.025247545377394376
0.002633676453024005 0.39169456887318355 0.11939049598238938
0.09837012880995638 0.5037966777864746 0.12421307271364385
0.30793795750468816 0.3895451839845512 0.02860326977105599
0.17717835181248756 0.47594518707815187 0.025247545377394376
0.20263367645302402 0.39169456887318355 0.11939049598238938
0.2983701288099564 0.5037966777864746 0.12421307271364385
0.5079379575046882 0.3895451839845512 0.02860326977105599
0.3771783518124876 0.47594518707815187 0.025247545377394376
0.402633676453024 0.39169456887318355 0.11939049598238938
0.4983701288099564 0.5037966777864746 0.12421307271364385
0.7079379575046882 0.3895451839845512 0.02860326977105599
0.5771783518124876 0.47594518707815187 0.025247545377394376
0.602633676453024 0.39169456887318355 0.11939049598238938
0.6983701288099564 0.5037966777864746 0.12421307271364385
0.9079379575046883 0.3895451839845512 0.02860326977105599
0.7771783518124876 0.47594518707815187 0.025247545377394376
0.8026336764530241 0.39169456887318355 0.11939049598238938
0.8983701288099564 0.5037966777864746 0.12421307271364385
0.10793795750468815 0.5895451839845512 0.02860326977105599
-0.022821648187512443 0.6759451870781519 0.025247545377394376
0.002633676453024005 0.5916945688731835 0.11939049598238938
0.09837012880995638 0.7037966777864746 0.12421307271364385
0.30793795750468816 0.5895451839845512 0.02860326977105599
0.17717835181248756 0.6759451870781519 0.025247545377394376
0.20263367645302402 0.5916945688731835 0.11939049598238938
0.2983701288099564 0.7037966777864746 0.12421307271364385
0.5079379575046882 0.5895451839845512 0.02860326977105599
0.3771783518124876 0.6759451870781519 0.025247545377394376
0.402633676453024 0.5916945688731835 0.11939049598238938
0.4983701288099564 0.7037966777864746 0.12421307271364385
0.7079379575046882 0.5895451839845512 0.02860326977105599
0.5771783518124876 0.6759451870781519 0.025247545377394376
0.602633676453024 0.5916945688731835 0.11939049598238938
0.6983701288099564 0.7037966777864746 0.12421307271364385
0.9079379575046883 0.5895451839845512 0.02860326977105599
0.7771783518124876 0.6759451870781519 0.025247545377394376
0.8026336764530241 0.5916945688731835 0.11939049598238938
0.8983701288099564 0.7037966777864746 0.12421307271364385
0.10793795750468815 0.7895451839845512 0.02860326977105599
-0.022821648187512443 0.8759451870781518 0.025247545377394376
0.002633676453024005 0.7916945688731836 0.11939049598238938
0.09837012880995638 0.9037966777864747 0.12421307271364385
0.30793795750468816 0.7895451839845512 0.02860326977105599
0.17717835181248756 0.8759451870781518 0.025247545377394376
0.20263367645302402 0.7916945688731836 0.11939049598238938
0.2983701288099564 0.9037966777864747 0.12421307271364385
0.5079379575046882 0.7895451839845512 0.02860326977105599
0.3771783518124876 0.8759451870781518 0.025247545377394376
0.402633676453024 0.7916945688731836 0.11939049598238938
0.4983701288099564 0.9037966777864747 0.12421307271364385
0.7079379575046882 0.7895451839845512 0.02860326977105599
0.5771783518124876 0.8759451870781518 0.025247545377394376
0.602633676453024 0.7916945688731836 0.11939049598238938
0.6983701288099564 0.9037966777864747 0.12421307271364385
0.9079379575046883 0.7895451839845512 0.02860326977105599
0.7771783518124876 0.8759451870781518 0.025247545377394376
0.8026336764530241 0.7916945688731836 0.11939049598238938
0.8983701288099564 0.9037966777864747 0.12421307271364385
0.10793795750468815 -0.010454816015448808 0.22860326977105602
-0.022821648187512443 0.0759451870781518 0.2252475453773944
0.002633676453024005 -0.008305431126816467 0.31939049598238944
0.09837012880995638 0.10379667778647457 0.32421307271364386
0.30793795750468816 -0.010454816015448808 0.22860326977105602
0.17717835181248756 0.0759451870781518 0.2252475453773944
0.20263367645302402 -0.008305431126816467 0.31939049598238944
0.2983701288099564 0.10379667778647457 0.32421307271364386
0.5079379575046882 -0.010454816015448808 0.22860326977105602
0.3771783518124876 0.0759451870781518 0.2252475453773944
0.402633676453024 -0.008305431126816467 0.31939049598238944
0.4983701288099564 0.10379667778647457 0.32421307271364386
0.7079379575046882 -0.010454816015448808 0.22860326977105602
0.5771783518124876 0.0759451870781518 0.2252475453773944
0.602633676453024 -0.008305431126816467 0.31939049598238944
0.6983701288099564 0.10379667778647457 0.32421307271364386
0.9079379575046883 -0.010454816015448808 0.22860326977105602
0.7771783518124876 0.0759451870781518 0.2252475453773944
0.8026336764530241 -0.008305431126816467 0.31939049598238944
0.8983701288099564 0.10379667778647457 0.32421307271364386
0.10793795750468815 0.18954518398455122 0.22860326977105602
-0.022821648187512443 0.2759451870781518 0.2252475453773944
0.002633676453024005 0.19169456887318354 0.31939049598238944
0.09837012880995638 0.3037966777864746 0.32421307271364386
0.30793795750468816 0.18954518398455122 0.22860326977105602
0.17717835181248756 0.2759451870781518 0.2252475453773944
0.20263367645302402 0.19169456887318354 0.31939049598238944
0.2983701288099564 0.3037966777864746 0.32421307271364386
0.5079379575046882 0.18954518398455122 0.22860326977105602
0.3771783518124876 0.2759451870781518 0.2252475453773944
0.402633676453024 0.19169456887318354 0.31939049598238944
0.4983701288099564 0.3037966777864746 0.32421307271364386
0.7079379575046882 0.18954518398455122 0.22860326977105602
0.5771783518124876 0.2759451870781518 0.2252475453773944
0.602633676453024 0.19169456887318354 0.31939049598238944
0.6983701288099564 0.3037966777864746 0.32421307271364386
0.9079379575046883 0.18954518398455122 0.22860326977105602
0.7771783518124876 0.2759451870781518 0.2252475453773944
0.8026336764530241 0.19169456887318354 0.31939049598238944
0.8983701288099564 0.3037966777864746 0.32421307271364386
0.10793795750468815 0.3895451839845512 0.22860326977105602
-0.022821648187512443 0.47594518707815187 0.2252475453773944
0.002633676453024005 0.39169456887318355 0.31939049598238944
0.09837012880995638 0.5037966777864746 0.32421307271364386
0.30793795750468816 0.3895451839845512 0.22860326977105602
0.17717835181248756 0.47594518707815187 0.2252475453773944
0.20263367645302402 0.39169456887318355 0.31939049598238944
0.2983701288099564 0.5037966777864746 0.32421307271364386
0.5079379575046882 0.3895451839845512 0.22860326977105602
0.3771783518124876 0.47594518707815187 0.2252475453773944
0.402633676453024 0.39169456887318355 0.31939049598238944
0.4983701288099564 0.5037966777864746 0.32421307271364386
0.7079379575046882 0.3895451839845512 0.22860326977105602
0.5771783518124876 0.47594518707815187 0.2252475453773944
0.602633676453024 0.39169456887318355 0.31939049598238944
0.6983701288099564 0.5037966777864746 0.32421307271364386
0.9079379575046883 0.3895451839845512 0.22860326977105602
0.7771783518124876 0.47594518707815187 0.2252475453773944
0.8026336764530241 0.39169456887318355 0.31939049598238944
0.8983701288099564 0.5037966777864746 0.32421307271364386
0.10793795750468815 0.5895451839845512 0.22860326977105602
-0.022821648187512443 0.6759451870781519 0.2252475453773944
0.002633676453024005 0.5916945688731835 0.31939049598238944
0.09837012880995638 0.7037966777864746 0.32421307271364386
0.30793795750468816 0.5895451839845512 0.22860326977105602
0.17717835181248756 0.6759451870781519 0.2252475453773944
0.20263367645302402 0.5916945688731835 0.31939049598238944
0.2983701288099564 0.7037966777864746 0.32421307271364386
0.5079379575046882 0.5895451839845512 0.22860326977105602
0.3771783518124876 0.6759451870781519 0.2252475453773944
0.402633676453024 0.5916945688731835 0.31939049598238944
0.4983701288099564 0.7037966777864746 0.32421307271364386
0.7079379575046882 0.5895451839845512 0.22860326977105602
0.5771783518124876 0.6759451870781519 0.2252475453773944
0.602633676453024 0.5916945688731835 0.31939049598238944
0.6983701288099564 0.7037966777864746 0.32421307271364386
0.9079379575046883 0.5895451839845512 0.22860326977105602
0.7771783518124876 0.6759451870781519 0.2252475453773944
0.8026336764530241 0.5916945688731835 0.31939049598238944
0.8983701288099564 0.7037966777864746 0.32421307271364386
0.10793795750468815 0.7895451839845512 0.22860326977105602
-0.022821648187512443 0.8759451870781518 0.2252475453773944
0.002633676453024005 0.7916945688731836 0.31939049598238944
0.09837012880995638 0.9037966777864747 0.32421307271364386
0.30793795750468816 0.7895451839845512 0.22860326977105602
0.17717835181248756 0.8759451870781518 0.2252475453773944
0.20263367645302402 0.7916945688731836 0.31939049598238944
0.2983701288099564 0.9037966777864747 0.32421307271364386
0.5079379575046882 0.7895451839845512 0.22860326977105602
0.3771783518124876 0.8759451870781518 0.2252475453773944
0.402633676453024 0.7916945688731836 0.31939049598238944
0.4983701288099564 0.9037966777864747 0.32421307271364386
0.7079379575046882 0.7895451839845512 0.22860326977105602
0.5771783518124876 0.8759451870781518 0.2252475453773944
0.602633676453024 0.7916945688731836 0.31939049598238944
0.6983701288099564 0.9037966777864747 0.32421307271364386
0.9079379575046883 0.7895451839845512 0.22860326977105602
0.7771783518124876 0.8759451870781518 0.2252475453773944
0.8026336764530241 0.7916945688731836 0.31939049598238944
0.8983701288099564 0.9037966777864747 0.32421307271364386
0.10793795750468815 -0.010454816015448808 0.428603269771056
-0.022821648187512443 0.0759451870781518 0.42524754537739434
0.002633676453024005 -0.008305431126816467 0.5193904959823894
0.09837012880995638 0.10379667778647457 0.5242130727136439
0.30793795750468816 -0.010454816015448808 0.428603269771056
0.17717835181248756 0.0759451870781518 0.42524754537739434
0.20263367645302402 -0.008305431126816467 0.5193904959823894
0.2983701288099564 0.10379667778647457 0.5242130727136439
0.5079379575046882 -0.010454816015448808 0.428603269771056
0.3771783518124876 0.0759451870781518 0.42524754537739434
0.402633676453024 -0.008305431126816467 0.5193904959823894
0.4983701288099564 0.10379667778647457 0.5242130727136439
0.7079379575046882 -0.010454816015448808 0.428603269771056
0.5771783518124876 0.0759451870781518 0.42524754537739434
0.602633676453024 -0.008305431126816467 0.5193904959823894
0.6983701288099564 0.10379667778647457 0.5242130727136439
0.9079379575046883 -0.010454816015448808 0.428603269771056
0.7771783518124876 0.0759451870781518 0.42524754537739434
0.8026336764530241 -0.008305431126816467 0.5193904959823894
0.8983701288099564 0.10379667778647457 0.5242130727136439
0.10793795750468815 0.18954518398455122 0.428603269771056
-0.022821648187512443 0.2759451870781518 0.42524754537739434
0.002633676453024005 0.19169456887318354 0.5193904959823894
0.09837012880995638 0.3037966777864746 0.5242130727136439
0.30793795750468816 0.18954518398455122 0.428603269771056
0.17717835181248756 0.2759451870781518 0.42524754537739434
0.20263367645302402 0.19169456887318354 0.5193904959823894
0.2983701288099564 0.3037966777864746 0.5242130727136439
0.5079379575046882 0.18954518398455122 0.428603269771056
0.3771783518124876 0.2759451870781518 0.42524754537739434
0.402633676453024 0.19169456887318354 0.5193904959823894
0.4983701288099564 0.3037966777864746 0.5242130727136439
0.7079379575046882 0.18954518398455122 0.428603269771056
0.5771783518124876 0.2759451870781518 0.42524754537739434
0.602633676453024 0.19169456887318354 0.5193904959823894
0.6983701288099564 0.3037966777864746 0.5242130727136439
0.9079379575046883 0.18954518398455122 0.428603269771056
0.7771783518124876 0.2759451870781518 0.42524754537739434
0.8026336764530241 0.19169456887318354 0.5193904959823894
0.8983701288099564 0.3037966777864746 0.5242130727136439
0.10793795750468815 0.3895451839845512 0.428603269771056
-0.022821648187512443 0.47594518707815187 0.42524754537739434
0.002633676453024005 0.39169456887318355 0.5193904959823894
0.09837012880995638 0.5037966777864746 0.5242130727136439
0.30793795750468816 0.3895451839845512 0.428603269771056
0.17717835181248756 0.47594518707815187 0.42524754537739434
0.20263367645302402 0.39169456887318355 0.5193904959823894
0.2983701288099564 0.5037966777864746 0.5242130727136439
0.5079379575046882 0.3895451839845512 0.428603269771056
0.3771783518124876 0.47594518707815187 0.42524754537739434
0.402633676453024 0.39169456887318355 0.5193904959823894
0.4983701288099564 0.5037966777864746 0.5242130727136439
0.7079379575046882 0.3895451839845512 0.428603269771056
0.5771783518124876 0.47594518707815187 0.42524754537739434
0.602633676453024 0.39169456887318355 0.5193904959823894
0.6983701288099564 0.5037966777864746 0.5242130727136439
0.9079379575046883 0.3895451839845512 0.428603269771056
0.7771783518124876 0.47594518707815187 0.42524754537739434
0.8026336764530241 0.39169456887318355 0.5193904959823894
0.8983701288099564 0.5037966777864746 0.5242130727136439
0.10793795750468815 0.5895451839845512 0.428603269771056
-0.022821648187512443 0.6759451870781519 0.42524754537739434
0.002633676453024005 0.5916945688731835 0.5193904959823894
0.09837012880995638 0.7037966777864746 0.5242130727136439
0.30793795750468816 0.5895451839845512 0.428603269771056
0.17717835181248756 0.6759451870781519 0.42524754537739434
0.20263367645302402 0.5916945688731835 0.5193904959823894
0.2983701288099564 0.7037966777864746 0.5242130727136439
0.5079379575046882 0.5895451839845512 0.428603269771056
0.3771783518124876 0.6759451870781519 0.42524754537739434
0.402633676453024 0.5916945688731835 0.5193904959823894
0.4983701288099564 0.7037966777864746 0.5242130727136439
0.7079379575046882 0.5895451839845512 0.428603269771056
0.5771783518124876 0.6759451870781519 0.42524754537739434
0.602633676453024 0.5916945688731835 0.5193904959823894
0.6983701288099564 0.7037966777864746 0.5242130727136439
0.9079379575046883 0.5895451839845512 0.428603269771056
0.7771783518124876 0.6759451870781519 0.42524754537739434
0.8026336764530241 0.5916945688731835 0.5193904959823894
0.8983701288099564 0.7037966777864746 0.5242130727136439
0.10793795750468815 0.7895451839845512 0.428603269771056
-0.022821648187512443 0.8759451870781518 0.42524754537739434
0.002633676453024005 0.7916945688731836 0.5193904959823894
0.09837012880995638 0.9037966777864747 0.5242130727136439
0.30793795750468816 0.7895451839845512 0.428603269771056
0.17717835181248756 0.8759451870781518 0.42524754537739434
0.20263367645302402 0.7916945688731836 0.5193904959823894
0.2983701288099564 0.9037966777864747 0.5242130727136439
0.5079379575046882 0.7895451839845512 0.428603269771056
0.3771783518124876 0.8759451870781518 0.42524754537739434
0.402633676453024 0.7916945688731836 0.5193904959823894
0.4983701288099564 0.9037966777864747 0.5242130727136439
0.7079379575046882 0.7895451839845512 0.428603269771056
0.5771783518124876 0.8759451870781518 0.42524754537739434
0.602633676453024 0.7916945688731836 0.5193904959823894
0.6983701288099564 0.9037966777864747 0.5242130727136439
0.9079379575046883 0.7895451839845512 0.428603269771056
0.7771783518124876 0.8759451870781518 0.42524754537739434
0.8026336764530241 0.7916945688731836 0.5193904959823894
0.8983701288099564 0.9037966777864747 0.5242130727136439
0.10793795750468815 -0.010454816015448808 0.6286032697710561
-0.022821648187512443 0.0759451870781518 0.6252475453773944
0.002633676453024005 -0.008305431126816467 0.7193904959823895
0.09837012880995638 0.10379667778647457 0.7242130727136439
0.30793795750468816 -0.010454816015448808 0.6286032697710561
0.17717835181248756 0.0759451870781518 0.6252475453773944
0.20263367645302402 -0.008305431126816467 0.7193904959823895
0.2983701288099564 0.10379667778647457 0.7242130727136439
0.5079379575046882 -0.010454816015448808 0.6286032697710561
0.3771783518124876 0.0759451870781518 0.6252475453773944
0.402633676453024 -0.008305431126816467 0.7193904959823895
0.4983701288099564 0.10379667778647457 0.7242130727136439
0.7079379575046882 -0.010454816015448808 0.6286032697710561
0.5771783518124876 0.0759451870781518 0.6252475453773944
0.602633676453024 -0.008305431126816467 0.7193904959823895
0.6983701288099564 0.10379667778647457 0.7242130727136439
0.9079379575046883 -0.010454816015448808 0.6286032697710561
0.7771783518124876 0.0759451870781518 0.6252475453773944
0.8026336764530241 -0.008305431126816467 0.7193904959823895
0.8983701288099564 0.10379667778647457 0.7242130727136439
0.10793795750468815 0.18954518398455122 0.6286032697710561
-0.022821648187512443 0.2759451870781518 0.6252475453773944
0.002633676453024005 0.19169456887318354 0.7193904959823895
0.09837012880995638 0.3037966777864746 0.7242130727136439
0.30793795750468816 0.18954518398455122 0.6286032697710561
0.17717835181248756 0.2759451870781518 0.6252475453773944
0.20263367645302402 0.19169456887318354 0.7193904959823895
0.2983701288099564 0.3037966777864746 0.7242130727136439
0.5079379575046882 0.18954518398455122 0.6286032697710561
0.3771783518124876 0.2759451870781518 0.6252475453773944
0.402633676453024 0.19169456887318354 0.7193904959823895
0.4983701288099564 0.3037966777864746 0.7242130727136439
0.7079379575046882 0.18954518398455122 0.6286032697710561
0.5771783518124876 0.2759451870781518 0.6252475453773944
0.602633676453024 0.19169456887318354 0.7193904959823895
0.6983701288099564 0.3037966777864746 0.7242130727136439
0.9079379575046883 0.18954518398455122 0.6286032697710561
0.7771783518124876 0.2759451870781518 0.6252475453773944
0.8026336764530241 0.19169456887318354 0.7193904959823895
0.8983701288099564 0.3037966777864746 0.7242130727136439
0.10793795750468815 0.3895451839845512 0.6286032697710561
-0.022821648187512443 0.47594518707815187 0.6252475453773944
0.002633676453024005 0.39169456887318355 0.7193904959823895
0.09837012880995638 0.5037966777864746 0.7242130727136439
0.30793795750468816 0.3895451839845512 0.6286032697710561
0.17717835181248756 0.47594518707815187 0.6252475453773944
0.20263367645302402 0.39169456887318355 0.7193904959823895
0.2983701288099564 0.5037966777864746 0.7242130727136439
0.5079379575046882 0.3895451839845512 0.6286032697710561
0.3771783518124876 0.47594518707815187 0.6252475453773944
0.402633676453024 0.39169456887318355 0.7193904959823895
0.4983701288099564 0.5037966777864746 0.7242130727136439
0.7079379575046882 0.3895451839845512 0.6286032697710561
0.5771783518124876 0.47594518707815187 0.6252475453773944
0.602633676453024 0.39169456887318355 0.7193904959823895
0.6983701288099564 0.5037966777864746 0.7242130727136439
0.9079379575046883 0.3895451839845512 0.6286032697710561
0.7771783518124876 0.47594518707815187 0.6252475453773944
0.8026336764530241 0.39169456887318355 0.7193904959823895
0.8983701288099564 0.5037966777864746 0.7242130727136439
0.10793795750468815 0.5895451839845512 0.6286032697710561
-0.022821648187512443 0.6759451870781519 0.6252475453773944
0.002633676453024005 0.5916945688731835 0.7193904959823895
0.09837012880995638 0.7037966777864746 0.7242130727136439
0.30793795750468816 0.5895451839845512 0.6286032697710561
0.17717835181248756 0.6759451870781519 0.6252475453773944
0.20263367645302402 0.5916945688731835 0.7193904959823895
0.2983701288099564 0.7037966777864746 0.7242130727136439
0.5079379575046882 0.5895451839845512 0.6286032697710561
0.3771783518124876 0.6759451870781519 0.6252475453773944
0.402633676453024 0.5916945688731835 0.7193904959823895
0.4983701288099564 0.7037966777864746 0.7242130727136439
0.7079379575046882 0.5895451839845512 0.6286032697710561
0.5771783518124876 0.6759451870781519 0.6252475453773944
0.602633676453024 0.5916945688731835 0.7193904959823895
0.6983701288099564 0.7037966777864746 0.7242130727136439
0.9079379575046883 0.5895451839845512 0.6286032697710561
0.7771783518124876 0.6759451870781519 0.6252475453773944
0.8026336764530241 0.5916945688731835 0.7193904959823895
0.8983701288099564 0.7037966777864746 0.7242130727136439
0.10793795750468815 0.7895451839845512 0.6286032697710561
-0.022821648187512443 0.8759451870781518 0.6252475453773944
0.002633676453024005 0.7916945688731836 0.7193904959823895
0.09837012880995638 0.9037966777864747 0.7242130727136439
0.30793795750468816 0.7895451839845512 0.6286032697710561
0.17717835181248756 0.8759451870781518 0.6252475453773944
0.20263367645302402 0.7916945688731836 0.7193904959823895
0.2983701288099564 0.9037966777864747 0.7242130727136439
0.5079379575046882 0.7895451839845512 0.6286032697710561
0.3771783518124876 0.8759451870781518 0.6252475453773944
0.402633676453024 0.7916945688731836 0.7193904959823895
0.4983701288099564 0.9037966777864747 0.7242130727136439
0.7079379575046882 0.7895451839845512 0.6286032697710561
0.5771783518124876 0.8759451870781518 0.6252475453773944
0.602633676453024 0.7916945688731836 0.7193904959823895
0.6983701288099564 0.9037966777864747 0.7242130727136439
0.9079379575046883 0.7895451839845512 0.6286032697710561
0.7771783518124876 0.8759451870781518 0.6252475453773944
0.8026336764530241 0.7916945688731836 0.7193904959823895
0.8983701288099564 0.9037966777864747 0.7242130727136439
0.10793795750468815 -0.010454816015448808 0.828603269771056
-0.022821648187512443 0.0759451870781518 0.8252475453773944
0.002633676453024005 -0.008305431126816467 0.9193904959823893
0.09837012880995638 0.10379667778647457 0.9242130727136438
0.30793795750468816 -0.010454816015448808 0.828603269771056
0.17717835181248756 0.0759451870781518 0.8252475453773944
0.20263367645302402 -0.008305431126816467 0.9193904959823893
0.2983701288099564 0.10379667778647457 0.9242130727136438
0.5079379575046882 -0.010454816015448808 0.828603269771056
0.3771783518124876 0.0759451870781518 0.8252475453773944
0.402633676453024 -0.008305431126816467 0.9193904959823893
0.4983701288099564 0.10379667778647457 0.9242130727136438
0.7079379575046882 -0.010454816015448808 0.828603269771056
0.5771783518124876 0.0759451870781518 0.8252475453773944
0.602633676453024 -0.008305431126816467 0.9193904959823893
0.6983701288099564 0.10379667778647457 0.9242130727136438
0.9079379575046883 -0.010454816015448808 0.828603269771056
0.7771783518124876 0.0759451870781518 0.8252475453773944
0.8026336764530241 -0.008305431126816467 0.9193904959823893
0.8983701288099564 0.10379667778647457 0.9242130727136438
0.10793795750468815 0.18954518398455122 0.828603269771056
-0.022821648187512443 0.2759451870781518 0.8252475453773944
0.002633676453024005 0.19169456887318354 0.9193904959823893
0.09837012880995638 0.3037966777864746 0.9242130727136438
0.30793795750468816 0.18954518398455122 0.828603269771056
0.17717835181248756 0.2759451870781518 0.8252475453773944
0.20263367645302402 0.19169456887318354 0.9193904959823893
0.2983701288099564 0.3037966777864746 0.9242130727136438
0.5079379575046882 0.18954518398455122 0.828603269771056
0.3771783518124876 0.2759451870781518 0.8252475453773944
0.402633676453024 0.19169456887318354 0.9193904959823893
0.4983701288099564 0.3037966777864746 0.9242130727136438
0.7079379575046882 0.18954518398455122 0.828603269771056
0.5771783518124876 0.2759451870781518 0.8252475453773944
0.602633676453024 0.19169456887318354 0.9193904959823893
0.6983701288099564 0.3037966777864746 0.9242130727136438
0.9079379575046883 0.18954518398455122 0.828603269771056
0.7771783518124876 0.2759451870781518 0.8252475453773944
0.8026336764530241 0.19169456887318354 0.9193904959823893
0.8983701288099564 0.3037966777864746 0.9242130727136438
0.10793795750468815 0.3895451839845512 0.828603269771056
-0.022821648187512443 0.47594518707815187 0.8252475453773944
0.002633676453024005 0.39169456887318355 0.9193904959823893
0.09837012880995638 0.5037966777864746 0.9242130727136438
0.30793795750468816 0.3895451839845512 0.828603269771056
0.17717835181248756 0.47594518707815187 0.8252475453773944
0.20263367645302402 0.39169456887318355 0.9193904959823893
0.2983701288099564 0.5037966777864746 0.9242130727136438
0.5079379575046882 0.3895451839845512 0.828603269771056
0.3771783518124876 0.47594518707815187 0.8252475453773944
0.402633676453024 0.39169456887318355 0.9193904959823893
0.4983701288099564 0.5037966777864746 0.9242130727136438
0.7079379575046882 0.3895451839845512 0.828603269771056
0.5771783518124876 0.47594518707815187 0.8252475453773944
0.602633676453024 0.39169456887318355 0.9193904959823893
0.6983701288099564 0.5037966777864746 0.9242130727136438
0.9079379575046883 0.3895451839845512 0.828603269771056
0.7771783518124876 0.47594518707815187 0.8252475453773944
0.8026336764530241 0.39169456887318355 0.9193904959823893
0.8983701288099564 0.5037966777864746 0.9242130727136438
0.10793795750468815 0.5895451839845512 0.828603269771056
-0.022821648187512443 0.6759451870781519 0.8252475453773944
0.002633676453024005 0.5916945688731835 0.9193904959823893
0.09837012880995638 0.7037966777864746 0.9242130727136438
0.30793795750468816 0.5895451839845512 0.828603269771056
0.17717835181248756 0.6759451870781519 0.8252475453773944
0.20263367645302402 0.5916945688731835 0.9193904959823893
0.2983701288099564 0.7037966777864746 0.9242130727136438
0.5079379575046882 0.5895451839845512 0.828603269771056
0.3771783518124876 0.6759451870781519 0.8252475453773944
0.402633676453024 0.5916945688731835 0.9193904959823893
0.4983701288099564 0.7037966777864746 0.9242130727136438
0.7079379575046882 0.5895451839845512 0.828603269771056
0.5771783518124876 0.6759451870781519 0.8252475453773944
0.602633676453024 0.5916945688731835 0.9193904959823893
0.6983701288099564 0.7037966777864746 0.9242130727136438
0.9079379575046883 0.5895451839845512 0.828603269771056
0.7771783518124876 0.6759451870781519 0.8252475453773944
0.8026336764530241 0.5916945688731835 0.9193904959823893
0.8983701288099564 0.7037966777864746 0.9242130727136438
0.10793795750468815 0.7895451839845512 0.828603269771056
-0.022821648187512443 0.8759451870781518 0.8252475453773944
0.002633676453024005 0.7916945688731836 0.9193904959823893
0.09837012880995638 0.9037966777864747 0.9242130727136438
0.30793795750468816 0.7895451839845512 0.828603269771056
0.17717835181248756 0.8759451870781518 0.8252475453773944
0.20263367645302402 0.7916945688731836 0.9193904959823893
0.2983701288099564 0.9037966777864747 0.9242130727136438
0.5079379575046882 0.7895451839845512 0.828603269771056
0.3771783518124876 0.8759451870781518 0.8252475453773944
0.402633676453024 0.7916945688731836 0.9193904959823893
0.4983701288099564 0.9037966777864747 0.9242130727136438
0.7079379575046882 0.7895451839845512 0.828603269771056
0.5771783518124876 0.8759451870781518 0.8252475453773944
0.602633676453024 0.7916945688731836 0.9193904959823893
0.6983701288099564 0.9037966777864747 0.9242130727136438
0.9079379575046883 0.7895451839845512 0.828603269771056
0.7771783518124876 0.8759451870781518 0.8252475453773944
0.8026336764530241 0.7916945688731836 0.9193904959823893
0.8983701288099564 0.9037966777864747 0.9242130727136438
