FCC BaO
3.971
5.0 0.0 0.0
0.0 5.0 0.0
0.0 0.0 5.0
Ba O 
500 500 
Direct
-0.017753958101333192 -0.02089934308091229 0.0029428802944708368
-0.029218835454516763 0.10716129730814082 0.10270932187805133
0.11736453816497508 -0.01662579875578856 0.1014288654960957
0.12515157774493474 0.12013917206301708 -0.009188117523633951
0.1822460418986668 -0.02089934308091229 0.0029428802944708368
0.17078116454548325 0.10716129730814082 0.10270932187805133
0.31736453816497506 -0.01662579875578856 0.1014288654960957
0.32515157774493475 0.12013917206301708 -0.009188117523633951
0.38224604189866684 -0.02089934308091229 0.0029428802944708368
0.37078116454548327 0.10716129730814082 0.10270932187805133
0.5173645381649751 -0.01662579875578856 0.1014288654960957
0.5251515777449347 0.12013917206301708 -0.009188117523633951
0.5822460418986668 -0.02089934308091229 0.0029428802944708368
0.5707811645454832 0.10716129730814082 0.10270932187805133
0.7173645381649751 -0.01662579875578856 0.1014288654960957
0.7251515777449348 0.12013917206301708 -0.009188117523633951
0.7822460418986669 -0.02089934308091229 0.0029428802944708368
0.7707811645454833 0.10716129730814082 0.10270932187805133
0.9173645381649751 -0.01662579875578856 0.1014288654960957
0.9251515777449347 0.12013917206301708 -0.009188117523633951
-0.017753958101333192 0.17910065691908772 0.0029428802944708368
-0.029218835454516763 0.30716129730814085 0.10270932187805133
0.11736453816497508 0.18337420124421144 0.1014288654960957
0.12515157774493474 0.3201391720630171 -0.009188117523633951
0.1822460418986668 0.17910065691908772 0.0029428802944708368
0.17078116454548325 0.30716129730814085 0.10270932187805133
0.31736453816497506 0.18337420124421144 0.1014288654960957
0.32515157774493475 0.3201391720630171 -0.009188117523633951
0.38224604189866684 0.17910065691908772 0.0029428802944708368
0.37078116454548327 0.30716129730814085 0.10270932187805133
0.5173645381649751 0.18337420124421144 0.1014288654960957
0.5251515777449347 0.3201391720630171 -0.009188117523633951
0.5822460418986668 0.17910065691908772 0.0029428802944708368
0.5707811645454832 0.30716129730814085 0.10270932187805133
0.7173645381649751 0.18337420124421144 0.1014288654960957
0.7251515777449348 0.3201391720630171 -0.009188117523633951
0.7822460418986669 0.17910065691908772 0.0029428802944708368
0.7707811645454833 0.30716129730814085 0.10270932187805133
0.9173645381649751 0.18337420124421144 0.1014288654960957
0.9251515777449347 0.3201391720630171 -0.009188117523633951
-0.017753958101333192 0.37910065691908773 0.0029428802944708368
-0.029218835454516763 0.5071612973081409 0.10270932187805133
0.11736453816497508 0.38337420124421145 0.1014288654960957
0.12515157774493474 0.5201391720630171 -0.009188117523633951
0.1822460418986668 0.37910065691908773 0.0029428802944708368
0.17078116454548325 0.5071612973081409 0.10270932187805133
0.31736453816497506 0.38337420124421145 0.1014288654960957
0.32515157774493475 0.5201391720630171 -0.009188117523633951
0.38224604189866684 0.37910065691908773 0.0029428802944708368
0.37078116454548327 0.5071612973081409 0.10270932187805133
0.5173645381649751 0.38337420124421145 0.1014288654960957
0.5251515777449347 0.5201391720630171 -0.009188117523633951
0.5822460418986668 0.37910065691908773 0.0029428802944708368
0.5707811645454832 0.5071612973081409 0.10270932187805133
0.7173645381649751 0.38337420124421145 0.1014288654960957
0.7251515777449348 0.5201391720630171 -0.009188117523633951
0.7822460418986669 0.37910065691908773 0.0029428802944708368
0.7707811645454833 0.5071612973081409 0.10270932187805133
0.9173645381649751 0.38337420124421145 0.1014288654960957
0.9251515777449347 0.5201391720630171 -0.009188117523633951
-0.017753958101333192 0.5791006569190877 0.0029428802944708368
-0.029218835454516763 0.7071612973081409 0.10270932187805133
0.11736453816497508 0.5833742012442115 0.1014288654960957
0.12515157774493474 0.7201391720630171 -0.009188117523633951
0.1822460418986668 0.5791006569190877 0.0029428802944708368
0.17078116454548325 0.7071612973081409 0.10270932187805133
0.31736453816497506 0.5833742012442115 0.1014288654960957
0.32515157774493475 0.7201391720630171 -0.009188117523633951
0.38224604189866684 0.5791006569190877 0.0029428802944708368
0.37078116454548327 0.7071612973081409 0.10270932187805133
0.5173645381649751 0.5833742012442115 0.1014288654960957
0.5251515777449347 0.7201391720630171 -0.009188117523633951
0.5822460418986668 0.5791006569190877 0.0029428802944708368
0.5707811645454832 0.7071612973081409 0.10270932187805133
0.7173645381649751 0.5833742012442115 0.1014288654960957
0.7251515777449348 0.7201391720630171 -0.009188117523633951
0.7822460418986669 0.5791006569190877 0.0029428802944708368
0.7707811645454833 0.7071612973081409 0.10270932187805133
0.9173645381649751 0.5833742012442115 0.1014288654960957
0.9251515777449347 0.7201391720630171 -0.009188117523633951
-0.017753958101333192 0.7791006569190877 0.0029428802944708368
-0.029218835454516763 0.9071612973081408 0.10270932187805133
0.11736453816497508 0.7833742012442114 0.1014288654960957
0.12515157774493474 0.920139172063017 -0.009188117523633951
0.1822460418986668 0.7791006569190877 0.0029428802944708368
0.17078116454548325 0.9071612973081408 0.10270932187805133
0.31736453816497506 0.7833742012442114 0.1014288654960957
0.32515157774493475 0.920139172063017 -0.009188117523633951
0.38224604189866684 0.7791006569190877 0.0029428802944708368
0.37078116454548327 0.9071612973081408 0.10270932187805133
0.5173645381649751 0.7833742012442114 0.1014288654960957
0.5251515777449347 0.920139172063017 -0.009188117523633951
0.5822460418986668 0.7791006569190877 0.0029428802944708368
0.5707811645454832 0.9071612973081408 0.10270932187805133
0.7173645381649751 0.7833742012442114 0.1014288654960957
0.7251515777449348 0.920139172063017 -0.009188117523633951
0.7822460418986669 0.7791006569190877 0.0029428802944708368
0.7707811645454833 0.9071612973081408 0.10270932187805133
0.9173645381649751 0.7833742012442114 0.1014288654960957
0.9251515777449347 0.920139172063017 -0.009188117523633951
-0.017753958101333192 -0.02089934308091229 0.20294288029447083
-0.029218835454516763 0.10716129730814082 0.3027093218780514
0.11736453816497508 -0.01662579875578856 0.3014288654960957
0.12515157774493474 0.12013917206301708 0.19081188247636605
0.1822460418986668 -0.02089934308091229 0.20294288029447083
0.17078116454548325 0.10716129730814082 0.3027093218780514
0.31736453816497506 -0.01662579875578856 0.3014288654960957
0.32515157774493475 0.12013917206301708 0.19081188247636605
0.38224604189866684 -0.02089934308091229 0.20294288029447083
0.37078116454548327 0.10716129730814082 0.3027093218780514
0.5173645381649751 -0.01662579875578856 0.3014288654960957
0.5251515777449347 0.12013917206301708 0.19081188247636605
0.5822460418986668 -0.02089934308091229 0.20294288029447083
0.5707811645454832 0.10716129730814082 0.3027093218780514
0.7173645381649751 -0.01662579875578856 0.3014288654960957
0.7251515777449348 0.12013917206301708 0.19081188247636605
0.7822460418986669 -0.02089934308091229 0.20294288029447083
0.7707811645454833 0.10716129730814082 0.3027093218780514
0.9173645381649751 -0.01662579875578856 0.3014288654960957
0.9251515777449347 0.12013917206301708 0.19081188247636605
-0.017753958101333192 0.17910065691908772 0.20294288029447083
-0.029218835454516763 0.30716129730814085 0.3027093218780514
0.11736453816497508 0.18337420124421144 0.3014288654960957
0.12515157774493474 0.3201391720630171 0.19081188247636605
0.1822460418986668 0.17910065691908772 0.20294288029447083
0.17078116454548325 0.30716129730814085 0.3027093218780514
0.31736453816497506 0.18337420124421144 0.3014288654960957
0.32515157774493475 0.3201391720630171 0.19081188247636605
0.38224604189866684 0.17910065691908772 0.20294288029447083
0.37078116454548327 0.30716129730814085 0.3027093218780514
0.5173645381649751 0.18337420124421144 0.3014288654960957
0.5251515777449347 0.3201391720630171 0.19081188247636605
0.5822460418986668 0.17910065691908772 0.20294288029447083
0.5707811645454832 0.30716129730814085 0.3027093218780514
0.7173645381649751 0.18337420124421144 0.3014288654960957
0.7251515777449348 0.3201391720630171 0.19081188247636605
0.7822460418986669 0.17910065691908772 0.20294288029447083
0.7707811645454833 0.30716129730814085 0.3027093218780514
0.9173645381649751 0.18337420124421144 0.3014288654960957
0.9251515777449347 0.3201391720630171 0.19081188247636605
-0.017753958101333192 0.37910065691908773 0.20294288029447083
-0.029218835454516763 0.5071612973081409 0.3027093218780514
0.11736453816497508 0.38337420124421145 0.3014288654960957
0.12515157774493474 0.5201391720630171 0.19081188247636605
0.1822460418986668 0.37910065691908773 0.20294288029447083
0.17078116454548325 0.5071612973081409 0.3027093218780514
0.31736453816497506 0.38337420124421145 0.3014288654960957
0.32515157774493475 0.5201391720630171 0.19081188247636605
0.38224604189866684 0.37910065691908773 0.20294288029447083
0.37078116454548327 0.5071612973081409 0.3027093218780514
0.5173645381649751 0.38337420124421145 0.3014288654960957
0.5251515777449347 0.5201391720630171 0.19081188247636605
0.5822460418986668 0.37910065691908773 0.20294288029447083
0.5707811645454832 0.5071612973081409 0.3027093218780514
0.7173645381649751 0.38337420124421145 0.3014288654960957
0.7251515777449348 0.5201391720630171 0.19081188247636605
0.7822460418986669 0.37910065691908773 0.20294288029447083
0.7707811645454833 0.5071612973081409 0.3027093218780514
0.9173645381649751 0.38337420124421145 0.3014288654960957
0.9251515777449347 0.5201391720630171 0.19081188247636605
-0.017753958101333192 0.5791006569190877 0.20294288029447083
-0.029218835454516763 0.7071612973081409 0.3027093218780514
0.11736453816497508 0.5833742012442115 0.3014288654960957
0.12515157774493474 0.7201391720630171 0.19081188247636605
0.1822460418986668 0.5791006569190877 0.20294288029447083
0.17078116454548325 0.7071612973081409 0.3027093218780514
0.31736453816497506 0.5833742012442115 0.3014288654960957
0.32515157774493475 0.7201391720630171 0.19081188247636605
0.38224604189866684 0.5791006569190877 0.20294288029447083
0.37078116454548327 0.7071612973081409 0.3027093218780514
0.5173645381649751 0.5833742012442115 0.3014288654960957
0.5251515777449347 0.7201391720630171 0.19081188247636605
0.5822460418986668 0.5791006569190877 0.20294288029447083
0.5707811645454832 0.7071612973081409 0.3027093218780514
0.7173645381649751 0.5833742012442115 0.3014288654960957
0.7251515777449348 0.7201391720630171 0.19081188247636605
0.7822460418986669 0.5791006569190877 0.20294288029447083
0.7707811645454833 0.7071612973081409 0.3027093218780514
0.9173645381649751 0.5833742012442115 0.3014288654960957
0.9251515777449347 0.7201391720630171 0.19081188247636605
-0.017753958101333192 0.7791006569190877 0.20294288029447083
-0.029218835454516763 0.9071612973081408 0.3027093218780514
0.11736453816497508 0.7833742012442114 0.3014288654960957
0.12515157774493474 0.920139172063017 0.19081188247636605
0.1822460418986668 0.7791006569190877 0.20294288029447083
0.17078116454548325 0.9071612973081408 0.3027093218780514
0.31736453816497506 0.7833742012442114 0.3014288654960957
0.32515157774493475 0.920139172063017 0.19081188247636605
0.38224604189866684 0.7791006569190877 0.20294288029447083
0.37078116454548327 0.9071612973081408 0.3027093218780514
0.5173645381649751 0.7833742012442114 0.3014288654960957
0.5251515777449347 0.920139172063017 0.19081188247636605
0.5822460418986668 0.7791006569190877 0.20294288029447083
0.5707811645454832 0.9071612973081408 0.3027093218780514
0.7173645381649751 0.7833742012442114 0.3014288654960957
0.7251515777449348 0.920139172063017 0.19081188247636605
0.7822460418986669 0.7791006569190877 0.20294288029447083
0.7707811645454833 0.9071612973081408 0.3027093218780514
0.9173645381649751 0.7833742012442114 0.3014288654960957
0.9251515777449347 0.920139172063017 0.19081188247636605
-0.017753958101333192 -0.02089934308091229 0.40294288029447084
-0.029218835454516763 0.10716129730814082 0.5027093218780514
0.11736453816497508 -0.01662579875578856 0.5014288654960958
0.12515157774493474 0.12013917206301708 0.39081188247636606
0.1822460418986668 -0.02089934308091229 0.40294288029447084
0.17078116454548325 0.10716129730814082 0.5027093218780514
0.31736453816497506 -0.01662579875578856 0.5014288654960958
0.32515157774493475 0.12013917206301708 0.39081188247636606
0.38224604189866684 -0.02089934308091229 0.40294288029447084
0.37078116454548327 0.10716129730814082 0.5027093218780514
0.5173645381649751 -0.01662579875578856 0.5014288654960958
0.5251515777449347 0.12013917206301708 0.39081188247636606
0.5822460418986668 -0.02089934308091229 0.40294288029447084
0.5707811645454832 0.10716129730814082 0.5027093218780514
0.7173645381649751 -0.01662579875578856 0.5014288654960958
0.7251515777449348 0.12013917206301708 0.39081188247636606
0.7822460418986669 -0.02089934308091229 0.40294288029447084
0.7707811645454833 0.10716129730814082 0.5027093218780514
0.9173645381649751 -0.01662579875578856 0.5014288654960958
0.9251515777449347 0.12013917206301708 0.39081188247636606
-0.017753958101333192 0.17910065691908772 0.40294288029447084
-0.029218835454516763 0.30716129730814085 0.5027093218780514
0.11736453816497508 0.18337420124421144 0.5014288654960958
0.12515157774493474 0.3201391720630171 0.39081188247636606
0.1822460418986668 0.17910065691908772 0.40294288029447084
0.17078116454548325 0.30716129730814085 0.5027093218780514
0.31736453816497506 0.18337420124421144 0.5014288654960958
0.32515157774493475 0.3201391720630171 0.39081188247636606
0.38224604189866684 0.17910065691908772 0.40294288029447084
0.37078116454548327 0.30716129730814085 0.5027093218780514
0.5173645381649751 0.18337420124421144 0.5014288654960958
0.5251515777449347 0.3201391720630171 0.39081188247636606
0.5822460418986668 0.17910065691908772 0.40294288029447084
0.5707811645454832 0.30716129730814085 0.5027093218780514
0.7173645381649751 0.18337420124421144 0.5014288654960958
0.7251515777449348 0.3201391720630171 0.39081188247636606
0.7822460418986669 0.17910065691908772 0.40294288029447084
0.7707811645454833 0.30716129730814085 0.5027093218780514
0.9173645381649751 0.18337420124421144 0.5014288654960958
0.9251515777449347 0.3201391720630171 0.39081188247636606
-0.017753958101333192 0.37910065691908773 0.40294288029447084
-0.029218835454516763 0.5071612973081409 0.5027093218780514
0.11736453816497508 0.38337420124421145 0.5014288654960958
0.12515157774493474 0.5201391720630171 0.39081188247636606
0.1822460418986668 0.37910065691908773 0.40294288029447084
0.17078116454548325 0.5071612973081409 0.5027093218780514
0.31736453816497506 0.38337420124421145 0.5014288654960958
0.32515157774493475 0.5201391720630171 0.39081188247636606
0.38224604189866684 0.37910065691908773 0.40294288029447084
0.37078116454548327 0.5071612973081409 0.5027093218780514
0.5173645381649751 0.38337420124421145 0.5014288654960958
0.5251515777449347 0.5201391720630171 0.39081188247636606
0.5822460418986668 0.37910065691908773 0.40294288029447084
0.5707811645454832 0.5071612973081409 0.5027093218780514
0.7173645381649751 0.38337420124421145 0.5014288654960958
0.7251515777449348 0.5201391720630171 0.39081188247636606
0.7822460418986669 0.37910065691908773 0.40294288029447084
0.7707811645454833 0.5071612973081409 0.5027093218780514
0.9173645381649751 0.38337420124421145 0.5014288654960958
0.9251515777449347 0.5201391720630171 0.39081188247636606
-0.017753958101333192 0.5791006569190877 0.40294288029447084
-0.029218835454516763 0.7071612973081409 0.5027093218780514
0.11736453816497508 0.5833742012442115 0.5014288654960958
0.12515157774493474 0.7201391720630171 0.39081188247636606
0.1822460418986668 0.5791006569190877 0.40294288029447084
0.17078116454548325 0.7071612973081409 0.5027093218780514
0.31736453816497506 0.5833742012442115 0.5014288654960958
0.32515157774493475 0.7201391720630171 0.39081188247636606
0.38224604189866684 0.5791006569190877 0.40294288029447084
0.37078116454548327 0.7071612973081409 0.5027093218780514
0.5173645381649751 0.5833742012442115 0.5014288654960958
0.5251515777449347 0.7201391720630171 0.39081188247636606
0.5822460418986668 0.5791006569190877 0.40294288029447084
0.5707811645454832 0.7071612973081409 0.5027093218780514
0.7173645381649751 0.5833742012442115 0.5014288654960958
0.7251515777449348 0.7201391720630171 0.39081188247636606
0.7822460418986669 0.5791006569190877 0.40294288029447084
0.7707811645454833 0.7071612973081409 0.5027093218780514
0.9173645381649751 0.5833742012442115 0.5014288654960958
0.9251515777449347 0.7201391720630171 0.39081188247636606
-0.017753958101333192 0.7791006569190877 0.40294288029447084
-0.029218835454516763 0.9071612973081408 0.5027093218780514
0.11736453816497508 0.7833742012442114 0.5014288654960958
0.12515157774493474 0.920139172063017 0.39081188247636606
0.1822460418986668 0.7791006569190877 0.40294288029447084
0.17078116454548325 0.9071612973081408 0.5027093218780514
0.31736453816497506 0.7833742012442114 0.5014288654960958
0.32515157774493475 0.920139172063017 0.39081188247636606
0.38224604189866684 0.7791006569190877 0.40294288029447084
0.37078116454548327 0.9071612973081408 0.5027093218780514
0.5173645381649751 0.7833742012442114 0.5014288654960958
0.5251515777449347 0.920139172063017 0.39081188247636606
0.5822460418986668 0.7791006569190877 0.40294288029447084
0.5707811645454832 0.9071612973081408 0.5027093218780514
0.7173645381649751 0.7833742012442114 0.5014288654960958
0.7251515777449348 0.920139172063017 0.39081188247636606
0.7822460418986669 0.7791006569190877 0.40294288029447084
0.7707811645454833 0.9071612973081408 0.5027093218780514
0.9173645381649751 0.7833742012442114 0.5014288654960958
0.9251515777449347 0.920139172063017 0.39081188247636606
-0.017753958101333192 -0.02089934308091229 0.6029428802944709
-0.029218835454516763 0.10716129730814082 0.7027093218780514
0.11736453816497508 -0.01662579875578856 0.7014288654960957
0.12515157774493474 0.12013917206301708 0.5908118824763661
0.1822460418986668 -0.02089934308091229 0.6029428802944709
0.17078116454548325 0.10716129730814082 0.7027093218780514
0.31736453816497506 -0.01662579875578856 0.7014288654960957
0.32515157774493475 0.12013917206301708 0.5908118824763661
0.38224604189866684 -0.02089934308091229 0.6029428802944709
0.37078116454548327 0.10716129730814082 0.7027093218780514
0.5173645381649751 -0.01662579875578856 0.7014288654960957
0.5251515777449347 0.12013917206301708 0.5908118824763661
0.5822460418986668 -0.02089934308091229 0.6029428802944709
0.5707811645454832 0.10716129730814082 0.7027093218780514
0.7173645381649751 -0.01662579875578856 0.7014288654960957
0.7251515777449348 0.12013917206301708 0.5908118824763661
0.7822460418986669 -0.02089934308091229 0.6029428802944709
0.7707811645454833 0.10716129730814082 0.7027093218780514
0.9173645381649751 -0.01662579875578856 0.7014288654960957
0.9251515777449347 0.12013917206301708 0.5908118824763661
-0.017753958101333192 0.17910065691908772 0.6029428802944709
-0.029218835454516763 0.30716129730814085 0.7027093218780514
0.11736453816497508 0.18337420124421144 0.7014288654960957
0.12515157774493474 0.3201391720630171 0.5908118824763661
0.1822460418986668 0.17910065691908772 0.6029428802944709
0.17078116454548325 0.30716129730814085 0.7027093218780514
0.31736453816497506 0.18337420124421144 0.7014288654960957
0.32515157774493475 0.3201391720630171 0.5908118824763661
0.38224604189866684 0.17910065691908772 0.6029428802944709
0.37078116454548327 0.30716129730814085 0.7027093218780514
0.5173645381649751 0.18337420124421144 0.7014288654960957
0.5251515777449347 0.3201391720630171 0.5908118824763661
0.5822460418986668 0.17910065691908772 0.6029428802944709
0.5707811645454832 0.30716129730814085 0.7027093218780514
0.7173645381649751 0.18337420124421144 0.7014288654960957
0.7251515777449348 0.3201391720630171 0.5908118824763661
0.7822460418986669 0.17910065691908772 0.6029428802944709
0.7707811645454833 0.30716129730814085 0.7027093218780514
0.9173645381649751 0.18337420124421144 0.7014288654960957
0.9251515777449347 0.3201391720630171 0.5908118824763661
-0.017753958101333192 0.37910065691908773 0.6029428802944709
-0.029218835454516763 0.5071612973081409 0.7027093218780514
0.11736453816497508 0.38337420124421145 0.7014288654960957
0.12515157774493474 0.5201391720630171 0.5908118824763661
0.1822460418986668 0.37910065691908773 0.6029428802944709
0.17078116454548325 0.5071612973081409 0.7027093218780514
0.31736453816497506 0.38337420124421145 0.7014288654960957
0.32515157774493475 0.5201391720630171 0.5908118824763661
0.38224604189866684 0.37910065691908773 0.6029428802944709
0.37078116454548327 0.5071612973081409 0.7027093218780514
0.5173645381649751 0.38337420124421145 0.7014288654960957
0.5251515777449347 0.5201391720630171 0.5908118824763661
0.5822460418986668 0.37910065691908773 0.6029428802944709
0.5707811645454832 0.5071612973081409 0.7027093218780514
0.7173645381649751 0.38337420124421145 0.7014288654960957
0.7251515777449348 0.5201391720630171 0.5908118824763661
0.7822460418986669 0.37910065691908773 0.6029428802944709
0.7707811645454833 0.5071612973081409 0.7027093218780514
0.9173645381649751 0.38337420124421145 0.7014288654960957
0.9251515777449347 0.5201391720630171 0.5908118824763661
-0.017753958101333192 0.5791006569190877 0.6029428802944709
-0.029218835454516763 0.7071612973081409 0.7027093218780514
0.11736453816497508 0.5833742012442115 0.7014288654960957
0.12515157774493474 0.7201391720630171 0.5908118824763661
0.1822460418986668 0.5791006569190877 0.6029428802944709
0.17078116454548325 0.7071612973081409 0.7027093218780514
0.31736453816497506 0.5833742012442115 0.7014288654960957
0.32515157774493475 0.7201391720630171 0.5908118824763661
0.38224604189866684 0.5791006569190877 0.6029428802944709
0.37078116454548327 0.7071612973081409 0.7027093218780514
0.5173645381649751 0.5833742012442115 0.7014288654960957
0.5251515777449347 0.7201391720630171 0.5908118824763661
0.5822460418986668 0.5791006569190877 0.6029428802944709
0.5707811645454832 0.7071612973081409 0.7027093218780514
0.7173645381649751 0.5833742012442115 0.7014288654960957
0.7251515777449348 0.7201391720630171 0.5908118824763661
0.7822460418986669 0.5791006569190877 0.6029428802944709
0.7707811645454833 0.7071612973081409 0.7027093218780514
0.9173645381649751 0.5833742012442115 0.7014288654960957
0.9251515777449347 0.7201391720630171 0.5908118824763661
-0.017753958101333192 0.7791006569190877 0.6029428802944709
-0.029218835454516763 0.9071612973081408 0.7027093218780514
0.11736453816497508 0.7833742012442114 0.7014288654960957
0.12515157774493474 0.920139172063017 0.5908118824763661
0.1822460418986668 0.7791006569190877 0.6029428802944709
0.17078116454548325 0.9071612973081408 0.7027093218780514
0.31736453816497506 0.7833742012442114 0.7014288654960957
0.32515157774493475 0.920139172063017 0.5908118824763661
0.38224604189866684 0.7791006569190877 0.6029428802944709
0.37078116454548327 0.9071612973081408 0.7027093218780514
0.5173645381649751 0.7833742012442114 0.7014288654960957
0.5251515777449347 0.920139172063017 0.5908118824763661
0.5822460418986668 0.7791006569190877 0.6029428802944709
0.5707811645454832 0.9071612973081408 0.7027093218780514
0.7173645381649751 0.7833742012442114 0.7014288654960957
0.7251515777449348 0.920139172063017 0.5908118824763661
0.7822460418986669 0.7791006569190877 0.6029428802944709
0.7707811645454833 0.9071612973081408 0.7027093218780514
0.9173645381649751 0.7833742012442114 0.7014288654960957
0.9251515777449347 0.920139172063017 0.5908118824763661
-0.017753958101333192 -0.02089934308091229 0.8029428802944709
-0.029218835454516763 0.10716129730814082 0.9027093218780513
0.11736453816497508 -0.01662579875578856 0.9014288654960958
0.12515157774493474 0.12013917206301708 0.7908118824763661
0.1822460418986668 -0.02089934308091229 0.8029428802944709
0.17078116454548325 0.10716129730814082 0.9027093218780513
0.31736453816497506 -0.01662579875578856 0.9014288654960958
0.32515157774493475 0.12013917206301708 0.7908118824763661
0.38224604189866684 -0.02089934308091229 0.8029428802944709
0.37078116454548327 0.10716129730814082 0.9027093218780513
0.5173645381649751 -0.01662579875578856 0.9014288654960958
0.5251515777449347 0.12013917206301708 0.7908118824763661
0.5822460418986668 -0.02089934308091229 0.8029428802944709
0.5707811645454832 0.10716129730814082 0.9027093218780513
0.7173645381649751 -0.01662579875578856 0.9014288654960958
0.7251515777449348 0.12013917206301708 0.7908118824763661
0.7822460418986669 -0.02089934308091229 0.8029428802944709
0.7707811645454833 0.10716129730814082 0.9027093218780513
0.9173645381649751 -0.01662579875578856 0.9014288654960958
0.9251515777449347 0.12013917206301708 0.7908118824763661
-0.017753958101333192 0.17910065691908772 0.8029428802944709
-0.029218835454516763 0.30716129730814085 0.9027093218780513
0.11736453816497508 0.18337420124421144 0.9014288654960958
0.12515157774493474 0.3201391720630171 0.7908118824763661
0.1822460418986668 0.17910065691908772 0.8029428802944709
0.17078116454548325 0.30716129730814085 0.9027093218780513
0.31736453816497506 0.18337420124421144 0.9014288654960958
0.32515157774493475 0.3201391720630171 0.7908118824763661
0.38224604189866684 0.17910065691908772 0.8029428802944709
0.37078116454548327 0.30716129730814085 0.9027093218780513
0.5173645381649751 0.18337420124421144 0.9014288654960958
0.5251515777449347 0.3201391720630171 0.7908118824763661
0.5822460418986668 0.17910065691908772 0.8029428802944709
0.5707811645454832 0.30716129730814085 0.9027093218780513
0.7173645381649751 0.18337420124421144 0.9014288654960958
0.7251515777449348 0.3201391720630171 0.7908118824763661
0.7822460418986669 0.17910065691908772 0.8029428802944709
0.7707811645454833 0.30716129730814085 0.9027093218780513
0.9173645381649751 0.18337420124421144 0.9014288654960958
0.9251515777449347 0.3201391720630171 0.7908118824763661
-0.017753958101333192 0.37910065691908773 0.8029428802944709
-0.029218835454516763 0.5071612973081409 0.9027093218780513
0.11736453816497508 0.38337420124421145 0.9014288654960958
0.12515157774493474 0.5201391720630171 0.7908118824763661
0.1822460418986668 0.37910065691908773 0.8029428802944709
0.17078116454548325 0.5071612973081409 0.9027093218780513
0.31736453816497506 0.38337420124421145 0.9014288654960958
0.32515157774493475 0.5201391720630171 0.7908118824763661
0.38224604189866684 0.37910065691908773 0.8029428802944709
0.37078116454548327 0.5071612973081409 0.9027093218780513
0.5173645381649751 0.38337420124421145 0.9014288654960958
0.5251515777449347 0.5201391720630171 0.7908118824763661
0.5822460418986668 0.37910065691908773 0.8029428802944709
0.5707811645454832 0.5071612973081409 0.9027093218780513
0.7173645381649751 0.38337420124421145 0.9014288654960958
0.7251515777449348 0.5201391720630171 0.7908118824763661
0.7822460418986669 0.37910065691908773 0.8029428802944709
0.7707811645454833 0.5071612973081409 0.9027093218780513
0.9173645381649751 0.38337420124421145 0.9014288654960958
0.9251515777449347 0.5201391720630171 0.7908118824763661
-0.017753958101333192 0.5791006569190877 0.8029428802944709
-0.029218835454516763 0.7071612973081409 0.9027093218780513
0.11736453816497508 0.5833742012442115 0.9014288654960958
0.12515157774493474 0.7201391720630171 0.7908118824763661
0.1822460418986668 0.5791006569190877 0.8029428802944709
0.17078116454548325 0.7071612973081409 0.9027093218780513
0.31736453816497506 0.5833742012442115 0.9014288654960958
0.32515157774493475 0.7201391720630171 0.7908118824763661
0.38224604189866684 0.5791006569190877 0.8029428802944709
0.37078116454548327 0.7071612973081409 0.9027093218780513
0.5173645381649751 0.5833742012442115 0.9014288654960958
0.5251515777449347 0.7201391720630171 0.7908118824763661
0.5822460418986668 0.5791006569190877 0.8029428802944709
0.5707811645454832 0.7071612973081409 0.9027093218780513
0.7173645381649751 0.5833742012442115 0.9014288654960958
0.7251515777449348 0.7201391720630171 0.7908118824763661
0.7822460418986669 0.5791006569190877 0.8029428802944709
0.7707811645454833 0.7071612973081409 0.9027093218780513
0.9173645381649751 0.5833742012442115 0.9014288654960958
0.9251515777449347 0.7201391720630171 0.7908118824763661
-0.017753958101333192 0.7791006569190877 0.8029428802944709
-0.029218835454516763 0.9071612973081408 0.9027093218780513
0.11736453816497508 0.7833742012442114 0.9014288654960958
0.12515157774493474 0.920139172063017 0.7908118824763661
0.1822460418986668 0.7791006569190877 0.8029428802944709
0.17078116454548325 0.9071612973081408 0.9027093218780513
0.31736453816497506 0.7833742012442114 0.9014288654960958
0.32515157774493475 0.920139172063017 0.7908118824763661
0.38224604189866684 0.7791006569190877 0.8029428802944709
0.37078116454548327 0.9071612973081408 0.9027093218780513
0.5173645381649751 0.7833742012442114 0.9014288654960958
0.5251515777449347 0.920139172063017 0.7908118824763661
0.5822460418986668 0.7791006569190877 0.8029428802944709
0.5707811645454832 0.9071612973081408 0.9027093218780513
0.7173645381649751 0.7833742012442114 0.9014288654960958
0.7251515777449348 0.920139172063017 0.7908118824763661
0.7822460418986669 0.7791006569190877 0.8029428802944709
0.7707811645454833 0.9071612973081408 0.9027093218780513
0.9173645381649751 0.7833742012442114 0.9014288654960958
0.9251515777449347 0.920139172063017 0.7908118824763661
0.1245825171896145 -0.021279106702924728 -0.00875705162425812
-0.0015461071805464776 0.09206540566369323 -0.022726381793383644
-0.022181304059330664 0.009030699019163714 0.08485766115256031
0.0967276994443543 0.0875045837701795 0.07693154261883567
0.3245825171896145 -0.021279106702924728 -0.00875705162425812
0.19845389281945353 0.09206540566369323 -0.022726381793383644
0.17781869594066935 0.009030699019163714 0.08485766115256031
0.29672769944435434 0.0875045837701795 0.07693154261883567
0.5245825171896146 -0.021279106702924728 -0.00875705162425812
0.39845389281945354 0.09206540566369323 -0.022726381793383644
0.37781869594066936 0.009030699019163714 0.08485766115256031
0.4967276994443543 0.0875045837701795 0.07693154261883567
0.7245825171896145 -0.021279106702924728 -0.00875705162425812
0.5984538928194535 0.09206540566369323 -0.022726381793383644
0.5778186959406694 0.009030699019163714 0.08485766115256031
0.6967276994443543 0.0875045837701795 0.07693154261883567
0.9245825171896146 -0.021279106702924728 -0.00875705162425812
0.7984538928194536 0.09206540566369323 -0.022726381793383644
0.7778186959406694 0.009030699019163714 0.08485766115256031
0.8967276994443543 0.0875045837701795 0.07693154261883567
0.1245825171896145 0.1787208932970753 -0.00875705162425812
-0.0015461071805464776 0.29206540566369327 -0.022726381793383644
-0.022181304059330664 0.2090306990191637 0.08485766115256031
0.0967276994443543 0.2875045837701795 0.07693154261883567
0.3245825171896145 0.1787208932970753 -0.00875705162425812
0.19845389281945353 0.29206540566369327 -0.022726381793383644
0.17781869594066935 0.2090306990191637 0.08485766115256031
0.29672769944435434 0.2875045837701795 0.07693154261883567
0.5245825171896146 0.1787208932970753 -0.00875705162425812
0.39845389281945354 0.29206540566369327 -0.022726381793383644
0.37781869594066936 0.2090306990191637 0.08485766115256031
0.4967276994443543 0.2875045837701795 0.07693154261883567
0.7245825171896145 0.1787208932970753 -0.00875705162425812
0.5984538928194535 0.29206540566369327 -0.022726381793383644
0.5778186959406694 0.2090306990191637 0.08485766115256031
0.6967276994443543 0.2875045837701795 0.07693154261883567
0.9245825171896146 0.1787208932970753 -0.00875705162425812
0.7984538928194536 0.29206540566369327 -0.022726381793383644
0.7778186959406694 0.2090306990191637 0.08485766115256031
0.8967276994443543 0.2875045837701795 0.07693154261883567
0.1245825171896145 0.3787208932970753 -0.00875705162425812
-0.0015461071805464776 0.4920654056636933 -0.022726381793383644
-0.022181304059330664 0.4090306990191637 0.08485766115256031
0.0967276994443543 0.4875045837701795 0.07693154261883567
0.3245825171896145 0.3787208932970753 -0.00875705162425812
0.19845389281945353 0.4920654056636933 -0.022726381793383644
0.17781869594066935 0.4090306990191637 0.08485766115256031
0.29672769944435434 0.4875045837701795 0.07693154261883567
0.5245825171896146 0.3787208932970753 -0.00875705162425812
0.39845389281945354 0.4920654056636933 -0.022726381793383644
0.37781869594066936 0.4090306990191637 0.08485766115256031
0.4967276994443543 0.4875045837701795 0.07693154261883567
0.7245825171896145 0.3787208932970753 -0.00875705162425812
0.5984538928194535 0.4920654056636933 -0.022726381793383644
0.5778186959406694 0.4090306990191637 0.08485766115256031
0.6967276994443543 0.4875045837701795 0.07693154261883567
0.9245825171896146 0.3787208932970753 -0.00875705162425812
0.7984538928194536 0.4920654056636933 -0.022726381793383644
0.7778186959406694 0.4090306990191637 0.08485766115256031
0.8967276994443543 0.4875045837701795 0.07693154261883567
0.1245825171896145 0.5787208932970753 -0.00875705162425812
-0.0015461071805464776 0.6920654056636932 -0.022726381793383644
-0.022181304059330664 0.6090306990191637 0.08485766115256031
0.0967276994443543 0.6875045837701795 0.07693154261883567
0.3245825171896145 0.5787208932970753 -0.00875705162425812
0.19845389281945353 0.6920654056636932 -0.022726381793383644
0.17781869594066935 0.6090306990191637 0.08485766115256031
0.29672769944435434 0.6875045837701795 0.07693154261883567
0.5245825171896146 0.5787208932970753 -0.00875705162425812
0.39845389281945354 0.6920654056636932 -0.022726381793383644
0.37781869594066936 0.6090306990191637 0.08485766115256031
0.4967276994443543 0.6875045837701795 0.07693154261883567
0.7245825171896145 0.5787208932970753 -0.00875705162425812
0.5984538928194535 0.6920654056636932 -0.022726381793383644
0.5778186959406694 0.6090306990191637 0.08485766115256031
0.6967276994443543 0.6875045837701795 0.07693154261883567
0.9245825171896146 0.5787208932970753 -0.00875705162425812
0.7984538928194536 0.6920654056636932 -0.022726381793383644
0.7778186959406694 0.6090306990191637 0.08485766115256031
0.8967276994443543 0.6875045837701795 0.07693154261883567
0.1245825171896145 0.7787208932970753 -0.00875705162425812
-0.0015461071805464776 0.8920654056636933 -0.022726381793383644
-0.022181304059330664 0.8090306990191638 0.08485766115256031
0.0967276994443543 0.8875045837701795 0.07693154261883567
0.3245825171896145 0.7787208932970753 -0.00875705162425812
0.19845389281945353 0.8920654056636933 -0.022726381793383644
0.17781869594066935 0.8090306990191638 0.08485766115256031
0.29672769944435434 0.8875045837701795 0.07693154261883567
0.5245825171896146 0.7787208932970753 -0.00875705162425812
0.39845389281945354 0.8920654056636933 -0.022726381793383644
0.37781869594066936 0.8090306990191638 0.08485766115256031
0.4967276994443543 0.8875045837701795 0.07693154261883567
0.7245825171896145 0.7787208932970753 -0.00875705162425812
0.5984538928194535 0.8920654056636933 -0.022726381793383644
0.5778186959406694 0.8090306990191638 0.08485766115256031
0.6967276994443543 0.8875045837701795 0.07693154261883567
0.9245825171896146 0.7787208932970753 -0.00875705162425812
0.7984538928194536 0.8920654056636933 -0.022726381793383644
0.7778186959406694 0.8090306990191638 0.08485766115256031
0.8967276994443543 0.8875045837701795 0.07693154261883567
0.1245825171896145 -0.021279106702924728 0.19124294837574188
-0.0015461071805464776 0.09206540566369323 0.17727361820661636
-0.022181304059330664 0.009030699019163714 0.28485766115256034
0.0967276994443543 0.0875045837701795 0.2769315426188357
0.3245825171896145 -0.021279106702924728 0.19124294837574188
0.19845389281945353 0.09206540566369323 0.17727361820661636
0.17781869594066935 0.009030699019163714 0.28485766115256034
0.29672769944435434 0.0875045837701795 0.2769315426188357
0.5245825171896146 -0.021279106702924728 0.19124294837574188
0.39845389281945354 0.09206540566369323 0.17727361820661636
0.37781869594066936 0.009030699019163714 0.28485766115256034
0.4967276994443543 0.0875045837701795 0.2769315426188357
0.7245825171896145 -0.021279106702924728 0.19124294837574188
0.5984538928194535 0.09206540566369323 0.17727361820661636
0.5778186959406694 0.009030699019163714 0.28485766115256034
0.6967276994443543 0.0875045837701795 0.2769315426188357
0.9245825171896146 -0.021279106702924728 0.19124294837574188
0.7984538928194536 0.09206540566369323 0.17727361820661636
0.7778186959406694 0.009030699019163714 0.28485766115256034
0.8967276994443543 0.0875045837701795 0.2769315426188357
0.1245825171896145 0.1787208932970753 0.19124294837574188
-0.0015461071805464776 0.29206540566369327 0.17727361820661636
-0.022181304059330664 0.2090306990191637 0.28485766115256034
0.0967276994443543 0.2875045837701795 0.2769315426188357
0.3245825171896145 0.1787208932970753 0.19124294837574188
0.19845389281945353 0.29206540566369327 0.17727361820661636
0.17781869594066935 0.2090306990191637 0.28485766115256034
0.29672769944435434 0.2875045837701795 0.2769315426188357
0.5245825171896146 0.1787208932970753 0.19124294837574188
0.39845389281945354 0.29206540566369327 0.17727361820661636
0.37781869594066936 0.2090306990191637 0.28485766115256034
0.4967276994443543 0.2875045837701795 0.2769315426188357
0.7245825171896145 0.1787208932970753 0.19124294837574188
0.5984538928194535 0.29206540566369327 0.17727361820661636
0.5778186959406694 0.2090306990191637 0.28485766115256034
0.6967276994443543 0.2875045837701795 0.2769315426188357
0.9245825171896146 0.1787208932970753 0.19124294837574188
0.7984538928194536 0.29206540566369327 0.17727361820661636
0.7778186959406694 0.2090306990191637 0.28485766115256034
0.8967276994443543 0.2875045837701795 0.2769315426188357
0.1245825171896145 0.3787208932970753 0.19124294837574188
-0.0015461071805464776 0.4920654056636933 0.17727361820661636
-0.022181304059330664 0.4090306990191637 0.28485766115256034
0.0967276994443543 0.4875045837701795 0.2769315426188357
0.3245825171896145 0.3787208932970753 0.19124294837574188
0.19845389281945353 0.4920654056636933 0.17727361820661636
0.17781869594066935 0.4090306990191637 0.28485766115256034
0.29672769944435434 0.4875045837701795 0.2769315426188357
0.5245825171896146 0.3787208932970753 0.19124294837574188
0.39845389281945354 0.4920654056636933 0.17727361820661636
0.37781869594066936 0.4090306990191637 0.28485766115256034
0.4967276994443543 0.4875045837701795 0.2769315426188357
0.7245825171896145 0.3787208932970753 0.19124294837574188
0.5984538928194535 0.4920654056636933 0.17727361820661636
0.5778186959406694 0.4090306990191637 0.28485766115256034
0.6967276994443543 0.4875045837701795 0.2769315426188357
0.9245825171896146 0.3787208932970753 0.19124294837574188
0.7984538928194536 0.4920654056636933 0.17727361820661636
0.7778186959406694 0.4090306990191637 0.28485766115256034
0.8967276994443543 0.4875045837701795 0.2769315426188357
0.1245825171896145 0.5787208932970753 0.19124294837574188
-0.0015461071805464776 0.6920654056636932 0.17727361820661636
-0.022181304059330664 0.6090306990191637 0.28485766115256034
0.0967276994443543 0.6875045837701795 0.2769315426188357
0.3245825171896145 0.5787208932970753 0.19124294837574188
0.19845389281945353 0.6920654056636932 0.17727361820661636
0.17781869594066935 0.6090306990191637 0.28485766115256034
0.29672769944435434 0.6875045837701795 0.2769315426188357
0.5245825171896146 0.5787208932970753 0.19124294837574188
0.39845389281945354 0.6920654056636932 0.17727361820661636
0.37781869594066936 0.6090306990191637 0.28485766115256034
0.4967276994443543 0.6875045837701795 0.2769315426188357
0.7245825171896145 0.5787208932970753 0.19124294837574188
0.5984538928194535 0.6920654056636932 0.17727361820661636
0.5778186959406694 0.6090306990191637 0.28485766115256034
0.6967276994443543 0.6875045837701795 0.2769315426188357
0.9245825171896146 0.5787208932970753 0.19124294837574188
0.7984538928194536 0.6920654056636932 0.17727361820661636
0.7778186959406694 0.6090306990191637 0.28485766115256034
0.8967276994443543 0.6875045837701795 0.2769315426188357
0.1245825171896145 0.7787208932970753 0.19124294837574188
-0.0015461071805464776 0.8920654056636933 0.17727361820661636
-0.022181304059330664 0.8090306990191638 0.28485766115256034
0.0967276994443543 0.8875045837701795 0.2769315426188357
0.3245825171896145 0.7787208932970753 0.19124294837574188
0.19845389281945353 0.8920654056636933 0.17727361820661636
0.17781869594066935 0.8090306990191638 0.28485766115256034
0.29672769944435434 0.8875045837701795 0.2769315426188357
0.5245825171896146 0.7787208932970753 0.19124294837574188
0.39845389281945354 0.8920654056636933 0.17727361820661636
0.37781869594066936 0.8090306990191638 0.28485766115256034
0.4967276994443543 0.8875045837701795 0.2769315426188357
0.7245825171896145 0.7787208932970753 0.19124294837574188
0.5984538928194535 0.8920654056636933 0.17727361820661636
0.5778186959406694 0.8090306990191638 0.28485766115256034
0.6967276994443543 0.8875045837701795 0.2769315426188357
0.9245825171896146 0.7787208932970753 0.19124294837574188
0.7984538928194536 0.8920654056636933 0.17727361820661636
0.7778186959406694 0.8090306990191638 0.28485766115256034
0.8967276994443543 0.8875045837701795 0.2769315426188357
0.1245825171896145 -0.021279106702924728 0.3912429483757419
-0.0015461071805464776 0.09206540566369323 0.37727361820661637
-0.022181304059330664 0.009030699019163714 0.48485766115256035
0.0967276994443543 0.0875045837701795 0.47693154261883564
0.3245825171896145 -0.021279106702924728 0.3912429483757419
0.19845389281945353 0.09206540566369323 0.37727361820661637
0.17781869594066935 0.009030699019163714 0.48485766115256035
0.29672769944435434 0.0875045837701795 0.47693154261883564
0.5245825171896146 -0.021279106702924728 0.3912429483757419
0.39845389281945354 0.09206540566369323 0.37727361820661637
0.37781869594066936 0.009030699019163714 0.48485766115256035
0.4967276994443543 0.0875045837701795 0.47693154261883564
0.7245825171896145 -0.021279106702924728 0.3912429483757419
0.5984538928194535 0.09206540566369323 0.37727361820661637
0.5778186959406694 0.009030699019163714 0.48485766115256035
0.6967276994443543 0.0875045837701795 0.47693154261883564
0.9245825171896146 -0.021279106702924728 0.3912429483757419
0.7984538928194536 0.09206540566369323 0.37727361820661637
0.7778186959406694 0.009030699019163714 0.48485766115256035
0.8967276994443543 0.0875045837701795 0.47693154261883564
0.1245825171896145 0.1787208932970753 0.3912429483757419
-0.0015461071805464776 0.29206540566369327 0.37727361820661637
-0.022181304059330664 0.2090306990191637 0.48485766115256035
0.0967276994443543 0.2875045837701795 0.47693154261883564
0.3245825171896145 0.1787208932970753 0.3912429483757419
0.19845389281945353 0.29206540566369327 0.37727361820661637
0.17781869594066935 0.2090306990191637 0.48485766115256035
0.29672769944435434 0.2875045837701795 0.47693154261883564
0.5245825171896146 0.1787208932970753 0.3912429483757419
0.39845389281945354 0.29206540566369327 0.37727361820661637
0.37781869594066936 0.2090306990191637 0.48485766115256035
0.4967276994443543 0.2875045837701795 0.47693154261883564
0.7245825171896145 0.1787208932970753 0.3912429483757419
0.5984538928194535 0.29206540566369327 0.37727361820661637
0.5778186959406694 0.2090306990191637 0.48485766115256035
0.6967276994443543 0.2875045837701795 0.47693154261883564
0.9245825171896146 0.1787208932970753 0.3912429483757419
0.7984538928194536 0.29206540566369327 0.37727361820661637
0.7778186959406694 0.2090306990191637 0.48485766115256035
0.8967276994443543 0.2875045837701795 0.47693154261883564
0.1245825171896145 0.3787208932970753 0.3912429483757419
-0.0015461071805464776 0.4920654056636933 0.37727361820661637
-0.022181304059330664 0.4090306990191637 0.48485766115256035
0.0967276994443543 0.4875045837701795 0.47693154261883564
0.3245825171896145 0.3787208932970753 0.3912429483757419
0.19845389281945353 0.4920654056636933 0.37727361820661637
0.17781869594066935 0.4090306990191637 0.48485766115256035
0.29672769944435434 0.4875045837701795 0.47693154261883564
0.5245825171896146 0.3787208932970753 0.3912429483757419
0.39845389281945354 0.4920654056636933 0.37727361820661637
0.37781869594066936 0.4090306990191637 0.48485766115256035
0.4967276994443543 0.4875045837701795 0.47693154261883564
0.7245825171896145 0.3787208932970753 0.3912429483757419
0.5984538928194535 0.4920654056636933 0.37727361820661637
0.5778186959406694 0.4090306990191637 0.48485766115256035
0.6967276994443543 0.4875045837701795 0.47693154261883564
0.9245825171896146 0.3787208932970753 0.3912429483757419
0.7984538928194536 0.4920654056636933 0.37727361820661637
0.7778186959406694 0.4090306990191637 0.48485766115256035
0.8967276994443543 0.4875045837701795 0.47693154261883564
0.1245825171896145 0.5787208932970753 0.3912429483757419
-0.0015461071805464776 0.6920654056636932 0.37727361820661637
-0.022181304059330664 0.6090306990191637 0.48485766115256035
0.0967276994443543 0.6875045837701795 0.47693154261883564
0.3245825171896145 0.5787208932970753 0.3912429483757419
0.19845389281945353 0.6920654056636932 0.37727361820661637
0.17781869594066935 0.6090306990191637 0.48485766115256035
0.29672769944435434 0.6875045837701795 0.47693154261883564
0.5245825171896146 0.5787208932970753 0.3912429483757419
0.39845389281945354 0.6920654056636932 0.37727361820661637
0.37781869594066936 0.6090306990191637 0.48485766115256035
0.4967276994443543 0.6875045837701795 0.47693154261883564
0.7245825171896145 0.5787208932970753 0.3912429483757419
0.5984538928194535 0.6920654056636932 0.37727361820661637
0.5778186959406694 0.6090306990191637 0.48485766115256035
0.6967276994443543 0.6875045837701795 0.47693154261883564
0.9245825171896146 0.5787208932970753 0.3912429483757419
0.7984538928194536 0.6920654056636932 0.37727361820661637
0.7778186959406694 0.6090306990191637 0.48485766115256035
0.8967276994443543 0.6875045837701795 0.47693154261883564
0.1245825171896145 0.7787208932970753 0.3912429483757419
-0.0015461071805464776 0.8920654056636933 0.37727361820661637
-0.022181304059330664 0.8090306990191638 0.48485766115256035
0.0967276994443543 0.8875045837701795 0.47693154261883564
0.3245825171896145 0.7787208932970753 0.3912429483757419
0.19845389281945353 0.8920654056636933 0.37727361820661637
0.17781869594066935 0.8090306990191638 0.48485766115256035
0.29672769944435434 0.8875045837701795 0.47693154261883564
0.5245825171896146 0.7787208932970753 0.3912429483757419
0.39845389281945354 0.8920654056636933 0.37727361820661637
0.37781869594066936 0.8090306990191638 0.48485766115256035
0.4967276994443543 0.8875045837701795 0.47693154261883564
0.7245825171896145 0.7787208932970753 0.3912429483757419
0.5984538928194535 0.8920654056636933 0.37727361820661637
0.5778186959406694 0.8090306990191638 0.48485766115256035
0.6967276994443543 0.8875045837701795 0.47693154261883564
0.9245825171896146 0.7787208932970753 0.3912429483757419
0.7984538928194536 0.8920654056636933 0.37727361820661637
0.7778186959406694 0.8090306990191638 0.48485766115256035
0.8967276994443543 0.8875045837701795 0.47693154261883564
0.1245825171896145 -0.021279106702924728 0.5912429483757419
-0.0015461071805464776 0.09206540566369323 0.5772736182066164
-0.022181304059330664 0.009030699019163714 0.6848576611525603
0.0967276994443543 0.0875045837701795 0.6769315426188357
0.3245825171896145 -0.021279106702924728 0.5912429483757419
0.19845389281945353 0.09206540566369323 0.5772736182066164
0.17781869594066935 0.009030699019163714 0.6848576611525603
0.29672769944435434 0.0875045837701795 0.6769315426188357
0.5245825171896146 -0.021279106702924728 0.5912429483757419
0.39845389281945354 0.09206540566369323 0.5772736182066164
0.37781869594066936 0.009030699019163714 0.6848576611525603
0.4967276994443543 0.0875045837701795 0.6769315426188357
0.7245825171896145 -0.021279106702924728 0.5912429483757419
0.5984538928194535 0.09206540566369323 0.5772736182066164
0.5778186959406694 0.009030699019163714 0.6848576611525603
0.6967276994443543 0.0875045837701795 0.6769315426188357
0.9245825171896146 -0.021279106702924728 0.5912429483757419
0.7984538928194536 0.09206540566369323 0.5772736182066164
0.7778186959406694 0.009030699019163714 0.6848576611525603
0.8967276994443543 0.0875045837701795 0.6769315426188357
0.1245825171896145 0.1787208932970753 0.5912429483757419
-0.0015461071805464776 0.29206540566369327 0.5772736182066164
-0.022181304059330664 0.2090306990191637 0.6848576611525603
0.0967276994443543 0.2875045837701795 0.6769315426188357
0.3245825171896145 0.1787208932970753 0.5912429483757419
0.19845389281945353 0.29206540566369327 0.5772736182066164
0.17781869594066935 0.2090306990191637 0.6848576611525603
0.29672769944435434 0.2875045837701795 0.6769315426188357
0.5245825171896146 0.1787208932970753 0.5912429483757419
0.39845389281945354 0.29206540566369327 0.5772736182066164
0.37781869594066936 0.2090306990191637 0.6848576611525603
0.4967276994443543 0.2875045837701795 0.6769315426188357
0.7245825171896145 0.1787208932970753 0.5912429483757419
0.5984538928194535 0.29206540566369327 0.5772736182066164
0.5778186959406694 0.2090306990191637 0.6848576611525603
0.6967276994443543 0.2875045837701795 0.6769315426188357
0.9245825171896146 0.1787208932970753 0.5912429483757419
0.7984538928194536 0.29206540566369327 0.5772736182066164
0.7778186959406694 0.2090306990191637 0.6848576611525603
0.8967276994443543 0.2875045837701795 0.6769315426188357
0.1245825171896145 0.3787208932970753 0.5912429483757419
-0.0015461071805464776 0.4920654056636933 0.5772736182066164
-0.022181304059330664 0.4090306990191637 0.6848576611525603
0.0967276994443543 0.4875045837701795 0.6769315426188357
0.3245825171896145 0.3787208932970753 0.5912429483757419
0.19845389281945353 0.4920654056636933 0.5772736182066164
0.17781869594066935 0.4090306990191637 0.6848576611525603
0.29672769944435434 0.4875045837701795 0.6769315426188357
0.5245825171896146 0.3787208932970753 0.5912429483757419
0.39845389281945354 0.4920654056636933 0.5772736182066164
0.37781869594066936 0.4090306990191637 0.6848576611525603
0.4967276994443543 0.4875045837701795 0.6769315426188357
0.7245825171896145 0.3787208932970753 0.5912429483757419
0.5984538928194535 0.4920654056636933 0.5772736182066164
0.5778186959406694 0.4090306990191637 0.6848576611525603
0.6967276994443543 0.4875045837701795 0.6769315426188357
0.9245825171896146 0.3787208932970753 0.5912429483757419
0.7984538928194536 0.4920654056636933 0.5772736182066164
0.7778186959406694 0.4090306990191637 0.6848576611525603
0.8967276994443543 0.4875045837701795 0.6769315426188357
0.1245825171896145 0.5787208932970753 0.5912429483757419
-0.0015461071805464776 0.6920654056636932 0.5772736182066164
-0.022181304059330664 0.6090306990191637 0.6848576611525603
0.0967276994443543 0.6875045837701795 0.6769315426188357
0.3245825171896145 0.5787208932970753 0.5912429483757419
0.19845389281945353 0.6920654056636932 0.5772736182066164
0.17781869594066935 0.6090306990191637 0.6848576611525603
0.29672769944435434 0.6875045837701795 0.6769315426188357
0.5245825171896146 0.5787208932970753 0.5912429483757419
0.39845389281945354 0.6920654056636932 0.5772736182066164
0.37781869594066936 0.6090306990191637 0.6848576611525603
0.4967276994443543 0.6875045837701795 0.6769315426188357
0.7245825171896145 0.5787208932970753 0.5912429483757419
0.5984538928194535 0.6920654056636932 0.5772736182066164
0.5778186959406694 0.6090306990191637 0.6848576611525603
0.6967276994443543 0.6875045837701795 0.6769315426188357
0.9245825171896146 0.5787208932970753 0.5912429483757419
0.7984538928194536 0.6920654056636932 0.5772736182066164
0.7778186959406694 0.6090306990191637 0.6848576611525603
0.8967276994443543 0.6875045837701795 0.6769315426188357
0.1245825171896145 0.7787208932970753 0.5912429483757419
-0.0015461071805464776 0.8920654056636933 0.5772736182066164
-0.022181304059330664 0.8090306990191638 0.6848576611525603
0.0967276994443543 0.8875045837701795 0.6769315426188357
0.3245825171896145 0.7787208932970753 0.5912429483757419
0.19845389281945353 0.8920654056636933 0.5772736182066164
0.17781869594066935 0.8090306990191638 0.6848576611525603
0.29672769944435434 0.8875045837701795 0.6769315426188357
0.5245825171896146 0.7787208932970753 0.5912429483757419
0.39845389281945354 0.8920654056636933 0.5772736182066164
0.37781869594066936 0.8090306990191638 0.6848576611525603
0.4967276994443543 0.8875045837701795 0.6769315426188357
0.7245825171896145 0.7787208932970753 0.5912429483757419
0.5984538928194535 0.8920654056636933 0.5772736182066164
0.5778186959406694 0.8090306990191638 0.6848576611525603
0.6967276994443543 0.8875045837701795 0.6769315426188357
0.9245825171896146 0.7787208932970753 0.5912429483757419
0.7984538928194536 0.8920654056636933 0.5772736182066164
0.7778186959406694 0.8090306990191638 0.6848576611525603
0.8967276994443543 0.8875045837701795 0.6769315426188357
0.1245825171896145 -0.021279106702924728 0.7912429483757419
-0.0015461071805464776 0.09206540566369323 0.7772736182066163
-0.022181304059330664 0.009030699019163714 0.8848576611525604
0.0967276994443543 0.0875045837701795 0.8769315426188357
0.3245825171896145 -0.021279106702924728 0.7912429483757419
0.19845389281945353 0.09206540566369323 0.7772736182066163
0.17781869594066935 0.009030699019163714 0.8848576611525604
0.29672769944435434 0.0875045837701795 0.8769315426188357
0.5245825171896146 -0.021279106702924728 0.7912429483757419
0.39845389281945354 0.09206540566369323 0.7772736182066163
0.37781869594066936 0.009030699019163714 0.8848576611525604
0.4967276994443543 0.0875045837701795 0.8769315426188357
0.7245825171896145 -0.021279106702924728 0.7912429483757419
0.5984538928194535 0.09206540566369323 0.7772736182066163
0.5778186959406694 0.009030699019163714 0.8848576611525604
0.6967276994443543 0.0875045837701795 0.8769315426188357
0.9245825171896146 -0.021279106702924728 0.7912429483757419
0.7984538928194536 0.09206540566369323 0.7772736182066163
0.7778186959406694 0.009030699019163714 0.8848576611525604
0.8967276994443543 0.0875045837701795 0.8769315426188357
0.1245825171896145 0.1787208932970753 0.7912429483757419
-0.0015461071805464776 0.29206540566369327 0.7772736182066163
-0.022181304059330664 0.2090306990191637 0.8848576611525604
0.0967276994443543 0.2875045837701795 0.8769315426188357
0.3245825171896145 0.1787208932970753 0.7912429483757419
0.19845389281945353 0.29206540566369327 0.7772736182066163
0.17781869594066935 0.2090306990191637 0.8848576611525604
0.29672769944435434 0.2875045837701795 0.8769315426188357
0.5245825171896146 0.1787208932970753 0.7912429483757419
0.39845389281945354 0.29206540566369327 0.7772736182066163
0.37781869594066936 0.2090306990191637 0.8848576611525604
0.4967276994443543 0.2875045837701795 0.8769315426188357
0.7245825171896145 0.1787208932970753 0.7912429483757419
0.5984538928194535 0.29206540566369327 0.7772736182066163
0.5778186959406694 0.2090306990191637 0.8848576611525604
0.6967276994443543 0.2875045837701795 0.8769315426188357
0.9245825171896146 0.1787208932970753 0.7912429483757419
0.7984538928194536 0.29206540566369327 0.7772736182066163
0.7778186959406694 0.2090306990191637 0.8848576611525604
0.8967276994443543 0.2875045837701795 0.8769315426188357
0.1245825171896145 0.3787208932970753 0.7912429483757419
-0.0015461071805464776 0.4920654056636933 0.7772736182066163
-0.022181304059330664 0.4090306990191637 0.8848576611525604
0.0967276994443543 0.4875045837701795 0.8769315426188357
0.3245825171896145 0.3787208932970753 0.7912429483757419
0.19845389281945353 0.4920654056636933 0.7772736182066163
0.17781869594066935 0.4090306990191637 0.8848576611525604
0.29672769944435434 0.4875045837701795 0.8769315426188357
0.5245825171896146 0.3787208932970753 0.7912429483757419
0.39845389281945354 0.4920654056636933 0.7772736182066163
0.37781869594066936 0.4090306990191637 0.8848576611525604
0.4967276994443543 0.4875045837701795 0.8769315426188357
0.7245825171896145 0.3787208932970753 0.7912429483757419
0.5984538928194535 0.4920654056636933 0.7772736182066163
0.5778186959406694 0.4090306990191637 0.8848576611525604
0.6967276994443543 0.4875045837701795 0.8769315426188357
0.9245825171896146 0.3787208932970753 0.7912429483757419
0.7984538928194536 0.4920654056636933 0.7772736182066163
0.7778186959406694 0.4090306990191637 0.8848576611525604
0.8967276994443543 0.4875045837701795 0.8769315426188357
0.1245825171896145 0.5787208932970753 0.7912429483757419
-0.0015461071805464776 0.6920654056636932 0.7772736182066163
-0.022181304059330664 0.6090306990191637 0.8848576611525604
0.0967276994443543 0.6875045837701795 0.8769315426188357
0.3245825171896145 0.5787208932970753 0.7912429483757419
0.19845389281945353 0.6920654056636932 0.7772736182066163
0.17781869594066935 0.6090306990191637 0.8848576611525604
0.29672769944435434 0.6875045837701795 0.8769315426188357
0.5245825171896146 0.5787208932970753 0.7912429483757419
0.39845389281945354 0.6920654056636932 0.7772736182066163
0.37781869594066936 0.6090306990191637 0.8848576611525604
0.4967276994443543 0.6875045837701795 0.8769315426188357
0.7245825171896145 0.5787208932970753 0.7912429483757419
0.5984538928194535 0.6920654056636932 0.7772736182066163
0.5778186959406694 0.6090306990191637 0.8848576611525604
0.6967276994443543 0.6875045837701795 0.8769315426188357
0.9245825171896146 0.5787208932970753 0.7912429483757419
0.7984538928194536 0.6920654056636932 0.7772736182066163
0.7778186959406694 0.6090306990191637 0.8848576611525604
0.8967276994443543 0.6875045837701795 0.8769315426188357
0.1245825171896145 0.7787208932970753 0.7912429483757419
-0.0015461071805464776 0.8920654056636933 0.7772736182066163
-0.022181304059330664 0.8090306990191638 0.8848576611525604
0.0967276994443543 0.8875045837701795 0.8769315426188357
0.3245825171896145 0.7787208932970753 0.7912429483757419
0.19845389281945353 0.8920654056636933 0.7772736182066163
0.17781869594066935 0.8090306990191638 0.8848576611525604
0.29672769944435434 0.8875045837701795 0.8769315426188357
0.5245825171896146 0.7787208932970753 0.7912429483757419
0.39845389281945354 0.8920654056636933 0.7772736182066163
0.37781869594066936 0.8090306990191638 0.8848576611525604
0.4967276994443543 0.8875045837701795 0.8769315426188357
0.7245825171896145 0.7787208932970753 0.7912429483757419
0.5984538928194535 0.8920654056636933 0.7772736182066163
0.5778186959406694 0.8090306990191638 0.8848576611525604
0.6967276994443543 0.8875045837701795 0.8769315426188357
0.9245825171896146 0.7787208932970753 0.7912429483757419
0.7984538928194536 0.8920654056636933 0.7772736182066163
0.7778186959406694 0.8090306990191638 0.8848576611525604
0.8967276994443543 0.8875045837701795 0.8769315426188357
