FCC BaO
3.971
5.0 0.0 0.0
0.0 5.0 0.0
0.0 0.0 5.0
Ba O 
500 500 
Direct
-0.022761268944294605 -0.014118945550865937 -0.0077790539388191
0.0007685992804107578 0.07582956453608786 0.10122550398441127
0.09766423104360049 0.022146596237170912 0.10628042712900694
0.07963694153496487 0.11107700312712583 0.00632643374011523
0.17723873105570542 -0.014118945550865937 -0.0077790539388191
0.2007685992804108 0.07582956453608786 0.10122550398441127
0.2976642310436005 0.022146596237170912 0.10628042712900694
0.2796369415349648 0.11107700312712583 0.00632643374011523
0.37723873105570543 -0.014118945550865937 -0.0077790539388191
0.4007685992804108 0.07582956453608786 0.10122550398441127
0.4976642310436005 0.022146596237170912 0.10628042712900694
0.47963694153496483 0.11107700312712583 0.00632643374011523
0.5772387310557054 -0.014118945550865937 -0.0077790539388191
0.6007685992804108 0.07582956453608786 0.10122550398441127
0.6976642310436005 0.022146596237170912 0.10628042712900694
0.6796369415349649 0.11107700312712583 0.00632643374011523
0.7772387310557054 -0.014118945550865937 -0.0077790539388191
0.8007685992804108 0.07582956453608786 0.10122550398441127
0.8976642310436005 0.022146596237170912 0.10628042712900694
0.8796369415349649 0.11107700312712583 0.00632643374011523
-0.022761268944294605 0.18588105444913405 -0.0077790539388191
0.0007685992804107578 0.27582956453608787 0.10122550398441127
0.09766423104360049 0.22214659623717092 0.10628042712900694
0.07963694153496487 0.31107700312712583 0.00632643374011523
0.17723873105570542 0.18588105444913405 -0.0077790539388191
0.2007685992804108 0.27582956453608787 0.10122550398441127
0.2976642310436005 0.22214659623717092 0.10628042712900694
0.2796369415349648 0.31107700312712583 0.00632643374011523
0.37723873105570543 0.18588105444913405 -0.0077790539388191
0.4007685992804108 0.27582956453608787 0.10122550398441127
0.4976642310436005 0.22214659623717092 0.10628042712900694
0.47963694153496483 0.31107700312712583 0.00632643374011523
0.5772387310557054 0.18588105444913405 -0.0077790539388191
0.6007685992804108 0.27582956453608787 0.10122550398441127
0.6976642310436005 0.22214659623717092 0.10628042712900694
0.6796369415349649 0.31107700312712583 0.00632643374011523
0.7772387310557054 0.18588105444913405 -0.0077790539388191
0.8007685992804108 0.27582956453608787 0.10122550398441127
0.8976642310436005 0.22214659623717092 0.10628042712900694
0.8796369415349649 0.31107700312712583 0.00632643374011523
-0.022761268944294605 0.38588105444913406 -0.0077790539388191
0.0007685992804107578 0.47582956453608793 0.10122550398441127
0.09766423104360049 0.4221465962371709 0.10628042712900694
0.07963694153496487 0.5110770031271258 0.00632643374011523
0.17723873105570542 0.38588105444913406 -0.0077790539388191
0.2007685992804108 0.47582956453608793 0.10122550398441127
0.2976642310436005 0.4221465962371709 0.10628042712900694
0.2796369415349648 0.5110770031271258 0.00632643374011523
0.37723873105570543 0.38588105444913406 -0.0077790539388191
0.4007685992804108 0.47582956453608793 0.10122550398441127
0.4976642310436005 0.4221465962371709 0.10628042712900694
0.47963694153496483 0.5110770031271258 0.00632643374011523
0.5772387310557054 0.38588105444913406 -0.0077790539388191
0.6007685992804108 0.47582956453608793 0.10122550398441127
0.6976642310436005 0.4221465962371709 0.10628042712900694
0.6796369415349649 0.5110770031271258 0.00632643374011523
0.7772387310557054 0.38588105444913406 -0.0077790539388191
0.8007685992804108 0.47582956453608793 0.10122550398441127
0.8976642310436005 0.4221465962371709 0.10628042712900694
0.8796369415349649 0.5110770031271258 0.00632643374011523
-0.022761268944294605 0.5858810544491341 -0.0077790539388191
0.0007685992804107578 0.6758295645360879 0.10122550398441127
0.09766423104360049 0.622146596237171 0.10628042712900694
0.07963694153496487 0.7110770031271259 0.00632643374011523
0.17723873105570542 0.5858810544491341 -0.0077790539388191
0.2007685992804108 0.6758295645360879 0.10122550398441127
0.2976642310436005 0.622146596237171 0.10628042712900694
0.2796369415349648 0.7110770031271259 0.00632643374011523
0.37723873105570543 0.5858810544491341 -0.0077790539388191
0.4007685992804108 0.6758295645360879 0.10122550398441127
0.4976642310436005 0.622146596237171 0.10628042712900694
0.47963694153496483 0.7110770031271259 0.00632643374011523
0.5772387310557054 0.5858810544491341 -0.0077790539388191
0.6007685992804108 0.6758295645360879 0.10122550398441127
0.6976642310436005 0.622146596237171 0.10628042712900694
0.6796369415349649 0.7110770031271259 0.00632643374011523
0.7772387310557054 0.5858810544491341 -0.0077790539388191
0.8007685992804108 0.6758295645360879 0.10122550398441127
0.8976642310436005 0.622146596237171 0.10628042712900694
0.8796369415349649 0.7110770031271259 0.00632643374011523
-0.022761268944294605 0.7858810544491341 -0.0077790539388191
0.0007685992804107578 0.8758295645360878 0.10122550398441127
0.09766423104360049 0.822146596237171 0.10628042712900694
0.07963694153496487 0.9110770031271258 0.00632643374011523
0.17723873105570542 0.7858810544491341 -0.0077790539388191
0.2007685992804108 0.8758295645360878 0.10122550398441127
0.2976642310436005 0.822146596237171 0.10628042712900694
0.2796369415349648 0.9110770031271258 0.00632643374011523
0.37723873105570543 0.7858810544491341 -0.0077790539388191
0.4007685992804108 0.8758295645360878 0.10122550398441127
0.4976642310436005 0.822146596237171 0.10628042712900694
0.47963694153496483 0.9110770031271258 0.00632643374011523
0.5772387310557054 0.7858810544491341 -0.0077790539388191
0.6007685992804108 0.8758295645360878 0.10122550398441127
0.6976642310436005 0.822146596237171 0.10628042712900694
0.6796369415349649 0.9110770031271258 0.00632643374011523
0.7772387310557054 0.7858810544491341 -0.0077790539388191
0.8007685992804108 0.8758295645360878 0.10122550398441127
0.8976642310436005 0.822146596237171 0.10628042712900694
0.8796369415349649 0.9110770031271258 0.00632643374011523
-0.022761268944294605 -0.014118945550865937 0.1922209460611809
0.0007685992804107578 0.07582956453608786 0.3012255039844113
0.09766423104360049 0.022146596237170912 0.30628042712900694
0.07963694153496487 0.11107700312712583 0.20632643374011522
0.17723873105570542 -0.014118945550865937 0.1922209460611809
0.2007685992804108 0.07582956453608786 0.3012255039844113
0.2976642310436005 0.022146596237170912 0.30628042712900694
0.2796369415349648 0.11107700312712583 0.20632643374011522
0.37723873105570543 -0.014118945550865937 0.1922209460611809
0.4007685992804108 0.07582956453608786 0.3012255039844113
0.4976642310436005 0.022146596237170912 0.30628042712900694
0.47963694153496483 0.11107700312712583 0.20632643374011522
0.5772387310557054 -0.014118945550865937 0.1922209460611809
0.6007685992804108 0.07582956453608786 0.3012255039844113
0.6976642310436005 0.022146596237170912 0.30628042712900694
0.6796369415349649 0.11107700312712583 0.20632643374011522
0.7772387310557054 -0.014118945550865937 0.1922209460611809
0.8007685992804108 0.07582956453608786 0.3012255039844113
0.8976642310436005 0.022146596237170912 0.30628042712900694
0.8796369415349649 0.11107700312712583 0.20632643374011522
-0.022761268944294605 0.18588105444913405 0.1922209460611809
0.0007685992804107578 0.27582956453608787 0.3012255039844113
0.09766423104360049 0.22214659623717092 0.30628042712900694
0.07963694153496487 0.31107700312712583 0.20632643374011522
0.17723873105570542 0.18588105444913405 0.1922209460611809
0.2007685992804108 0.27582956453608787 0.3012255039844113
0.2976642310436005 0.22214659623717092 0.30628042712900694
0.2796369415349648 0.31107700312712583 0.20632643374011522
0.37723873105570543 0.18588105444913405 0.1922209460611809
0.4007685992804108 0.27582956453608787 0.3012255039844113
0.4976642310436005 0.22214659623717092 0.30628042712900694
0.47963694153496483 0.31107700312712583 0.20632643374011522
0.5772387310557054 0.18588105444913405 0.1922209460611809
0.6007685992804108 0.27582956453608787 0.3012255039844113
0.6976642310436005 0.22214659623717092 0.30628042712900694
0.6796369415349649 0.31107700312712583 0.20632643374011522
0.7772387310557054 0.18588105444913405 0.1922209460611809
0.8007685992804108 0.27582956453608787 0.3012255039844113
0.8976642310436005 0.22214659623717092 0.30628042712900694
0.8796369415349649 0.31107700312712583 0.20632643374011522
-0.022761268944294605 0.38588105444913406 0.1922209460611809
0.0007685992804107578 0.47582956453608793 0.3012255039844113
0.09766423104360049 0.4221465962371709 0.30628042712900694
0.07963694153496487 0.5110770031271258 0.20632643374011522
0.17723873105570542 0.38588105444913406 0.1922209460611809
0.2007685992804108 0.47582956453608793 0.3012255039844113
0.2976642310436005 0.4221465962371709 0.30628042712900694
0.2796369415349648 0.5110770031271258 0.20632643374011522
0.37723873105570543 0.38588105444913406 0.1922209460611809
0.4007685992804108 0.47582956453608793 0.3012255039844113
0.4976642310436005 0.4221465962371709 0.30628042712900694
0.47963694153496483 0.5110770031271258 0.20632643374011522
0.5772387310557054 0.38588105444913406 0.1922209460611809
0.6007685992804108 0.47582956453608793 0.3012255039844113
0.6976642310436005 0.4221465962371709 0.30628042712900694
0.6796369415349649 0.5110770031271258 0.20632643374011522
0.7772387310557054 0.38588105444913406 0.1922209460611809
0.8007685992804108 0.47582956453608793 0.3012255039844113
0.8976642310436005 0.4221465962371709 0.30628042712900694
0.8796369415349649 0.5110770031271258 0.20632643374011522
-0.022761268944294605 0.5858810544491341 0.1922209460611809
0.0007685992804107578 0.6758295645360879 0.3012255039844113
0.09766423104360049 0.622146596237171 0.30628042712900694
0.07963694153496487 0.7110770031271259 0.20632643374011522
0.17723873105570542 0.5858810544491341 0.1922209460611809
0.2007685992804108 0.6758295645360879 0.3012255039844113
0.2976642310436005 0.622146596237171 0.30628042712900694
0.2796369415349648 0.7110770031271259 0.20632643374011522
0.37723873105570543 0.5858810544491341 0.1922209460611809
0.4007685992804108 0.6758295645360879 0.3012255039844113
0.4976642310436005 0.622146596237171 0.30628042712900694
0.47963694153496483 0.7110770031271259 0.20632643374011522
0.5772387310557054 0.5858810544491341 0.1922209460611809
0.6007685992804108 0.6758295645360879 0.3012255039844113
0.6976642310436005 0.622146596237171 0.30628042712900694
0.6796369415349649 0.7110770031271259 0.20632643374011522
0.7772387310557054 0.5858810544491341 0.1922209460611809
0.8007685992804108 0.6758295645360879 0.3012255039844113
0.8976642310436005 0.622146596237171 0.30628042712900694
0.8796369415349649 0.7110770031271259 0.20632643374011522
-0.022761268944294605 0.7858810544491341 0.1922209460611809
0.0007685992804107578 0.8758295645360878 0.3012255039844113
0.09766423104360049 0.822146596237171 0.30628042712900694
0.07963694153496487 0.9110770031271258 0.20632643374011522
0.17723873105570542 0.7858810544491341 0.1922209460611809
0.2007685992804108 0.8758295645360878 0.3012255039844113
0.2976642310436005 0.822146596237171 0.30628042712900694
0.2796369415349648 0.9110770031271258 0.20632643374011522
0.37723873105570543 0.7858810544491341 0.1922209460611809
0.4007685992804108 0.8758295645360878 0.3012255039844113
0.4976642310436005 0.822146596237171 0.30628042712900694
0.47963694153496483 0.9110770031271258 0.20632643374011522
0.5772387310557054 0.7858810544491341 0.1922209460611809
0.6007685992804108 0.8758295645360878 0.3012255039844113
0.6976642310436005 0.822146596237171 0.30628042712900694
0.6796369415349649 0.9110770031271258 0.20632643374011522
0.7772387310557054 0.7858810544491341 0.1922209460611809
0.8007685992804108 0.8758295645360878 0.3012255039844113
0.8976642310436005 0.822146596237171 0.30628042712900694
0.8796369415349649 0.9110770031271258 0.20632643374011522
-0.022761268944294605 -0.014118945550865937 0.39222094606118096
0.0007685992804107578 0.07582956453608786 0.5012255039844112
0.09766423104360049 0.022146596237170912 0.506280427129007
0.07963694153496487 0.11107700312712583 0.4063264337401153
0.17723873105570542 -0.014118945550865937 0.39222094606118096
0.2007685992804108 0.07582956453608786 0.5012255039844112
0.2976642310436005 0.022146596237170912 0.506280427129007
0.2796369415349648 0.11107700312712583 0.4063264337401153
0.37723873105570543 -0.014118945550865937 0.39222094606118096
0.4007685992804108 0.07582956453608786 0.5012255039844112
0.4976642310436005 0.022146596237170912 0.506280427129007
0.47963694153496483 0.11107700312712583 0.4063264337401153
0.5772387310557054 -0.014118945550865937 0.39222094606118096
0.6007685992804108 0.07582956453608786 0.5012255039844112
0.6976642310436005 0.022146596237170912 0.506280427129007
0.6796369415349649 0.11107700312712583 0.4063264337401153
0.7772387310557054 -0.014118945550865937 0.39222094606118096
0.8007685992804108 0.07582956453608786 0.5012255039844112
0.8976642310436005 0.022146596237170912 0.506280427129007
0.8796369415349649 0.11107700312712583 0.4063264337401153
-0.022761268944294605 0.18588105444913405 0.39222094606118096
0.0007685992804107578 0.27582956453608787 0.5012255039844112
0.09766423104360049 0.22214659623717092 0.506280427129007
0.07963694153496487 0.31107700312712583 0.4063264337401153
0.17723873105570542 0.18588105444913405 0.39222094606118096
0.2007685992804108 0.27582956453608787 0.5012255039844112
0.2976642310436005 0.22214659623717092 0.506280427129007
0.2796369415349648 0.31107700312712583 0.4063264337401153
0.37723873105570543 0.18588105444913405 0.39222094606118096
0.4007685992804108 0.27582956453608787 0.5012255039844112
0.4976642310436005 0.22214659623717092 0.506280427129007
0.47963694153496483 0.31107700312712583 0.4063264337401153
0.5772387310557054 0.18588105444913405 0.39222094606118096
0.6007685992804108 0.27582956453608787 0.5012255039844112
0.6976642310436005 0.22214659623717092 0.506280427129007
0.6796369415349649 0.31107700312712583 0.4063264337401153
0.7772387310557054 0.18588105444913405 0.39222094606118096
0.8007685992804108 0.27582956453608787 0.5012255039844112
0.8976642310436005 0.22214659623717092 0.506280427129007
0.8796369415349649 0.31107700312712583 0.4063264337401153
-0.022761268944294605 0.38588105444913406 0.39222094606118096
0.0007685992804107578 0.47582956453608793 0.5012255039844112
0.09766423104360049 0.4221465962371709 0.506280427129007
0.07963694153496487 0.5110770031271258 0.4063264337401153
0.17723873105570542 0.38588105444913406 0.39222094606118096
0.2007685992804108 0.47582956453608793 0.5012255039844112
0.2976642310436005 0.4221465962371709 0.506280427129007
0.2796369415349648 0.5110770031271258 0.4063264337401153
0.37723873105570543 0.38588105444913406 0.39222094606118096
0.4007685992804108 0.47582956453608793 0.5012255039844112
0.4976642310436005 0.4221465962371709 0.506280427129007
0.47963694153496483 0.5110770031271258 0.4063264337401153
0.5772387310557054 0.38588105444913406 0.39222094606118096
0.6007685992804108 0.47582956453608793 0.5012255039844112
0.6976642310436005 0.4221465962371709 0.506280427129007
0.6796369415349649 0.5110770031271258 0.4063264337401153
0.7772387310557054 0.38588105444913406 0.39222094606118096
0.8007685992804108 0.47582956453608793 0.5012255039844112
0.8976642310436005 0.4221465962371709 0.506280427129007
0.8796369415349649 0.5110770031271258 0.4063264337401153
-0.022761268944294605 0.5858810544491341 0.39222094606118096
0.0007685992804107578 0.6758295645360879 0.5012255039844112
0.09766423104360049 0.622146596237171 0.506280427129007
0.07963694153496487 0.7110770031271259 0.4063264337401153
0.17723873105570542 0.5858810544491341 0.39222094606118096
0.2007685992804108 0.6758295645360879 0.5012255039844112
0.2976642310436005 0.622146596237171 0.506280427129007
0.2796369415349648 0.7110770031271259 0.4063264337401153
0.37723873105570543 0.5858810544491341 0.39222094606118096
0.4007685992804108 0.6758295645360879 0.5012255039844112
0.4976642310436005 0.622146596237171 0.506280427129007
0.47963694153496483 0.7110770031271259 0.4063264337401153
0.5772387310557054 0.5858810544491341 0.39222094606118096
0.6007685992804108 0.6758295645360879 0.5012255039844112
0.6976642310436005 0.622146596237171 0.506280427129007
0.6796369415349649 0.7110770031271259 0.4063264337401153
0.7772387310557054 0.5858810544491341 0.39222094606118096
0.8007685992804108 0.6758295645360879 0.5012255039844112
0.8976642310436005 0.622146596237171 0.506280427129007
0.8796369415349649 0.7110770031271259 0.4063264337401153
-0.022761268944294605 0.7858810544491341 0.39222094606118096
0.0007685992804107578 0.8758295645360878 0.5012255039844112
0.09766423104360049 0.822146596237171 0.506280427129007
0.07963694153496487 0.9110770031271258 0.4063264337401153
0.17723873105570542 0.7858810544491341 0.39222094606118096
0.2007685992804108 0.8758295645360878 0.5012255039844112
0.2976642310436005 0.822146596237171 0.506280427129007
0.2796369415349648 0.9110770031271258 0.4063264337401153
0.37723873105570543 0.7858810544491341 0.39222094606118096
0.4007685992804108 0.8758295645360878 0.5012255039844112
0.4976642310436005 0.822146596237171 0.506280427129007
0.47963694153496483 0.9110770031271258 0.4063264337401153
0.5772387310557054 0.7858810544491341 0.39222094606118096
0.6007685992804108 0.8758295645360878 0.5012255039844112
0.6976642310436005 0.822146596237171 0.506280427129007
0.6796369415349649 0.9110770031271258 0.4063264337401153
0.7772387310557054 0.7858810544491341 0.39222094606118096
0.8007685992804108 0.8758295645360878 0.5012255039844112
0.8976642310436005 0.822146596237171 0.506280427129007
0.8796369415349649 0.9110770031271258 0.4063264337401153
-0.022761268944294605 -0.014118945550865937 0.5922209460611809
0.0007685992804107578 0.07582956453608786 0.7012255039844113
0.09766423104360049 0.022146596237170912 0.706280427129007
0.07963694153496487 0.11107700312712583 0.6063264337401153
0.17723873105570542 -0.014118945550865937 0.5922209460611809
0.2007685992804108 0.07582956453608786 0.7012255039844113
0.2976642310436005 0.022146596237170912 0.706280427129007
0.2796369415349648 0.11107700312712583 0.6063264337401153
0.37723873105570543 -0.014118945550865937 0.5922209460611809
0.4007685992804108 0.07582956453608786 0.7012255039844113
0.4976642310436005 0.022146596237170912 0.706280427129007
0.47963694153496483 0.11107700312712583 0.6063264337401153
0.5772387310557054 -0.014118945550865937 0.5922209460611809
0.6007685992804108 0.07582956453608786 0.7012255039844113
0.6976642310436005 0.022146596237170912 0.706280427129007
0.6796369415349649 0.11107700312712583 0.6063264337401153
0.7772387310557054 -0.014118945550865937 0.5922209460611809
0.8007685992804108 0.07582956453608786 0.7012255039844113
0.8976642310436005 0.022146596237170912 0.706280427129007
0.8796369415349649 0.11107700312712583 0.6063264337401153
-0.022761268944294605 0.18588105444913405 0.5922209460611809
0.0007685992804107578 0.27582956453608787 0.7012255039844113
0.09766423104360049 0.22214659623717092 0.706280427129007
0.07963694153496487 0.31107700312712583 0.6063264337401153
0.17723873105570542 0.18588105444913405 0.5922209460611809
0.2007685992804108 0.27582956453608787 0.7012255039844113
0.2976642310436005 0.22214659623717092 0.706280427129007
0.2796369415349648 0.31107700312712583 0.6063264337401153
0.37723873105570543 0.18588105444913405 0.5922209460611809
0.4007685992804108 0.27582956453608787 0.7012255039844113
0.4976642310436005 0.22214659623717092 0.706280427129007
0.47963694153496483 0.31107700312712583 0.6063264337401153
0.5772387310557054 0.18588105444913405 0.5922209460611809
0.6007685992804108 0.27582956453608787 0.7012255039844113
0.6976642310436005 0.22214659623717092 0.706280427129007
0.6796369415349649 0.31107700312712583 0.6063264337401153
0.7772387310557054 0.18588105444913405 0.5922209460611809
0.8007685992804108 0.27582956453608787 0.7012255039844113
0.8976642310436005 0.22214659623717092 0.706280427129007
0.8796369415349649 0.31107700312712583 0.6063264337401153
-0.022761268944294605 0.38588105444913406 0.5922209460611809
0.0007685992804107578 0.47582956453608793 0.7012255039844113
0.09766423104360049 0.4221465962371709 0.706280427129007
0.07963694153496487 0.5110770031271258 0.6063264337401153
0.17723873105570542 0.38588105444913406 0.5922209460611809
0.2007685992804108 0.47582956453608793 0.7012255039844113
0.2976642310436005 0.4221465962371709 0.706280427129007
0.2796369415349648 0.5110770031271258 0.6063264337401153
0.37723873105570543 0.38588105444913406 0.5922209460611809
0.4007685992804108 0.47582956453608793 0.7012255039844113
0.4976642310436005 0.4221465962371709 0.706280427129007
0.47963694153496483 0.5110770031271258 0.6063264337401153
0.5772387310557054 0.38588105444913406 0.5922209460611809
0.6007685992804108 0.47582956453608793 0.7012255039844113
0.6976642310436005 0.4221465962371709 0.706280427129007
0.6796369415349649 0.5110770031271258 0.6063264337401153
0.7772387310557054 0.38588105444913406 0.5922209460611809
0.8007685992804108 0.47582956453608793 0.7012255039844113
0.8976642310436005 0.4221465962371709 0.706280427129007
0.8796369415349649 0.5110770031271258 0.6063264337401153
-0.022761268944294605 0.5858810544491341 0.5922209460611809
0.0007685992804107578 0.6758295645360879 0.7012255039844113
0.09766423104360049 0.622146596237171 0.706280427129007
0.07963694153496487 0.7110770031271259 0.6063264337401153
0.17723873105570542 0.5858810544491341 0.5922209460611809
0.2007685992804108 0.6758295645360879 0.7012255039844113
0.2976642310436005 0.622146596237171 0.706280427129007
0.2796369415349648 0.7110770031271259 0.6063264337401153
0.37723873105570543 0.5858810544491341 0.5922209460611809
0.4007685992804108 0.6758295645360879 0.7012255039844113
0.4976642310436005 0.622146596237171 0.706280427129007
0.47963694153496483 0.7110770031271259 0.6063264337401153
0.5772387310557054 0.5858810544491341 0.5922209460611809
0.6007685992804108 0.6758295645360879 0.7012255039844113
0.6976642310436005 0.622146596237171 0.706280427129007
0.6796369415349649 0.7110770031271259 0.6063264337401153
0.7772387310557054 0.5858810544491341 0.5922209460611809
0.8007685992804108 0.6758295645360879 0.7012255039844113
0.8976642310436005 0.622146596237171 0.706280427129007
0.8796369415349649 0.7110770031271259 0.6063264337401153
-0.022761268944294605 0.7858810544491341 0.5922209460611809
0.0007685992804107578 0.8758295645360878 0.7012255039844113
0.09766423104360049 0.822146596237171 0.706280427129007
0.07963694153496487 0.9110770031271258 0.6063264337401153
0.17723873105570542 0.7858810544491341 0.5922209460611809
0.2007685992804108 0.8758295645360878 0.7012255039844113
0.2976642310436005 0.822146596237171 0.706280427129007
0.2796369415349648 0.9110770031271258 0.6063264337401153
0.37723873105570543 0.7858810544491341 0.5922209460611809
0.4007685992804108 0.8758295645360878 0.7012255039844113
0.4976642310436005 0.822146596237171 0.706280427129007
0.47963694153496483 0.9110770031271258 0.6063264337401153
0.5772387310557054 0.7858810544491341 0.5922209460611809
0.6007685992804108 0.8758295645360878 0.7012255039844113
0.6976642310436005 0.822146596237171 0.706280427129007
0.6796369415349649 0.9110770031271258 0.6063264337401153
0.7772387310557054 0.7858810544491341 0.5922209460611809
0.8007685992804108 0.8758295645360878 0.7012255039844113
0.8976642310436005 0.822146596237171 0.706280427129007
0.8796369415349649 0.9110770031271258 0.6063264337401153
-0.022761268944294605 -0.014118945550865937 0.7922209460611809
0.0007685992804107578 0.07582956453608786 0.9012255039844114
0.09766423104360049 0.022146596237170912 0.906280427129007
0.07963694153496487 0.11107700312712583 0.8063264337401153
0.17723873105570542 -0.014118945550865937 0.7922209460611809
0.2007685992804108 0.07582956453608786 0.9012255039844114
0.2976642310436005 0.022146596237170912 0.906280427129007
0.2796369415349648 0.11107700312712583 0.8063264337401153
0.37723873105570543 -0.014118945550865937 0.7922209460611809
0.4007685992804108 0.07582956453608786 0.9012255039844114
0.4976642310436005 0.022146596237170912 0.906280427129007
0.47963694153496483 0.11107700312712583 0.8063264337401153
0.5772387310557054 -0.014118945550865937 0.7922209460611809
0.6007685992804108 0.07582956453608786 0.9012255039844114
0.6976642310436005 0.022146596237170912 0.906280427129007
0.6796369415349649 0.11107700312712583 0.8063264337401153
0.7772387310557054 -0.014118945550865937 0.7922209460611809
0.8007685992804108 0.07582956453608786 0.9012255039844114
0.8976642310436005 0.022146596237170912 0.906280427129007
0.8796369415349649 0.11107700312712583 0.8063264337401153
-0.022761268944294605 0.18588105444913405 0.7922209460611809
0.0007685992804107578 0.27582956453608787 0.9012255039844114
0.09766423104360049 0.22214659623717092 0.906280427129007
0.07963694153496487 0.31107700312712583 0.8063264337401153
0.17723873105570542 0.18588105444913405 0.7922209460611809
0.2007685992804108 0.27582956453608787 0.9012255039844114
0.2976642310436005 0.22214659623717092 0.906280427129007
0.2796369415349648 0.31107700312712583 0.8063264337401153
0.37723873105570543 0.18588105444913405 0.7922209460611809
0.4007685992804108 0.27582956453608787 0.9012255039844114
0.4976642310436005 0.22214659623717092 0.906280427129007
0.47963694153496483 0.31107700312712583 0.8063264337401153
0.5772387310557054 0.18588105444913405 0.7922209460611809
0.6007685992804108 0.27582956453608787 0.9012255039844114
0.6976642310436005 0.22214659623717092 0.906280427129007
0.6796369415349649 0.31107700312712583 0.8063264337401153
0.7772387310557054 0.18588105444913405 0.7922209460611809
0.8007685992804108 0.27582956453608787 0.9012255039844114
0.8976642310436005 0.22214659623717092 0.906280427129007
0.8796369415349649 0.31107700312712583 0.8063264337401153
-0.022761268944294605 0.38588105444913406 0.7922209460611809
0.0007685992804107578 0.47582956453608793 0.9012255039844114
0.09766423104360049 0.4221465962371709 0.906280427129007
0.07963694153496487 0.5110770031271258 0.8063264337401153
0.17723873105570542 0.38588105444913406 0.7922209460611809
0.2007685992804108 0.47582956453608793 0.9012255039844114
0.2976642310436005 0.4221465962371709 0.906280427129007
0.2796369415349648 0.5110770031271258 0.8063264337401153
0.37723873105570543 0.38588105444913406 0.7922209460611809
0.4007685992804108 0.47582956453608793 0.9012255039844114
0.4976642310436005 0.4221465962371709 0.906280427129007
0.47963694153496483 0.5110770031271258 0.8063264337401153
0.5772387310557054 0.38588105444913406 0.7922209460611809
0.6007685992804108 0.47582956453608793 0.9012255039844114
0.6976642310436005 0.4221465962371709 0.906280427129007
0.6796369415349649 0.5110770031271258 0.8063264337401153
0.7772387310557054 0.38588105444913406 0.7922209460611809
0.8007685992804108 0.47582956453608793 0.9012255039844114
0.8976642310436005 0.4221465962371709 0.906280427129007
0.8796369415349649 0.5110770031271258 0.8063264337401153
-0.022761268944294605 0.5858810544491341 0.7922209460611809
0.0007685992804107578 0.6758295645360879 0.9012255039844114
0.09766423104360049 0.622146596237171 0.906280427129007
0.07963694153496487 0.7110770031271259 0.8063264337401153
0.17723873105570542 0.5858810544491341 0.7922209460611809
0.2007685992804108 0.6758295645360879 0.9012255039844114
0.2976642310436005 0.622146596237171 0.906280427129007
0.2796369415349648 0.7110770031271259 0.8063264337401153
0.37723873105570543 0.5858810544491341 0.7922209460611809
0.4007685992804108 0.6758295645360879 0.9012255039844114
0.4976642310436005 0.622146596237171 0.906280427129007
0.47963694153496483 0.7110770031271259 0.8063264337401153
0.5772387310557054 0.5858810544491341 0.7922209460611809
0.6007685992804108 0.6758295645360879 0.9012255039844114
0.6976642310436005 0.622146596237171 0.906280427129007
0.6796369415349649 0.7110770031271259 0.8063264337401153
0.7772387310557054 0.5858810544491341 0.7922209460611809
0.8007685992804108 0.6758295645360879 0.9012255039844114
0.8976642310436005 0.622146596237171 0.906280427129007
0.8796369415349649 0.7110770031271259 0.8063264337401153
-0.022761268944294605 0.7858810544491341 0.7922209460611809
0.0007685992804107578 0.8758295645360878 0.9012255039844114
0.09766423104360049 0.822146596237171 0.906280427129007
0.07963694153496487 0.9110770031271258 0.8063264337401153
0.17723873105570542 0.7858810544491341 0.7922209460611809
0.2007685992804108 0.8758295645360878 0.9012255039844114
0.2976642310436005 0.822146596237171 0.906280427129007
0.2796369415349648 0.9110770031271258 0.8063264337401153
0.37723873105570543 0.7858810544491341 0.7922209460611809
0.4007685992804108 0.8758295645360878 0.9012255039844114
0.4976642310436005 0.822146596237171 0.906280427129007
0.47963694153496483 0.9110770031271258 0.8063264337401153
0.5772387310557054 0.7858810544491341 0.7922209460611809
0.6007685992804108 0.8758295645360878 0.9012255039844114
0.6976642310436005 0.822146596237171 0.906280427129007
0.6796369415349649 0.9110770031271258 0.8063264337401153
0.7772387310557054 0.7858810544491341 0.7922209460611809
0.8007685992804108 0.8758295645360878 0.9012255039844114
0.8976642310436005 0.822146596237171 0.906280427129007
0.8796369415349649 0.9110770031271258 0.8063264337401153
0.09382063685793778 0.0029882769297620224 -0.011048190419248122
0.016501872790563716 0.09740795874680952 -0.00565664182288004
0.025922716479571725 -0.01192500045832561 0.07214618452410614
0.10437694508935243 0.12981893369268666 0.10289307283815914
0.2938206368579378 0.0029882769297620224 -0.011048190419248122
0.2165018727905637 0.09740795874680952 -0.00565664182288004
0.22592271647957174 -0.01192500045832561 0.07214618452410614
0.3043769450893525 0.12981893369268666 0.10289307283815914
0.4938206368579378 0.0029882769297620224 -0.011048190419248122
0.4165018727905637 0.09740795874680952 -0.00565664182288004
0.4259227164795718 -0.01192500045832561 0.07214618452410614
0.5043769450893525 0.12981893369268666 0.10289307283815914
0.6938206368579378 0.0029882769297620224 -0.011048190419248122
0.6165018727905638 0.09740795874680952 -0.00565664182288004
0.6259227164795718 -0.01192500045832561 0.07214618452410614
0.7043769450893524 0.12981893369268666 0.10289307283815914
0.8938206368579378 0.0029882769297620224 -0.011048190419248122
0.8165018727905639 0.09740795874680952 -0.00565664182288004
0.8259227164795718 -0.01192500045832561 0.07214618452410614
0.9043769450893525 0.12981893369268666 0.10289307283815914
0.09382063685793778 0.202988276929762 -0.011048190419248122
0.016501872790563716 0.29740795874680953 -0.00565664182288004
0.025922716479571725 0.1880749995416744 0.07214618452410614
0.10437694508935243 0.32981893369268667 0.10289307283815914
0.2938206368579378 0.202988276929762 -0.011048190419248122
0.2165018727905637 0.29740795874680953 -0.00565664182288004
0.22592271647957174 0.1880749995416744 0.07214618452410614
0.3043769450893525 0.32981893369268667 0.10289307283815914
0.4938206368579378 0.202988276929762 -0.011048190419248122
0.4165018727905637 0.29740795874680953 -0.00565664182288004
0.4259227164795718 0.1880749995416744 0.07214618452410614
0.5043769450893525 0.32981893369268667 0.10289307283815914
0.6938206368579378 0.202988276929762 -0.011048190419248122
0.6165018727905638 0.29740795874680953 -0.00565664182288004
0.6259227164795718 0.1880749995416744 0.07214618452410614
0.7043769450893524 0.32981893369268667 0.10289307283815914
0.8938206368579378 0.202988276929762 -0.011048190419248122
0.8165018727905639 0.29740795874680953 -0.00565664182288004
0.8259227164795718 0.1880749995416744 0.07214618452410614
0.9043769450893525 0.32981893369268667 0.10289307283815914
0.09382063685793778 0.402988276929762 -0.011048190419248122
0.016501872790563716 0.49740795874680954 -0.00565664182288004
0.025922716479571725 0.3880749995416744 0.07214618452410614
0.10437694508935243 0.5298189336926867 0.10289307283815914
0.2938206368579378 0.402988276929762 -0.011048190419248122
0.2165018727905637 0.49740795874680954 -0.00565664182288004
0.22592271647957174 0.3880749995416744 0.07214618452410614
0.3043769450893525 0.5298189336926867 0.10289307283815914
0.4938206368579378 0.402988276929762 -0.011048190419248122
0.4165018727905637 0.49740795874680954 -0.00565664182288004
0.4259227164795718 0.3880749995416744 0.07214618452410614
0.5043769450893525 0.5298189336926867 0.10289307283815914
0.6938206368579378 0.402988276929762 -0.011048190419248122
0.6165018727905638 0.49740795874680954 -0.00565664182288004
0.6259227164795718 0.3880749995416744 0.07214618452410614
0.7043769450893524 0.5298189336926867 0.10289307283815914
0.8938206368579378 0.402988276929762 -0.011048190419248122
0.8165018727905639 0.49740795874680954 -0.00565664182288004
0.8259227164795718 0.3880749995416744 0.07214618452410614
0.9043769450893525 0.5298189336926867 0.10289307283815914
0.09382063685793778 0.6029882769297621 -0.011048190419248122
0.016501872790563716 0.6974079587468096 -0.00565664182288004
0.025922716479571725 0.5880749995416744 0.07214618452410614
0.10437694508935243 0.7298189336926867 0.10289307283815914
0.2938206368579378 0.6029882769297621 -0.011048190419248122
0.2165018727905637 0.6974079587468096 -0.00565664182288004
0.22592271647957174 0.5880749995416744 0.07214618452410614
0.3043769450893525 0.7298189336926867 0.10289307283815914
0.4938206368579378 0.6029882769297621 -0.011048190419248122
0.4165018727905637 0.6974079587468096 -0.00565664182288004
0.4259227164795718 0.5880749995416744 0.07214618452410614
0.5043769450893525 0.7298189336926867 0.10289307283815914
0.6938206368579378 0.6029882769297621 -0.011048190419248122
0.6165018727905638 0.6974079587468096 -0.00565664182288004
0.6259227164795718 0.5880749995416744 0.07214618452410614
0.7043769450893524 0.7298189336926867 0.10289307283815914
0.8938206368579378 0.6029882769297621 -0.011048190419248122
0.8165018727905639 0.6974079587468096 -0.00565664182288004
0.8259227164795718 0.5880749995416744 0.07214618452410614
0.9043769450893525 0.7298189336926867 0.10289307283815914
0.09382063685793778 0.802988276929762 -0.011048190419248122
0.016501872790563716 0.8974079587468096 -0.00565664182288004
0.025922716479571725 0.7880749995416744 0.07214618452410614
0.10437694508935243 0.9298189336926866 0.10289307283815914
0.2938206368579378 0.802988276929762 -0.011048190419248122
0.2165018727905637 0.8974079587468096 -0.00565664182288004
0.22592271647957174 0.7880749995416744 0.07214618452410614
0.3043769450893525 0.9298189336926866 0.10289307283815914
0.4938206368579378 0.802988276929762 -0.011048190419248122
0.4165018727905637 0.8974079587468096 -0.00565664182288004
0.4259227164795718 0.7880749995416744 0.07214618452410614
0.5043769450893525 0.9298189336926866 0.10289307283815914
0.6938206368579378 0.802988276929762 -0.011048190419248122
0.6165018727905638 0.8974079587468096 -0.00565664182288004
0.6259227164795718 0.7880749995416744 0.07214618452410614
0.7043769450893524 0.9298189336926866 0.10289307283815914
0.8938206368579378 0.802988276929762 -0.011048190419248122
0.8165018727905639 0.8974079587468096 -0.00565664182288004
0.8259227164795718 0.7880749995416744 0.07214618452410614
0.9043769450893525 0.9298189336926866 0.10289307283815914
0.09382063685793778 0.0029882769297620224 0.1889518095807519
0.016501872790563716 0.09740795874680952 0.19434335817711998
0.025922716479571725 -0.01192500045832561 0.27214618452410616
0.10437694508935243 0.12981893369268666 0.30289307283815914
0.2938206368579378 0.0029882769297620224 0.1889518095807519
0.2165018727905637 0.09740795874680952 0.19434335817711998
0.22592271647957174 -0.01192500045832561 0.27214618452410616
0.3043769450893525 0.12981893369268666 0.30289307283815914
0.4938206368579378 0.0029882769297620224 0.1889518095807519
0.4165018727905637 0.09740795874680952 0.19434335817711998
0.4259227164795718 -0.01192500045832561 0.27214618452410616
0.5043769450893525 0.12981893369268666 0.30289307283815914
0.6938206368579378 0.0029882769297620224 0.1889518095807519
0.6165018727905638 0.09740795874680952 0.19434335817711998
0.6259227164795718 -0.01192500045832561 0.27214618452410616
0.7043769450893524 0.12981893369268666 0.30289307283815914
0.8938206368579378 0.0029882769297620224 0.1889518095807519
0.8165018727905639 0.09740795874680952 0.19434335817711998
0.8259227164795718 -0.01192500045832561 0.27214618452410616
0.9043769450893525 0.12981893369268666 0.30289307283815914
0.09382063685793778 0.202988276929762 0.1889518095807519
0.016501872790563716 0.29740795874680953 0.19434335817711998
0.025922716479571725 0.1880749995416744 0.27214618452410616
0.10437694508935243 0.32981893369268667 0.30289307283815914
0.2938206368579378 0.202988276929762 0.1889518095807519
0.2165018727905637 0.29740795874680953 0.19434335817711998
0.22592271647957174 0.1880749995416744 0.27214618452410616
0.3043769450893525 0.32981893369268667 0.30289307283815914
0.4938206368579378 0.202988276929762 0.1889518095807519
0.4165018727905637 0.29740795874680953 0.19434335817711998
0.4259227164795718 0.1880749995416744 0.27214618452410616
0.5043769450893525 0.32981893369268667 0.30289307283815914
0.6938206368579378 0.202988276929762 0.1889518095807519
0.6165018727905638 0.29740795874680953 0.19434335817711998
0.6259227164795718 0.1880749995416744 0.27214618452410616
0.7043769450893524 0.32981893369268667 0.30289307283815914
0.8938206368579378 0.202988276929762 0.1889518095807519
0.8165018727905639 0.29740795874680953 0.19434335817711998
0.8259227164795718 0.1880749995416744 0.27214618452410616
0.9043769450893525 0.32981893369268667 0.30289307283815914
0.09382063685793778 0.402988276929762 0.1889518095807519
0.016501872790563716 0.49740795874680954 0.19434335817711998
0.025922716479571725 0.3880749995416744 0.27214618452410616
0.10437694508935243 0.5298189336926867 0.30289307283815914
0.2938206368579378 0.402988276929762 0.1889518095807519
0.2165018727905637 0.49740795874680954 0.19434335817711998
0.22592271647957174 0.3880749995416744 0.27214618452410616
0.3043769450893525 0.5298189336926867 0.30289307283815914
0.4938206368579378 0.402988276929762 0.1889518095807519
0.4165018727905637 0.49740795874680954 0.19434335817711998
0.4259227164795718 0.3880749995416744 0.27214618452410616
0.5043769450893525 0.5298189336926867 0.30289307283815914
0.6938206368579378 0.402988276929762 0.1889518095807519
0.6165018727905638 0.49740795874680954 0.19434335817711998
0.6259227164795718 0.3880749995416744 0.27214618452410616
0.7043769450893524 0.5298189336926867 0.30289307283815914
0.8938206368579378 0.402988276929762 0.1889518095807519
0.8165018727905639 0.49740795874680954 0.19434335817711998
0.8259227164795718 0.3880749995416744 0.27214618452410616
0.9043769450893525 0.5298189336926867 0.30289307283815914
0.09382063685793778 0.6029882769297621 0.1889518095807519
0.016501872790563716 0.6974079587468096 0.19434335817711998
0.025922716479571725 0.5880749995416744 0.27214618452410616
0.10437694508935243 0.7298189336926867 0.30289307283815914
0.2938206368579378 0.6029882769297621 0.1889518095807519
0.2165018727905637 0.6974079587468096 0.19434335817711998
0.22592271647957174 0.5880749995416744 0.27214618452410616
0.3043769450893525 0.7298189336926867 0.30289307283815914
0.4938206368579378 0.6029882769297621 0.1889518095807519
0.4165018727905637 0.6974079587468096 0.19434335817711998
0.4259227164795718 0.5880749995416744 0.27214618452410616
0.5043769450893525 0.7298189336926867 0.30289307283815914
0.6938206368579378 0.6029882769297621 0.1889518095807519
0.6165018727905638 0.6974079587468096 0.19434335817711998
0.6259227164795718 0.5880749995416744 0.27214618452410616
0.7043769450893524 0.7298189336926867 0.30289307283815914
0.8938206368579378 0.6029882769297621 0.1889518095807519
0.8165018727905639 0.6974079587468096 0.19434335817711998
0.8259227164795718 0.5880749995416744 0.27214618452410616
0.9043769450893525 0.7298189336926867 0.30289307283815914
0.09382063685793778 0.802988276929762 0.1889518095807519
0.016501872790563716 0.8974079587468096 0.19434335817711998
0.025922716479571725 0.7880749995416744 0.27214618452410616
0.10437694508935243 0.9298189336926866 0.30289307283815914
0.2938206368579378 0.802988276929762 0.1889518095807519
0.2165018727905637 0.8974079587468096 0.19434335817711998
0.22592271647957174 0.7880749995416744 0.27214618452410616
0.3043769450893525 0.9298189336926866 0.30289307283815914
0.4938206368579378 0.802988276929762 0.1889518095807519
0.4165018727905637 0.8974079587468096 0.19434335817711998
0.4259227164795718 0.7880749995416744 0.27214618452410616
0.5043769450893525 0.9298189336926866 0.30289307283815914
0.6938206368579378 0.802988276929762 0.1889518095807519
0.6165018727905638 0.8974079587468096 0.19434335817711998
0.6259227164795718 0.7880749995416744 0.27214618452410616
0.7043769450893524 0.9298189336926866 0.30289307283815914
0.8938206368579378 0.802988276929762 0.1889518095807519
0.8165018727905639 0.8974079587468096 0.19434335817711998
0.8259227164795718 0.7880749995416744 0.27214618452410616
0.9043769450893525 0.9298189336926866 0.30289307283815914
0.09382063685793778 0.0029882769297620224 0.3889518095807519
0.016501872790563716 0.09740795874680952 0.39434335817711996
0.025922716479571725 -0.01192500045832561 0.4721461845241061
0.10437694508935243 0.12981893369268666 0.5028930728381592
0.2938206368579378 0.0029882769297620224 0.3889518095807519
0.2165018727905637 0.09740795874680952 0.39434335817711996
0.22592271647957174 -0.01192500045832561 0.4721461845241061
0.3043769450893525 0.12981893369268666 0.5028930728381592
0.4938206368579378 0.0029882769297620224 0.3889518095807519
0.4165018727905637 0.09740795874680952 0.39434335817711996
0.4259227164795718 -0.01192500045832561 0.4721461845241061
0.5043769450893525 0.12981893369268666 0.5028930728381592
0.6938206368579378 0.0029882769297620224 0.3889518095807519
0.6165018727905638 0.09740795874680952 0.39434335817711996
0.6259227164795718 -0.01192500045832561 0.4721461845241061
0.7043769450893524 0.12981893369268666 0.5028930728381592
0.8938206368579378 0.0029882769297620224 0.3889518095807519
0.8165018727905639 0.09740795874680952 0.39434335817711996
0.8259227164795718 -0.01192500045832561 0.4721461845241061
0.9043769450893525 0.12981893369268666 0.5028930728381592
0.09382063685793778 0.202988276929762 0.3889518095807519
0.016501872790563716 0.29740795874680953 0.39434335817711996
0.025922716479571725 0.1880749995416744 0.4721461845241061
0.10437694508935243 0.32981893369268667 0.5028930728381592
0.2938206368579378 0.202988276929762 0.3889518095807519
0.2165018727905637 0.29740795874680953 0.39434335817711996
0.22592271647957174 0.1880749995416744 0.4721461845241061
0.3043769450893525 0.32981893369268667 0.5028930728381592
0.4938206368579378 0.202988276929762 0.3889518095807519
0.4165018727905637 0.29740795874680953 0.39434335817711996
0.4259227164795718 0.1880749995416744 0.4721461845241061
0.5043769450893525 0.32981893369268667 0.5028930728381592
0.6938206368579378 0.202988276929762 0.3889518095807519
0.6165018727905638 0.29740795874680953 0.39434335817711996
0.6259227164795718 0.1880749995416744 0.4721461845241061
0.7043769450893524 0.32981893369268667 0.5028930728381592
0.8938206368579378 0.202988276929762 0.3889518095807519
0.8165018727905639 0.29740795874680953 0.39434335817711996
0.8259227164795718 0.1880749995416744 0.4721461845241061
0.9043769450893525 0.32981893369268667 0.5028930728381592
0.09382063685793778 0.402988276929762 0.3889518095807519
0.016501872790563716 0.49740795874680954 0.39434335817711996
0.025922716479571725 0.3880749995416744 0.4721461845241061
0.10437694508935243 0.5298189336926867 0.5028930728381592
0.2938206368579378 0.402988276929762 0.3889518095807519
0.2165018727905637 0.49740795874680954 0.39434335817711996
0.22592271647957174 0.3880749995416744 0.4721461845241061
0.3043769450893525 0.5298189336926867 0.5028930728381592
0.4938206368579378 0.402988276929762 0.3889518095807519
0.4165018727905637 0.49740795874680954 0.39434335817711996
0.4259227164795718 0.3880749995416744 0.4721461845241061
0.5043769450893525 0.5298189336926867 0.5028930728381592
0.6938206368579378 0.402988276929762 0.3889518095807519
0.6165018727905638 0.49740795874680954 0.39434335817711996
0.6259227164795718 0.3880749995416744 0.4721461845241061
0.7043769450893524 0.5298189336926867 0.5028930728381592
0.8938206368579378 0.402988276929762 0.3889518095807519
0.8165018727905639 0.49740795874680954 0.39434335817711996
0.8259227164795718 0.3880749995416744 0.4721461845241061
0.9043769450893525 0.5298189336926867 0.5028930728381592
0.09382063685793778 0.6029882769297621 0.3889518095807519
0.016501872790563716 0.6974079587468096 0.39434335817711996
0.025922716479571725 0.5880749995416744 0.4721461845241061
0.10437694508935243 0.7298189336926867 0.5028930728381592
0.2938206368579378 0.6029882769297621 0.3889518095807519
0.2165018727905637 0.6974079587468096 0.39434335817711996
0.22592271647957174 0.5880749995416744 0.4721461845241061
0.3043769450893525 0.7298189336926867 0.5028930728381592
0.4938206368579378 0.6029882769297621 0.3889518095807519
0.4165018727905637 0.6974079587468096 0.39434335817711996
0.4259227164795718 0.5880749995416744 0.4721461845241061
0.5043769450893525 0.7298189336926867 0.5028930728381592
0.6938206368579378 0.6029882769297621 0.3889518095807519
0.6165018727905638 0.6974079587468096 0.39434335817711996
0.6259227164795718 0.5880749995416744 0.4721461845241061
0.7043769450893524 0.7298189336926867 0.5028930728381592
0.8938206368579378 0.6029882769297621 0.3889518095807519
0.8165018727905639 0.6974079587468096 0.39434335817711996
0.8259227164795718 0.5880749995416744 0.4721461845241061
0.9043769450893525 0.7298189336926867 0.5028930728381592
0.09382063685793778 0.802988276929762 0.3889518095807519
0.016501872790563716 0.8974079587468096 0.39434335817711996
0.025922716479571725 0.7880749995416744 0.4721461845241061
0.10437694508935243 0.9298189336926866 0.5028930728381592
0.2938206368579378 0.802988276929762 0.3889518095807519
0.2165018727905637 0.8974079587468096 0.39434335817711996
0.22592271647957174 0.7880749995416744 0.4721461845241061
0.3043769450893525 0.9298189336926866 0.5028930728381592
0.4938206368579378 0.802988276929762 0.3889518095807519
0.4165018727905637 0.8974079587468096 0.39434335817711996
0.4259227164795718 0.7880749995416744 0.4721461845241061
0.5043769450893525 0.9298189336926866 0.5028930728381592
0.6938206368579378 0.802988276929762 0.3889518095807519
0.6165018727905638 0.8974079587468096 0.39434335817711996
0.6259227164795718 0.7880749995416744 0.4721461845241061
0.7043769450893524 0.9298189336926866 0.5028930728381592
0.8938206368579378 0.802988276929762 0.3889518095807519
0.8165018727905639 0.8974079587468096 0.39434335817711996
0.8259227164795718 0.7880749995416744 0.4721461845241061
0.9043769450893525 0.9298189336926866 0.5028930728381592
0.09382063685793778 0.0029882769297620224 0.5889518095807519
0.016501872790563716 0.09740795874680952 0.59434335817712
0.025922716479571725 -0.01192500045832561 0.6721461845241061
0.10437694508935243 0.12981893369268666 0.7028930728381592
0.2938206368579378 0.0029882769297620224 0.5889518095807519
0.2165018727905637 0.09740795874680952 0.59434335817712
0.22592271647957174 -0.01192500045832561 0.6721461845241061
0.3043769450893525 0.12981893369268666 0.7028930728381592
0.4938206368579378 0.0029882769297620224 0.5889518095807519
0.4165018727905637 0.09740795874680952 0.59434335817712
0.4259227164795718 -0.01192500045832561 0.6721461845241061
0.5043769450893525 0.12981893369268666 0.7028930728381592
0.6938206368579378 0.0029882769297620224 0.5889518095807519
0.6165018727905638 0.09740795874680952 0.59434335817712
0.6259227164795718 -0.01192500045832561 0.6721461845241061
0.7043769450893524 0.12981893369268666 0.7028930728381592
0.8938206368579378 0.0029882769297620224 0.5889518095807519
0.8165018727905639 0.09740795874680952 0.59434335817712
0.8259227164795718 -0.01192500045832561 0.6721461845241061
0.9043769450893525 0.12981893369268666 0.7028930728381592
0.09382063685793778 0.202988276929762 0.5889518095807519
0.016501872790563716 0.29740795874680953 0.59434335817712
0.025922716479571725 0.1880749995416744 0.6721461845241061
0.10437694508935243 0.32981893369268667 0.7028930728381592
0.2938206368579378 0.202988276929762 0.5889518095807519
0.2165018727905637 0.29740795874680953 0.59434335817712
0.22592271647957174 0.1880749995416744 0.6721461845241061
0.3043769450893525 0.32981893369268667 0.7028930728381592
0.4938206368579378 0.202988276929762 0.5889518095807519
0.4165018727905637 0.29740795874680953 0.59434335817712
0.4259227164795718 0.1880749995416744 0.6721461845241061
0.5043769450893525 0.32981893369268667 0.7028930728381592
0.6938206368579378 0.202988276929762 0.5889518095807519
0.6165018727905638 0.29740795874680953 0.59434335817712
0.6259227164795718 0.1880749995416744 0.6721461845241061
0.7043769450893524 0.32981893369268667 0.7028930728381592
0.8938206368579378 0.202988276929762 0.5889518095807519
0.8165018727905639 0.29740795874680953 0.59434335817712
0.8259227164795718 0.1880749995416744 0.6721461845241061
0.9043769450893525 0.32981893369268667 0.7028930728381592
0.09382063685793778 0.402988276929762 0.5889518095807519
0.016501872790563716 0.49740795874680954 0.59434335817712
0.025922716479571725 0.3880749995416744 0.6721461845241061
0.10437694508935243 0.5298189336926867 0.7028930728381592
0.2938206368579378 0.402988276929762 0.5889518095807519
0.2165018727905637 0.49740795874680954 0.59434335817712
0.22592271647957174 0.3880749995416744 0.6721461845241061
0.3043769450893525 0.5298189336926867 0.7028930728381592
0.4938206368579378 0.402988276929762 0.5889518095807519
0.4165018727905637 0.49740795874680954 0.59434335817712
0.4259227164795718 0.3880749995416744 0.6721461845241061
0.5043769450893525 0.5298189336926867 0.7028930728381592
0.6938206368579378 0.402988276929762 0.5889518095807519
0.6165018727905638 0.49740795874680954 0.59434335817712
0.6259227164795718 0.3880749995416744 0.6721461845241061
0.7043769450893524 0.5298189336926867 0.7028930728381592
0.8938206368579378 0.402988276929762 0.5889518095807519
0.8165018727905639 0.49740795874680954 0.59434335817712
0.8259227164795718 0.3880749995416744 0.6721461845241061
0.9043769450893525 0.5298189336926867 0.7028930728381592
0.09382063685793778 0.6029882769297621 0.5889518095807519
0.016501872790563716 0.6974079587468096 0.59434335817712
0.025922716479571725 0.5880749995416744 0.6721461845241061
0.10437694508935243 0.7298189336926867 0.7028930728381592
0.2938206368579378 0.6029882769297621 0.5889518095807519
0.2165018727905637 0.6974079587468096 0.59434335817712
0.22592271647957174 0.5880749995416744 0.6721461845241061
0.3043769450893525 0.7298189336926867 0.7028930728381592
0.4938206368579378 0.6029882769297621 0.5889518095807519
0.4165018727905637 0.6974079587468096 0.59434335817712
0.4259227164795718 0.5880749995416744 0.6721461845241061
0.5043769450893525 0.7298189336926867 0.7028930728381592
0.6938206368579378 0.6029882769297621 0.5889518095807519
0.6165018727905638 0.6974079587468096 0.59434335817712
0.6259227164795718 0.5880749995416744 0.6721461845241061
0.7043769450893524 0.7298189336926867 0.7028930728381592
0.8938206368579378 0.6029882769297621 0.5889518095807519
0.8165018727905639 0.6974079587468096 0.59434335817712
0.8259227164795718 0.5880749995416744 0.6721461845241061
0.9043769450893525 0.7298189336926867 0.7028930728381592
0.09382063685793778 0.802988276929762 0.5889518095807519
0.016501872790563716 0.8974079587468096 0.59434335817712
0.025922716479571725 0.7880749995416744 0.6721461845241061
0.10437694508935243 0.9298189336926866 0.7028930728381592
0.2938206368579378 0.802988276929762 0.5889518095807519
0.2165018727905637 0.8974079587468096 0.59434335817712
0.22592271647957174 0.7880749995416744 0.6721461845241061
0.3043769450893525 0.9298189336926866 0.7028930728381592
0.4938206368579378 0.802988276929762 0.5889518095807519
0.4165018727905637 0.8974079587468096 0.59434335817712
0.4259227164795718 0.7880749995416744 0.6721461845241061
0.5043769450893525 0.9298189336926866 0.7028930728381592
0.6938206368579378 0.802988276929762 0.5889518095807519
0.6165018727905638 0.8974079587468096 0.59434335817712
0.6259227164795718 0.7880749995416744 0.6721461845241061
0.7043769450893524 0.9298189336926866 0.7028930728381592
0.8938206368579378 0.802988276929762 0.5889518095807519
0.8165018727905639 0.8974079587468096 0.59434335817712
0.8259227164795718 0.7880749995416744 0.6721461845241061
0.9043769450893525 0.9298189336926866 0.7028930728381592
0.09382063685793778 0.0029882769297620224 0.788951809580752
0.016501872790563716 0.09740795874680952 0.79434335817712
0.025922716479571725 -0.01192500045832561 0.8721461845241061
0.10437694508935243 0.12981893369268666 0.9028930728381592
0.2938206368579378 0.0029882769297620224 0.788951809580752
0.2165018727905637 0.09740795874680952 0.79434335817712
0.22592271647957174 -0.01192500045832561 0.8721461845241061
0.3043769450893525 0.12981893369268666 0.9028930728381592
0.4938206368579378 0.0029882769297620224 0.788951809580752
0.4165018727905637 0.09740795874680952 0.79434335817712
0.4259227164795718 -0.01192500045832561 0.8721461845241061
0.5043769450893525 0.12981893369268666 0.9028930728381592
0.6938206368579378 0.0029882769297620224 0.788951809580752
0.6165018727905638 0.09740795874680952 0.79434335817712
0.6259227164795718 -0.01192500045832561 0.8721461845241061
0.7043769450893524 0.12981893369268666 0.9028930728381592
0.8938206368579378 0.0029882769297620224 0.788951809580752
0.8165018727905639 0.09740795874680952 0.79434335817712
0.8259227164795718 -0.01192500045832561 0.8721461845241061
0.9043769450893525 0.12981893369268666 0.9028930728381592
0.09382063685793778 0.202988276929762 0.788951809580752
0.016501872790563716 0.29740795874680953 0.79434335817712
0.025922716479571725 0.1880749995416744 0.8721461845241061
0.10437694508935243 0.32981893369268667 0.9028930728381592
0.2938206368579378 0.202988276929762 0.788951809580752
0.2165018727905637 0.29740795874680953 0.79434335817712
0.22592271647957174 0.1880749995416744 0.8721461845241061
0.3043769450893525 0.32981893369268667 0.9028930728381592
0.4938206368579378 0.202988276929762 0.788951809580752
0.4165018727905637 0.29740795874680953 0.79434335817712
0.4259227164795718 0.1880749995416744 0.8721461845241061
0.5043769450893525 0.32981893369268667 0.9028930728381592
0.6938206368579378 0.202988276929762 0.788951809580752
0.6165018727905638 0.29740795874680953 0.79434335817712
0.6259227164795718 0.1880749995416744 0.8721461845241061
0.7043769450893524 0.32981893369268667 0.9028930728381592
0.8938206368579378 0.202988276929762 0.788951809580752
0.8165018727905639 0.29740795874680953 0.79434335817712
0.8259227164795718 0.1880749995416744 0.8721461845241061
0.9043769450893525 0.32981893369268667 0.9028930728381592
0.09382063685793778 0.402988276929762 0.788951809580752
0.016501872790563716 0.49740795874680954 0.79434335817712
0.025922716479571725 0.3880749995416744 0.8721461845241061
0.10437694508935243 0.5298189336926867 0.9028930728381592
0.2938206368579378 0.402988276929762 0.788951809580752
0.2165018727905637 0.49740795874680954 0.79434335817712
0.22592271647957174 0.3880749995416744 0.8721461845241061
0.3043769450893525 0.5298189336926867 0.9028930728381592
0.4938206368579378 0.402988276929762 0.788951809580752
0.4165018727905637 0.49740795874680954 0.79434335817712
0.4259227164795718 0.3880749995416744 0.8721461845241061
0.5043769450893525 0.5298189336926867 0.9028930728381592
0.6938206368579378 0.402988276929762 0.788951809580752
0.6165018727905638 0.49740795874680954 0.79434335817712
0.6259227164795718 0.3880749995416744 0.8721461845241061
0.7043769450893524 0.5298189336926867 0.9028930728381592
0.8938206368579378 0.402988276929762 0.788951809580752
0.8165018727905639 0.49740795874680954 0.79434335817712
0.8259227164795718 0.3880749995416744 0.8721461845241061
0.9043769450893525 0.5298189336926867 0.9028930728381592
0.09382063685793778 0.6029882769297621 0.788951809580752
0.016501872790563716 0.6974079587468096 0.79434335817712
0.025922716479571725 0.5880749995416744 0.8721461845241061
0.10437694508935243 0.7298189336926867 0.9028930728381592
0.2938206368579378 0.6029882769297621 0.788951809580752
0.2165018727905637 0.6974079587468096 0.79434335817712
0.22592271647957174 0.5880749995416744 0.8721461845241061
0.3043769450893525 0.7298189336926867 0.9028930728381592
0.4938206368579378 0.6029882769297621 0.788951809580752
0.4165018727905637 0.6974079587468096 0.79434335817712
0.4259227164795718 0.5880749995416744 0.8721461845241061
0.5043769450893525 0.7298189336926867 0.9028930728381592
0.6938206368579378 0.6029882769297621 0.788951809580752
0.6165018727905638 0.6974079587468096 0.79434335817712
0.6259227164795718 0.5880749995416744 0.8721461845241061
0.7043769450893524 0.7298189336926867 0.9028930728381592
0.8938206368579378 0.6029882769297621 0.788951809580752
0.8165018727905639 0.6974079587468096 0.79434335817712
0.8259227164795718 0.5880749995416744 0.8721461845241061
0.9043769450893525 0.7298189336926867 0.9028930728381592
0.09382063685793778 0.802988276929762 0.788951809580752
0.016501872790563716 0.8974079587468096 0.79434335817712
0.025922716479571725 0.7880749995416744 0.8721461845241061
0.10437694508935243 0.9298189336926866 0.9028930728381592
0.2938206368579378 0.802988276929762 0.788951809580752
0.2165018727905637 0.8974079587468096 0.79434335817712
0.22592271647957174 0.7880749995416744 0.8721461845241061
0.3043769450893525 0.9298189336926866 0.9028930728381592
0.4938206368579378 0.802988276929762 0.788951809580752
0.4165018727905637 0.8974079587468096 0.79434335817712
0.4259227164795718 0.7880749995416744 0.8721461845241061
0.5043769450893525 0.9298189336926866 0.9028930728381592
0.6938206368579378 0.802988276929762 0.788951809580752
0.6165018727905638 0.8974079587468096 0.79434335817712
0.6259227164795718 0.7880749995416744 0.8721461845241061
0.7043769450893524 0.9298189336926866 0.9028930728381592
0.8938206368579378 0.802988276929762 0.788951809580752
0.8165018727905639 0.8974079587468096 0.79434335817712
0.8259227164795718 0.7880749995416744 0.8721461845241061
0.9043769450893525 0.9298189336926866 0.9028930728381592
