FCC BaO
5.61604
3.0 0.0 0.0
0.0 3.0 0.0
0.0 0.0 3.0
Ba O 
108 108 
Direct
0.0032247820431783036 0.0970850666204339 0.5940789314613432
-0.748799847968036 -1.1011730508172464 -0.6583735931056547
1.0770258544865219 -0.7527700053861097 0.22675065010672607
0.1959418930663478 0.17603009504801903 -1.0742280490033194
0.33655811537651165 0.0970850666204339 0.5940789314613432
-0.41546651463470274 -1.1011730508172464 -0.6583735931056547
1.4103591878198554 -0.7527700053861097 0.22675065010672607
0.529275226399681 0.17603009504801903 -1.0742280490033194
0.6698914487098449 0.0970850666204339 0.5940789314613432
-0.0821331813013694 -1.1011730508172464 -0.6583735931056547
1.7436925211531886 -0.7527700053861097 0.22675065010672607
0.8626085597330144 0.17603009504801903 -1.0742280490033194
0.0032247820431783036 0.43041839995376724 0.5940789314613432
-0.748799847968036 -0.7678397174839131 -0.6583735931056547
1.0770258544865219 -0.41943667205277635 0.22675065010672607
0.1959418930663478 0.5093634283813523 -1.0742280490033194
0.33655811537651165 0.43041839995376724 0.5940789314613432
-0.41546651463470274 -0.7678397174839131 -0.6583735931056547
1.4103591878198554 -0.41943667205277635 0.22675065010672607
0.529275226399681 0.5093634283813523 -1.0742280490033194
0.6698914487098449 0.43041839995376724 0.5940789314613432
-0.0821331813013694 -0.7678397174839131 -0.6583735931056547
1.7436925211531886 -0.41943667205277635 0.22675065010672607
0.8626085597330144 0.5093634283813523 -1.0742280490033194
0.0032247820431783036 0.7637517332871006 0.5940789314613432
-0.748799847968036 -0.43450638415057974 -0.6583735931056547
1.0770258544865219 -0.08610333871944305 0.22675065010672607
0.1959418930663478 0.8426967617146857 -1.0742280490033194
0.33655811537651165 0.7637517332871006 0.5940789314613432
-0.41546651463470274 -0.43450638415057974 -0.6583735931056547
1.4103591878198554 -0.08610333871944305 0.22675065010672607
0.529275226399681 0.8426967617146857 -1.0742280490033194
0.6698914487098449 0.7637517332871006 0.5940789314613432
-0.0821331813013694 -0.43450638415057974 -0.6583735931056547
1.7436925211531886 -0.08610333871944305 0.22675065010672607
0.8626085597330144 0.8426967617146857 -1.0742280490033194
0.0032247820431783036 0.0970850666204339 0.9274122647946765
-0.748799847968036 -1.1011730508172464 -0.3250402597723214
1.0770258544865219 -0.7527700053861097 0.5600839834400594
0.1959418930663478 0.17603009504801903 -0.740894715669986
0.33655811537651165 0.0970850666204339 0.9274122647946765
-0.41546651463470274 -1.1011730508172464 -0.3250402597723214
1.4103591878198554 -0.7527700053861097 0.5600839834400594
0.529275226399681 0.17603009504801903 -0.740894715669986
0.6698914487098449 0.0970850666204339 0.9274122647946765
-0.0821331813013694 -1.1011730508172464 -0.3250402597723214
1.7436925211531886 -0.7527700053861097 0.5600839834400594
0.8626085597330144 0.17603009504801903 -0.740894715669986
0.0032247820431783036 0.43041839995376724 0.9274122647946765
-0.748799847968036 -0.7678397174839131 -0.3250402597723214
1.0770258544865219 -0.41943667205277635 0.5600839834400594
0.1959418930663478 0.5093634283813523 -0.740894715669986
0.33655811537651165 0.43041839995376724 0.9274122647946765
-0.41546651463470274 -0.7678397174839131 -0.3250402597723214
1.4103591878198554 -0.41943667205277635 0.5600839834400594
0.529275226399681 0.5093634283813523 -0.740894715669986
0.6698914487098449 0.43041839995376724 0.9274122647946765
-0.0821331813013694 -0.7678397174839131 -0.3250402597723214
1.7436925211531886 -0.41943667205277635 0.5600839834400594
0.8626085597330144 0.5093634283813523 -0.740894715669986
0.0032247820431783036 0.7637517332871006 0.9274122647946765
-0.748799847968036 -0.43450638415057974 -0.3250402597723214
1.0770258544865219 -0.08610333871944305 0.5600839834400594
0.1959418930663478 0.8426967617146857 -0.740894715669986
0.33655811537651165 0.7637517332871006 0.9274122647946765
-0.41546651463470274 -0.43450638415057974 -0.3250402597723214
1.4103591878198554 -0.08610333871944305 0.5600839834400594
0.529275226399681 0.8426967617146857 -0.740894715669986
0.6698914487098449 0.7637517332871006 0.9274122647946765
-0.0821331813013694 -0.43450638415057974 -0.3250402597723214
1.7436925211531886 -0.08610333871944305 0.5600839834400594
0.8626085597330144 0.8426967617146857 -0.740894715669986
0.0032247820431783036 0.0970850666204339 1.2607455981280098
-0.748799847968036 -1.1011730508172464 0.008293073561011905
1.0770258544865219 -0.7527700053861097 0.8934173167733928
0.1959418930663478 0.17603009504801903 -0.4075613823366527
0.33655811537651165 0.0970850666204339 1.2607455981280098
-0.41546651463470274 -1.1011730508172464 0.008293073561011905
1.4103591878198554 -0.7527700053861097 0.8934173167733928
0.529275226399681 0.17603009504801903 -0.4075613823366527
0.6698914487098449 0.0970850666204339 1.2607455981280098
-0.0821331813013694 -1.1011730508172464 0.008293073561011905
1.7436925211531886 -0.7527700053861097 0.8934173167733928
0.8626085597330144 0.17603009504801903 -0.4075613823366527
0.0032247820431783036 0.43041839995376724 1.2607455981280098
-0.748799847968036 -0.7678397174839131 0.008293073561011905
1.0770258544865219 -0.41943667205277635 0.8934173167733928
0.1959418930663478 0.5093634283813523 -0.4075613823366527
0.33655811537651165 0.43041839995376724 1.2607455981280098
-0.41546651463470274 -0.7678397174839131 0.008293073561011905
1.4103591878198554 -0.41943667205277635 0.8934173167733928
0.529275226399681 0.5093634283813523 -0.4075613823366527
0.6698914487098449 0.43041839995376724 1.2607455981280098
-0.0821331813013694 -0.7678397174839131 0.008293073561011905
1.7436925211531886 -0.41943667205277635 0.8934173167733928
0.8626085597330144 0.5093634283813523 -0.4075613823366527
0.0032247820431783036 0.7637517332871006 1.2607455981280098
-0.748799847968036 -0.43450638415057974 0.008293073561011905
1.0770258544865219 -0.08610333871944305 0.8934173167733928
0.1959418930663478 0.8426967617146857 -0.4075613823366527
0.33655811537651165 0.7637517332871006 1.2607455981280098
-0.41546651463470274 -0.43450638415057974 0.008293073561011905
1.4103591878198554 -0.08610333871944305 0.8934173167733928
0.529275226399681 0.8426967617146857 -0.4075613823366527
0.6698914487098449 0.7637517332871006 1.2607455981280098
-0.0821331813013694 -0.43450638415057974 0.008293073561011905
1.7436925211531886 -0.08610333871944305 0.8934173167733928
0.8626085597330144 0.8426967617146857 -0.4075613823366527
-0.5091431408787679 -0.87983350985095 0.2633403282737601
-0.24630507430058085 -0.5943312491840752 0.07041900160567229
0.5425157064719972 0.30859866847031525 -0.6878177612183225
0.4817728985272956 0.6084990343527273 0.19377168334485145
-0.17580980754543463 -0.87983350985095 0.2633403282737601
0.08702825903275246 -0.5943312491840752 0.07041900160567229
0.8758490398053305 0.30859866847031525 -0.6878177612183225
0.8151062318606288 0.6084990343527273 0.19377168334485145
0.1575235257878987 -0.87983350985095 0.2633403282737601
0.4203615923660858 -0.5943312491840752 0.07041900160567229
1.2091823731386637 0.30859866847031525 -0.6878177612183225
1.148439565193962 0.6084990343527273 0.19377168334485145
-0.5091431408787679 -0.5465001765176166 0.2633403282737601
-0.24630507430058085 -0.2609979158507419 0.07041900160567229
0.5425157064719972 0.6419320018036485 -0.6878177612183225
0.4817728985272956 0.9418323676860606 0.19377168334485145
-0.17580980754543463 -0.5465001765176166 0.2633403282737601
0.08702825903275246 -0.2609979158507419 0.07041900160567229
0.8758490398053305 0.6419320018036485 -0.6878177612183225
0.8151062318606288 0.9418323676860606 0.19377168334485145
0.1575235257878987 -0.5465001765176166 0.2633403282737601
0.4203615923660858 -0.2609979158507419 0.07041900160567229
1.2091823731386637 0.6419320018036485 -0.6878177612183225
1.148439565193962 0.9418323676860606 0.19377168334485145
-0.5091431408787679 -0.2131668431842833 0.2633403282737601
-0.24630507430058085 0.07233541748259142 0.07041900160567229
0.5425157064719972 0.9752653351369818 -0.6878177612183225
0.4817728985272956 1.275165701019394 0.19377168334485145
-0.17580980754543463 -0.2131668431842833 0.2633403282737601
0.08702825903275246 0.07233541748259142 0.07041900160567229
0.8758490398053305 0.9752653351369818 -0.6878177612183225
0.8151062318606288 1.275165701019394 0.19377168334485145
0.1575235257878987 -0.2131668431842833 0.2633403282737601
0.4203615923660858 0.07233541748259142 0.07041900160567229
1.2091823731386637 0.9752653351369818 -0.6878177612183225
1.148439565193962 1.275165701019394 0.19377168334485145
-0.5091431408787679 -0.87983350985095 0.5966736616070933
-0.24630507430058085 -0.5943312491840752 0.4037523349390056
0.5425157064719972 0.30859866847031525 -0.35448442788498913
0.4817728985272956 0.6084990343527273 0.5271050166781848
-0.17580980754543463 -0.87983350985095 0.5966736616070933
0.08702825903275246 -0.5943312491840752 0.4037523349390056
0.8758490398053305 0.30859866847031525 -0.35448442788498913
0.8151062318606288 0.6084990343527273 0.5271050166781848
0.1575235257878987 -0.87983350985095 0.5966736616070933
0.4203615923660858 -0.5943312491840752 0.4037523349390056
1.2091823731386637 0.30859866847031525 -0.35448442788498913
1.148439565193962 0.6084990343527273 0.5271050166781848
-0.5091431408787679 -0.5465001765176166 0.5966736616070933
-0.24630507430058085 -0.2609979158507419 0.4037523349390056
0.5425157064719972 0.6419320018036485 -0.35448442788498913
0.4817728985272956 0.9418323676860606 0.5271050166781848
-0.17580980754543463 -0.5465001765176166 0.5966736616070933
0.08702825903275246 -0.2609979158507419 0.4037523349390056
0.8758490398053305 0.6419320018036485 -0.35448442788498913
0.8151062318606288 0.9418323676860606 0.5271050166781848
0.1575235257878987 -0.5465001765176166 0.5966736616070933
0.4203615923660858 -0.2609979158507419 0.4037523349390056
1.2091823731386637 0.6419320018036485 -0.35448442788498913
1.148439565193962 0.9418323676860606 0.5271050166781848
-0.5091431408787679 -0.2131668431842833 0.5966736616070933
-0.24630507430058085 0.07233541748259142 0.4037523349390056
0.5425157064719972 0.9752653351369818 -0.35448442788498913
0.4817728985272956 1.275165701019394 0.5271050166781848
-0.17580980754543463 -0.2131668431842833 0.5966736616070933
0.08702825903275246 0.07233541748259142 0.4037523349390056
0.8758490398053305 0.9752653351369818 -0.35448442788498913
0.8151062318606288 1.275165701019394 0.5271050166781848
0.1575235257878987 -0.2131668431842833 0.5966736616070933
0.4203615923660858 0.07233541748259142 0.4037523349390056
1.2091823731386637 0.9752653351369818 -0.35448442788498913
1.148439565193962 1.275165701019394 0.5271050166781848
-0.5091431408787679 -0.87983350985095 0.9300069949404267
-0.24630507430058085 -0.5943312491840752 0.7370856682723389
0.5425157064719972 0.30859866847031525 -0.02115109455165583
0.4817728985272956 0.6084990343527273 0.860438350011518
-0.17580980754543463 -0.87983350985095 0.9300069949404267
0.08702825903275246 -0.5943312491840752 0.7370856682723389
0.8758490398053305 0.30859866847031525 -0.02115109455165583
0.8151062318606288 0.6084990343527273 0.860438350011518
0.1575235257878987 -0.87983350985095 0.9300069949404267
0.4203615923660858 -0.5943312491840752 0.7370856682723389
1.2091823731386637 0.30859866847031525 -0.02115109455165583
1.148439565193962 0.6084990343527273 0.860438350011518
-0.5091431408787679 -0.5465001765176166 0.9300069949404267
-0.24630507430058085 -0.2609979158507419 0.7370856682723389
0.5425157064719972 0.6419320018036485 -0.02115109455165583
0.4817728985272956 0.9418323676860606 0.860438350011518
-0.17580980754543463 -0.5465001765176166 0.9300069949404267
0.08702825903275246 -0.2609979158507419 0.7370856682723389
0.8758490398053305 0.6419320018036485 -0.02115109455165583
0.8151062318606288 0.9418323676860606 0.860438350011518
0.1575235257878987 -0.5465001765176166 0.9300069949404267
0.4203615923660858 -0.2609979158507419 0.7370856682723389
1.2091823731386637 0.6419320018036485 -0.02115109455165583
1.148439565193962 0.9418323676860606 0.860438350011518
-0.5091431408787679 -0.2131668431842833 0.9300069949404267
-0.24630507430058085 0.07233541748259142 0.7370856682723389
0.5425157064719972 0.9752653351369818 -0.02115109455165583
0.4817728985272956 1.275165701019394 0.860438350011518
-0.17580980754543463 -0.2131668431842833 0.9300069949404267
0.08702825903275246 0.07233541748259142 0.7370856682723389
0.8758490398053305 0.9752653351369818 -0.02115109455165583
0.8151062318606288 1.275165701019394 0.860438350011518
0.1575235257878987 -0.2131668431842833 0.9300069949404267
0.4203615923660858 0.07233541748259142 0.7370856682723389
1.2091823731386637 0.9752653351369818 -0.02115109455165583
1.148439565193962 1.275165701019394 0.860438350011518
