FCC BaO
5.61604
3.0 0.0 0.0
0.0 3.0 0.0
0.0 0.0 3.0
Ba O 
108 108 
Direct
-0.04246968427369313 -0.0214280732070303 0.05639262002447835
0.07882418542672061 0.1576349282825094 0.10648469787370546
0.18101446760342227 0.08992804902984336 0.21540753581187266
0.20304370788507312 0.09271391631015563 -0.02013651579698682
0.2908636490596402 -0.0214280732070303 0.05639262002447835
0.41215751876005396 0.1576349282825094 0.10648469787370546
0.5143478009367556 0.08992804902984336 0.21540753581187266
0.5363770412184065 0.09271391631015563 -0.02013651579698682
0.6241969823929735 -0.0214280732070303 0.05639262002447835
0.7454908520933873 0.1576349282825094 0.10648469787370546
0.847681134270089 0.08992804902984336 0.21540753581187266
0.8697103745517398 0.09271391631015563 -0.02013651579698682
-0.04246968427369313 0.31190526012630304 0.05639262002447835
0.07882418542672061 0.4909682616158427 0.10648469787370546
0.18101446760342227 0.4232613823631767 0.21540753581187266
0.20304370788507312 0.42604724964348895 -0.02013651579698682
0.2908636490596402 0.31190526012630304 0.05639262002447835
0.41215751876005396 0.4909682616158427 0.10648469787370546
0.5143478009367556 0.4232613823631767 0.21540753581187266
0.5363770412184065 0.42604724964348895 -0.02013651579698682
0.6241969823929735 0.31190526012630304 0.05639262002447835
0.7454908520933873 0.4909682616158427 0.10648469787370546
0.847681134270089 0.4232613823631767 0.21540753581187266
0.8697103745517398 0.42604724964348895 -0.02013651579698682
-0.04246968427369313 0.6452385934596363 0.05639262002447835
0.07882418542672061 0.824301594949176 0.10648469787370546
0.18101446760342227 0.7565947156965099 0.21540753581187266
0.20304370788507312 0.7593805829768222 -0.02013651579698682
0.2908636490596402 0.6452385934596363 0.05639262002447835
0.41215751876005396 0.824301594949176 0.10648469787370546
0.5143478009367556 0.7565947156965099 0.21540753581187266
0.5363770412184065 0.7593805829768222 -0.02013651579698682
0.6241969823929735 0.6452385934596363 0.05639262002447835
0.7454908520933873 0.824301594949176 0.10648469787370546
0.847681134270089 0.7565947156965099 0.21540753581187266
0.8697103745517398 0.7593805829768222 -0.02013651579698682
-0.04246968427369313 -0.0214280732070303 0.3897259533578117
0.07882418542672061 0.1576349282825094 0.4398180312070388
0.18101446760342227 0.08992804902984336 0.548740869145206
0.20304370788507312 0.09271391631015563 0.3131968175363465
0.2908636490596402 -0.0214280732070303 0.3897259533578117
0.41215751876005396 0.1576349282825094 0.4398180312070388
0.5143478009367556 0.08992804902984336 0.548740869145206
0.5363770412184065 0.09271391631015563 0.3131968175363465
0.6241969823929735 -0.0214280732070303 0.3897259533578117
0.7454908520933873 0.1576349282825094 0.4398180312070388
0.847681134270089 0.08992804902984336 0.548740869145206
0.8697103745517398 0.09271391631015563 0.3131968175363465
-0.04246968427369313 0.31190526012630304 0.3897259533578117
0.07882418542672061 0.4909682616158427 0.4398180312070388
0.18101446760342227 0.4232613823631767 0.548740869145206
0.20304370788507312 0.42604724964348895 0.3131968175363465
0.2908636490596402 0.31190526012630304 0.3897259533578117
0.41215751876005396 0.4909682616158427 0.4398180312070388
0.5143478009367556 0.4232613823631767 0.548740869145206
0.5363770412184065 0.42604724964348895 0.3131968175363465
0.6241969823929735 0.31190526012630304 0.3897259533578117
0.7454908520933873 0.4909682616158427 0.4398180312070388
0.847681134270089 0.4232613823631767 0.548740869145206
0.8697103745517398 0.42604724964348895 0.3131968175363465
-0.04246968427369313 0.6452385934596363 0.3897259533578117
0.07882418542672061 0.824301594949176 0.4398180312070388
0.18101446760342227 0.7565947156965099 0.548740869145206
0.20304370788507312 0.7593805829768222 0.3131968175363465
0.2908636490596402 0.6452385934596363 0.3897259533578117
0.41215751876005396 0.824301594949176 0.4398180312070388
0.5143478009367556 0.7565947156965099 0.548740869145206
0.5363770412184065 0.7593805829768222 0.3131968175363465
0.6241969823929735 0.6452385934596363 0.3897259533578117
0.7454908520933873 0.824301594949176 0.4398180312070388
0.847681134270089 0.7565947156965099 0.548740869145206
0.8697103745517398 0.7593805829768222 0.3131968175363465
-0.04246968427369313 -0.0214280732070303 0.7230592866911449
0.07882418542672061 0.1576349282825094 0.7731513645403721
0.18101446760342227 0.08992804902984336 0.8820742024785393
0.20304370788507312 0.09271391631015563 0.6465301508696798
0.2908636490596402 -0.0214280732070303 0.7230592866911449
0.41215751876005396 0.1576349282825094 0.7731513645403721
0.5143478009367556 0.08992804902984336 0.8820742024785393
0.5363770412184065 0.09271391631015563 0.6465301508696798
0.6241969823929735 -0.0214280732070303 0.7230592866911449
0.7454908520933873 0.1576349282825094 0.7731513645403721
0.847681134270089 0.08992804902984336 0.8820742024785393
0.8697103745517398 0.09271391631015563 0.6465301508696798
-0.04246968427369313 0.31190526012630304 0.7230592866911449
0.07882418542672061 0.4909682616158427 0.7731513645403721
0.18101446760342227 0.4232613823631767 0.8820742024785393
0.20304370788507312 0.42604724964348895 0.6465301508696798
0.2908636490596402 0.31190526012630304 0.7230592866911449
0.41215751876005396 0.4909682616158427 0.7731513645403721
0.5143478009367556 0.4232613823631767 0.8820742024785393
0.5363770412184065 0.42604724964348895 0.6465301508696798
0.6241969823929735 0.31190526012630304 0.7230592866911449
0.7454908520933873 0.4909682616158427 0.7731513645403721
0.847681134270089 0.4232613823631767 0.8820742024785393
0.8697103745517398 0.42604724964348895 0.6465301508696798
-0.04246968427369313 0.6452385934596363 0.7230592866911449
0.07882418542672061 0.824301594949176 0.7731513645403721
0.18101446760342227 0.7565947156965099 0.8820742024785393
0.20304370788507312 0.7593805829768222 0.6465301508696798
0.2908636490596402 0.6452385934596363 0.7230592866911449
0.41215751876005396 0.824301594949176 0.7731513645403721
0.5143478009367556 0.7565947156965099 0.8820742024785393
0.5363770412184065 0.7593805829768222 0.6465301508696798
0.6241969823929735 0.6452385934596363 0.7230592866911449
0.7454908520933873 0.824301594949176 0.7731513645403721
0.847681134270089 0.7565947156965099 0.8820742024785393
0.8697103745517398 0.7593805829768222 0.6465301508696798
0.1968884395351298 -0.024358751577754932 -0.055173405325137405
-0.07785838425198789 0.14700964777914088 0.02966557559696839
-0.03993236411874429 0.01398527114626568 0.23505415131879037
0.14122985931051082 0.13769673009371053 0.1688656475728723
0.5302217728684631 -0.024358751577754932 -0.055173405325137405
0.2554749490813454 0.14700964777914088 0.02966557559696839
0.293400969214589 0.01398527114626568 0.23505415131879037
0.4745631926438441 0.13769673009371053 0.1688656475728723
0.8635551062017965 -0.024358751577754932 -0.055173405325137405
0.5888082824146788 0.14700964777914088 0.02966557559696839
0.6267343025479224 0.01398527114626568 0.23505415131879037
0.8078965259771774 0.13769673009371053 0.1688656475728723
0.1968884395351298 0.30897458175557835 -0.055173405325137405
-0.07785838425198789 0.4803429811124742 0.02966557559696839
-0.03993236411874429 0.34731860447959895 0.23505415131879037
0.14122985931051082 0.4710300634270439 0.1688656475728723
0.5302217728684631 0.30897458175557835 -0.055173405325137405
0.2554749490813454 0.4803429811124742 0.02966557559696839
0.293400969214589 0.34731860447959895 0.23505415131879037
0.4745631926438441 0.4710300634270439 0.1688656475728723
0.8635551062017965 0.30897458175557835 -0.055173405325137405
0.5888082824146788 0.4803429811124742 0.02966557559696839
0.6267343025479224 0.34731860447959895 0.23505415131879037
0.8078965259771774 0.4710300634270439 0.1688656475728723
0.1968884395351298 0.6423079150889117 -0.055173405325137405
-0.07785838425198789 0.8136763144458075 0.02966557559696839
-0.03993236411874429 0.6806519378129323 0.23505415131879037
0.14122985931051082 0.8043633967603772 0.1688656475728723
0.5302217728684631 0.6423079150889117 -0.055173405325137405
0.2554749490813454 0.8136763144458075 0.02966557559696839
0.293400969214589 0.6806519378129323 0.23505415131879037
0.4745631926438441 0.8043633967603772 0.1688656475728723
0.8635551062017965 0.6423079150889117 -0.055173405325137405
0.5888082824146788 0.8136763144458075 0.02966557559696839
0.6267343025479224 0.6806519378129323 0.23505415131879037
0.8078965259771774 0.8043633967603772 0.1688656475728723
0.1968884395351298 -0.024358751577754932 0.2781599280081959
-0.07785838425198789 0.14700964777914088 0.3629989089303017
-0.03993236411874429 0.01398527114626568 0.5683874846521237
0.14122985931051082 0.13769673009371053 0.5021989809062056
0.5302217728684631 -0.024358751577754932 0.2781599280081959
0.2554749490813454 0.14700964777914088 0.3629989089303017
0.293400969214589 0.01398527114626568 0.5683874846521237
0.4745631926438441 0.13769673009371053 0.5021989809062056
0.8635551062017965 -0.024358751577754932 0.2781599280081959
0.5888082824146788 0.14700964777914088 0.3629989089303017
0.6267343025479224 0.01398527114626568 0.5683874846521237
0.8078965259771774 0.13769673009371053 0.5021989809062056
0.1968884395351298 0.30897458175557835 0.2781599280081959
-0.07785838425198789 0.4803429811124742 0.3629989089303017
-0.03993236411874429 0.34731860447959895 0.5683874846521237
0.14122985931051082 0.4710300634270439 0.5021989809062056
0.5302217728684631 0.30897458175557835 0.2781599280081959
0.2554749490813454 0.4803429811124742 0.3629989089303017
0.293400969214589 0.34731860447959895 0.5683874846521237
0.4745631926438441 0.4710300634270439 0.5021989809062056
0.8635551062017965 0.30897458175557835 0.2781599280081959
0.5888082824146788 0.4803429811124742 0.3629989089303017
0.6267343025479224 0.34731860447959895 0.5683874846521237
0.8078965259771774 0.4710300634270439 0.5021989809062056
0.1968884395351298 0.6423079150889117 0.2781599280081959
-0.07785838425198789 0.8136763144458075 0.3629989089303017
-0.03993236411874429 0.6806519378129323 0.5683874846521237
0.14122985931051082 0.8043633967603772 0.5021989809062056
0.5302217728684631 0.6423079150889117 0.2781599280081959
0.2554749490813454 0.8136763144458075 0.3629989089303017
0.293400969214589 0.6806519378129323 0.5683874846521237
0.4745631926438441 0.8043633967603772 0.5021989809062056
0.8635551062017965 0.6423079150889117 0.2781599280081959
0.5888082824146788 0.8136763144458075 0.3629989089303017
0.6267343025479224 0.6806519378129323 0.5683874846521237
0.8078965259771774 0.8043633967603772 0.5021989809062056
0.1968884395351298 -0.024358751577754932 0.6114932613415293
-0.07785838425198789 0.14700964777914088 0.696332242263635
-0.03993236411874429 0.01398527114626568 0.901720817985457
0.14122985931051082 0.13769673009371053 0.835532314239539
0.5302217728684631 -0.024358751577754932 0.6114932613415293
0.2554749490813454 0.14700964777914088 0.696332242263635
0.293400969214589 0.01398527114626568 0.901720817985457
0.4745631926438441 0.13769673009371053 0.835532314239539
0.8635551062017965 -0.024358751577754932 0.6114932613415293
0.5888082824146788 0.14700964777914088 0.696332242263635
0.6267343025479224 0.01398527114626568 0.901720817985457
0.8078965259771774 0.13769673009371053 0.835532314239539
0.1968884395351298 0.30897458175557835 0.6114932613415293
-0.07785838425198789 0.4803429811124742 0.696332242263635
-0.03993236411874429 0.34731860447959895 0.901720817985457
0.14122985931051082 0.4710300634270439 0.835532314239539
0.5302217728684631 0.30897458175557835 0.6114932613415293
0.2554749490813454 0.4803429811124742 0.696332242263635
0.293400969214589 0.34731860447959895 0.901720817985457
0.4745631926438441 0.4710300634270439 0.835532314239539
0.8635551062017965 0.30897458175557835 0.6114932613415293
0.5888082824146788 0.4803429811124742 0.696332242263635
0.6267343025479224 0.34731860447959895 0.901720817985457
0.8078965259771774 0.4710300634270439 0.835532314239539
0.1968884395351298 0.6423079150889117 0.6114932613415293
-0.07785838425198789 0.8136763144458075 0.696332242263635
-0.03993236411874429 0.6806519378129323 0.901720817985457
0.14122985931051082 0.8043633967603772 0.835532314239539
0.5302217728684631 0.6423079150889117 0.6114932613415293
0.2554749490813454 0.8136763144458075 0.696332242263635
0.293400969214589 0.6806519378129323 0.901720817985457
0.4745631926438441 0.8043633967603772 0.835532314239539
0.8635551062017965 0.6423079150889117 0.6114932613415293
0.5888082824146788 0.8136763144458075 0.696332242263635
0.6267343025479224 0.6806519378129323 0.901720817985457
0.8078965259771774 0.8043633967603772 0.835532314239539
