FCC BaO
3.971
5.0 0.0 0.0
0.0 5.0 0.0
0.0 0.0 5.0
Ba O 
500 500 
Direct
0.0050435877188720266 -0.019861643343391182 0.01879478267146424
-0.026907471679407404 0.07707190732463526 0.10322836266521379
0.11079410891819777 0.020118665456635692 0.07926533465296648
0.11105480985671351 0.09430200928709198 0.007016566896262457
0.20504358771887202 -0.019861643343391182 0.01879478267146424
0.1730925283205926 0.07707190732463526 0.10322836266521379
0.3107941089181978 0.020118665456635692 0.07926533465296648
0.3110548098567135 0.09430200928709198 0.007016566896262457
0.40504358771887206 -0.019861643343391182 0.01879478267146424
0.3730925283205926 0.07707190732463526 0.10322836266521379
0.5107941089181978 0.020118665456635692 0.07926533465296648
0.5110548098567135 0.09430200928709198 0.007016566896262457
0.605043587718872 -0.019861643343391182 0.01879478267146424
0.5730925283205927 0.07707190732463526 0.10322836266521379
0.7107941089181978 0.020118665456635692 0.07926533465296648
0.7110548098567135 0.09430200928709198 0.007016566896262457
0.8050435877188721 -0.019861643343391182 0.01879478267146424
0.7730925283205927 0.07707190732463526 0.10322836266521379
0.9107941089181978 0.020118665456635692 0.07926533465296648
0.9110548098567135 0.09430200928709198 0.007016566896262457
0.0050435877188720266 0.18013835665660882 0.01879478267146424
-0.026907471679407404 0.27707190732463527 0.10322836266521379
0.11079410891819777 0.22011866545663572 0.07926533465296648
0.11105480985671351 0.294302009287092 0.007016566896262457
0.20504358771887202 0.18013835665660882 0.01879478267146424
0.1730925283205926 0.27707190732463527 0.10322836266521379
0.3107941089181978 0.22011866545663572 0.07926533465296648
0.3110548098567135 0.294302009287092 0.007016566896262457
0.40504358771887206 0.18013835665660882 0.01879478267146424
0.3730925283205926 0.27707190732463527 0.10322836266521379
0.5107941089181978 0.22011866545663572 0.07926533465296648
0.5110548098567135 0.294302009287092 0.007016566896262457
0.605043587718872 0.18013835665660882 0.01879478267146424
0.5730925283205927 0.27707190732463527 0.10322836266521379
0.7107941089181978 0.22011866545663572 0.07926533465296648
0.7110548098567135 0.294302009287092 0.007016566896262457
0.8050435877188721 0.18013835665660882 0.01879478267146424
0.7730925283205927 0.27707190732463527 0.10322836266521379
0.9107941089181978 0.22011866545663572 0.07926533465296648
0.9110548098567135 0.294302009287092 0.007016566896262457
0.0050435877188720266 0.38013835665660883 0.01879478267146424
-0.026907471679407404 0.4770719073246353 0.10322836266521379
0.11079410891819777 0.4201186654566357 0.07926533465296648
0.11105480985671351 0.494302009287092 0.007016566896262457
0.20504358771887202 0.38013835665660883 0.01879478267146424
0.1730925283205926 0.4770719073246353 0.10322836266521379
0.3107941089181978 0.4201186654566357 0.07926533465296648
0.3110548098567135 0.494302009287092 0.007016566896262457
0.40504358771887206 0.38013835665660883 0.01879478267146424
0.3730925283205926 0.4770719073246353 0.10322836266521379
0.5107941089181978 0.4201186654566357 0.07926533465296648
0.5110548098567135 0.494302009287092 0.007016566896262457
0.605043587718872 0.38013835665660883 0.01879478267146424
0.5730925283205927 0.4770719073246353 0.10322836266521379
0.7107941089181978 0.4201186654566357 0.07926533465296648
0.7110548098567135 0.494302009287092 0.007016566896262457
0.8050435877188721 0.38013835665660883 0.01879478267146424
0.7730925283205927 0.4770719073246353 0.10322836266521379
0.9107941089181978 0.4201186654566357 0.07926533465296648
0.9110548098567135 0.494302009287092 0.007016566896262457
0.0050435877188720266 0.5801383566566088 0.01879478267146424
-0.026907471679407404 0.6770719073246353 0.10322836266521379
0.11079410891819777 0.6201186654566357 0.07926533465296648
0.11105480985671351 0.694302009287092 0.007016566896262457
0.20504358771887202 0.5801383566566088 0.01879478267146424
0.1730925283205926 0.6770719073246353 0.10322836266521379
0.3107941089181978 0.6201186654566357 0.07926533465296648
0.3110548098567135 0.694302009287092 0.007016566896262457
0.40504358771887206 0.5801383566566088 0.01879478267146424
0.3730925283205926 0.6770719073246353 0.10322836266521379
0.5107941089181978 0.6201186654566357 0.07926533465296648
0.5110548098567135 0.694302009287092 0.007016566896262457
0.605043587718872 0.5801383566566088 0.01879478267146424
0.5730925283205927 0.6770719073246353 0.10322836266521379
0.7107941089181978 0.6201186654566357 0.07926533465296648
0.7110548098567135 0.694302009287092 0.007016566896262457
0.8050435877188721 0.5801383566566088 0.01879478267146424
0.7730925283205927 0.6770719073246353 0.10322836266521379
0.9107941089181978 0.6201186654566357 0.07926533465296648
0.9110548098567135 0.694302009287092 0.007016566896262457
0.0050435877188720266 0.7801383566566088 0.01879478267146424
-0.026907471679407404 0.8770719073246354 0.10322836266521379
0.11079410891819777 0.8201186654566357 0.07926533465296648
0.11105480985671351 0.8943020092870921 0.007016566896262457
0.20504358771887202 0.7801383566566088 0.01879478267146424
0.1730925283205926 0.8770719073246354 0.10322836266521379
0.3107941089181978 0.8201186654566357 0.07926533465296648
0.3110548098567135 0.8943020092870921 0.007016566896262457
0.40504358771887206 0.7801383566566088 0.01879478267146424
0.3730925283205926 0.8770719073246354 0.10322836266521379
0.5107941089181978 0.8201186654566357 0.07926533465296648
0.5110548098567135 0.8943020092870921 0.007016566896262457
0.605043587718872 0.7801383566566088 0.01879478267146424
0.5730925283205927 0.8770719073246354 0.10322836266521379
0.7107941089181978 0.8201186654566357 0.07926533465296648
0.7110548098567135 0.8943020092870921 0.007016566896262457
0.8050435877188721 0.7801383566566088 0.01879478267146424
0.7730925283205927 0.8770719073246354 0.10322836266521379
0.9107941089181978 0.8201186654566357 0.07926533465296648
0.9110548098567135 0.8943020092870921 0.007016566896262457
0.0050435877188720266 -0.019861643343391182 0.21879478267146424
-0.026907471679407404 0.07707190732463526 0.3032283626652138
0.11079410891819777 0.020118665456635692 0.2792653346529665
0.11105480985671351 0.09430200928709198 0.20701656689626247
0.20504358771887202 -0.019861643343391182 0.21879478267146424
0.1730925283205926 0.07707190732463526 0.3032283626652138
0.3107941089181978 0.020118665456635692 0.2792653346529665
0.3110548098567135 0.09430200928709198 0.20701656689626247
0.40504358771887206 -0.019861643343391182 0.21879478267146424
0.3730925283205926 0.07707190732463526 0.3032283626652138
0.5107941089181978 0.020118665456635692 0.2792653346529665
0.5110548098567135 0.09430200928709198 0.20701656689626247
0.605043587718872 -0.019861643343391182 0.21879478267146424
0.5730925283205927 0.07707190732463526 0.3032283626652138
0.7107941089181978 0.020118665456635692 0.2792653346529665
0.7110548098567135 0.09430200928709198 0.20701656689626247
0.8050435877188721 -0.019861643343391182 0.21879478267146424
0.7730925283205927 0.07707190732463526 0.3032283626652138
0.9107941089181978 0.020118665456635692 0.2792653346529665
0.9110548098567135 0.09430200928709198 0.20701656689626247
0.0050435877188720266 0.18013835665660882 0.21879478267146424
-0.026907471679407404 0.27707190732463527 0.3032283626652138
0.11079410891819777 0.22011866545663572 0.2792653346529665
0.11105480985671351 0.294302009287092 0.20701656689626247
0.20504358771887202 0.18013835665660882 0.21879478267146424
0.1730925283205926 0.27707190732463527 0.3032283626652138
0.3107941089181978 0.22011866545663572 0.2792653346529665
0.3110548098567135 0.294302009287092 0.20701656689626247
0.40504358771887206 0.18013835665660882 0.21879478267146424
0.3730925283205926 0.27707190732463527 0.3032283626652138
0.5107941089181978 0.22011866545663572 0.2792653346529665
0.5110548098567135 0.294302009287092 0.20701656689626247
0.605043587718872 0.18013835665660882 0.21879478267146424
0.5730925283205927 0.27707190732463527 0.3032283626652138
0.7107941089181978 0.22011866545663572 0.2792653346529665
0.7110548098567135 0.294302009287092 0.20701656689626247
0.8050435877188721 0.18013835665660882 0.21879478267146424
0.7730925283205927 0.27707190732463527 0.3032283626652138
0.9107941089181978 0.22011866545663572 0.2792653346529665
0.9110548098567135 0.294302009287092 0.20701656689626247
0.0050435877188720266 0.38013835665660883 0.21879478267146424
-0.026907471679407404 0.4770719073246353 0.3032283626652138
0.11079410891819777 0.4201186654566357 0.2792653346529665
0.11105480985671351 0.494302009287092 0.20701656689626247
0.20504358771887202 0.38013835665660883 0.21879478267146424
0.1730925283205926 0.4770719073246353 0.3032283626652138
0.3107941089181978 0.4201186654566357 0.2792653346529665
0.3110548098567135 0.494302009287092 0.20701656689626247
0.40504358771887206 0.38013835665660883 0.21879478267146424
0.3730925283205926 0.4770719073246353 0.3032283626652138
0.5107941089181978 0.4201186654566357 0.2792653346529665
0.5110548098567135 0.494302009287092 0.20701656689626247
0.605043587718872 0.38013835665660883 0.21879478267146424
0.5730925283205927 0.4770719073246353 0.3032283626652138
0.7107941089181978 0.4201186654566357 0.2792653346529665
0.7110548098567135 0.494302009287092 0.20701656689626247
0.8050435877188721 0.38013835665660883 0.21879478267146424
0.7730925283205927 0.4770719073246353 0.3032283626652138
0.9107941089181978 0.4201186654566357 0.2792653346529665
0.9110548098567135 0.494302009287092 0.20701656689626247
0.0050435877188720266 0.5801383566566088 0.21879478267146424
-0.026907471679407404 0.6770719073246353 0.3032283626652138
0.11079410891819777 0.6201186654566357 0.2792653346529665
0.11105480985671351 0.694302009287092 0.20701656689626247
0.20504358771887202 0.5801383566566088 0.21879478267146424
0.1730925283205926 0.6770719073246353 0.3032283626652138
0.3107941089181978 0.6201186654566357 0.2792653346529665
0.3110548098567135 0.694302009287092 0.20701656689626247
0.40504358771887206 0.5801383566566088 0.21879478267146424
0.3730925283205926 0.6770719073246353 0.3032283626652138
0.5107941089181978 0.6201186654566357 0.2792653346529665
0.5110548098567135 0.694302009287092 0.20701656689626247
0.605043587718872 0.5801383566566088 0.21879478267146424
0.5730925283205927 0.6770719073246353 0.3032283626652138
0.7107941089181978 0.6201186654566357 0.2792653346529665
0.7110548098567135 0.694302009287092 0.20701656689626247
0.8050435877188721 0.5801383566566088 0.21879478267146424
0.7730925283205927 0.6770719073246353 0.3032283626652138
0.9107941089181978 0.6201186654566357 0.2792653346529665
0.9110548098567135 0.694302009287092 0.20701656689626247
0.0050435877188720266 0.7801383566566088 0.21879478267146424
-0.026907471679407404 0.8770719073246354 0.3032283626652138
0.11079410891819777 0.8201186654566357 0.2792653346529665
0.11105480985671351 0.8943020092870921 0.20701656689626247
0.20504358771887202 0.7801383566566088 0.21879478267146424
0.1730925283205926 0.8770719073246354 0.3032283626652138
0.3107941089181978 0.8201186654566357 0.2792653346529665
0.3110548098567135 0.8943020092870921 0.20701656689626247
0.40504358771887206 0.7801383566566088 0.21879478267146424
0.3730925283205926 0.8770719073246354 0.3032283626652138
0.5107941089181978 0.8201186654566357 0.2792653346529665
0.5110548098567135 0.8943020092870921 0.20701656689626247
0.605043587718872 0.7801383566566088 0.21879478267146424
0.5730925283205927 0.8770719073246354 0.3032283626652138
0.7107941089181978 0.8201186654566357 0.2792653346529665
0.7110548098567135 0.8943020092870921 0.20701656689626247
0.8050435877188721 0.7801383566566088 0.21879478267146424
0.7730925283205927 0.8770719073246354 0.3032283626652138
0.9107941089181978 0.8201186654566357 0.2792653346529665
0.9110548098567135 0.8943020092870921 0.20701656689626247
0.0050435877188720266 -0.019861643343391182 0.4187947826714643
-0.026907471679407404 0.07707190732463526 0.5032283626652138
0.11079410891819777 0.020118665456635692 0.4792653346529665
0.11105480985671351 0.09430200928709198 0.4070165668962624
0.20504358771887202 -0.019861643343391182 0.4187947826714643
0.1730925283205926 0.07707190732463526 0.5032283626652138
0.3107941089181978 0.020118665456635692 0.4792653346529665
0.3110548098567135 0.09430200928709198 0.4070165668962624
0.40504358771887206 -0.019861643343391182 0.4187947826714643
0.3730925283205926 0.07707190732463526 0.5032283626652138
0.5107941089181978 0.020118665456635692 0.4792653346529665
0.5110548098567135 0.09430200928709198 0.4070165668962624
0.605043587718872 -0.019861643343391182 0.4187947826714643
0.5730925283205927 0.07707190732463526 0.5032283626652138
0.7107941089181978 0.020118665456635692 0.4792653346529665
0.7110548098567135 0.09430200928709198 0.4070165668962624
0.8050435877188721 -0.019861643343391182 0.4187947826714643
0.7730925283205927 0.07707190732463526 0.5032283626652138
0.9107941089181978 0.020118665456635692 0.4792653346529665
0.9110548098567135 0.09430200928709198 0.4070165668962624
0.0050435877188720266 0.18013835665660882 0.4187947826714643
-0.026907471679407404 0.27707190732463527 0.5032283626652138
0.11079410891819777 0.22011866545663572 0.4792653346529665
0.11105480985671351 0.294302009287092 0.4070165668962624
0.20504358771887202 0.18013835665660882 0.4187947826714643
0.1730925283205926 0.27707190732463527 0.5032283626652138
0.3107941089181978 0.22011866545663572 0.4792653346529665
0.3110548098567135 0.294302009287092 0.4070165668962624
0.40504358771887206 0.18013835665660882 0.4187947826714643
0.3730925283205926 0.27707190732463527 0.5032283626652138
0.5107941089181978 0.22011866545663572 0.4792653346529665
0.5110548098567135 0.294302009287092 0.4070165668962624
0.605043587718872 0.18013835665660882 0.4187947826714643
0.5730925283205927 0.27707190732463527 0.5032283626652138
0.7107941089181978 0.22011866545663572 0.4792653346529665
0.7110548098567135 0.294302009287092 0.4070165668962624
0.8050435877188721 0.18013835665660882 0.4187947826714643
0.7730925283205927 0.27707190732463527 0.5032283626652138
0.9107941089181978 0.22011866545663572 0.4792653346529665
0.9110548098567135 0.294302009287092 0.4070165668962624
0.0050435877188720266 0.38013835665660883 0.4187947826714643
-0.026907471679407404 0.4770719073246353 0.5032283626652138
0.11079410891819777 0.4201186654566357 0.4792653346529665
0.11105480985671351 0.494302009287092 0.4070165668962624
0.20504358771887202 0.38013835665660883 0.4187947826714643
0.1730925283205926 0.4770719073246353 0.5032283626652138
0.3107941089181978 0.4201186654566357 0.4792653346529665
0.3110548098567135 0.494302009287092 0.4070165668962624
0.40504358771887206 0.38013835665660883 0.4187947826714643
0.3730925283205926 0.4770719073246353 0.5032283626652138
0.5107941089181978 0.4201186654566357 0.4792653346529665
0.5110548098567135 0.494302009287092 0.4070165668962624
0.605043587718872 0.38013835665660883 0.4187947826714643
0.5730925283205927 0.4770719073246353 0.5032283626652138
0.7107941089181978 0.4201186654566357 0.4792653346529665
0.7110548098567135 0.494302009287092 0.4070165668962624
0.8050435877188721 0.38013835665660883 0.4187947826714643
0.7730925283205927 0.4770719073246353 0.5032283626652138
0.9107941089181978 0.4201186654566357 0.4792653346529665
0.9110548098567135 0.494302009287092 0.4070165668962624
0.0050435877188720266 0.5801383566566088 0.4187947826714643
-0.026907471679407404 0.6770719073246353 0.5032283626652138
0.11079410891819777 0.6201186654566357 0.4792653346529665
0.11105480985671351 0.694302009287092 0.4070165668962624
0.20504358771887202 0.5801383566566088 0.4187947826714643
0.1730925283205926 0.6770719073246353 0.5032283626652138
0.3107941089181978 0.6201186654566357 0.4792653346529665
0.3110548098567135 0.694302009287092 0.4070165668962624
0.40504358771887206 0.5801383566566088 0.4187947826714643
0.3730925283205926 0.6770719073246353 0.5032283626652138
0.5107941089181978 0.6201186654566357 0.4792653346529665
0.5110548098567135 0.694302009287092 0.4070165668962624
0.605043587718872 0.5801383566566088 0.4187947826714643
0.5730925283205927 0.6770719073246353 0.5032283626652138
0.7107941089181978 0.6201186654566357 0.4792653346529665
0.7110548098567135 0.694302009287092 0.4070165668962624
0.8050435877188721 0.5801383566566088 0.4187947826714643
0.7730925283205927 0.6770719073246353 0.5032283626652138
0.9107941089181978 0.6201186654566357 0.4792653346529665
0.9110548098567135 0.694302009287092 0.4070165668962624
0.0050435877188720266 0.7801383566566088 0.4187947826714643
-0.026907471679407404 0.8770719073246354 0.5032283626652138
0.11079410891819777 0.8201186654566357 0.4792653346529665
0.11105480985671351 0.8943020092870921 0.4070165668962624
0.20504358771887202 0.7801383566566088 0.4187947826714643
0.1730925283205926 0.8770719073246354 0.5032283626652138
0.3107941089181978 0.8201186654566357 0.4792653346529665
0.3110548098567135 0.8943020092870921 0.4070165668962624
0.40504358771887206 0.7801383566566088 0.4187947826714643
0.3730925283205926 0.8770719073246354 0.5032283626652138
0.5107941089181978 0.8201186654566357 0.4792653346529665
0.5110548098567135 0.8943020092870921 0.4070165668962624
0.605043587718872 0.7801383566566088 0.4187947826714643
0.5730925283205927 0.8770719073246354 0.5032283626652138
0.7107941089181978 0.8201186654566357 0.4792653346529665
0.7110548098567135 0.8943020092870921 0.4070165668962624
0.8050435877188721 0.7801383566566088 0.4187947826714643
0.7730925283205927 0.8770719073246354 0.5032283626652138
0.9107941089181978 0.8201186654566357 0.4792653346529665
0.9110548098567135 0.8943020092870921 0.4070165668962624
0.0050435877188720266 -0.019861643343391182 0.6187947826714644
-0.026907471679407404 0.07707190732463526 0.7032283626652138
0.11079410891819777 0.020118665456635692 0.6792653346529666
0.11105480985671351 0.09430200928709198 0.6070165668962625
0.20504358771887202 -0.019861643343391182 0.6187947826714644
0.1730925283205926 0.07707190732463526 0.7032283626652138
0.3107941089181978 0.020118665456635692 0.6792653346529666
0.3110548098567135 0.09430200928709198 0.6070165668962625
0.40504358771887206 -0.019861643343391182 0.6187947826714644
0.3730925283205926 0.07707190732463526 0.7032283626652138
0.5107941089181978 0.020118665456635692 0.6792653346529666
0.5110548098567135 0.09430200928709198 0.6070165668962625
0.605043587718872 -0.019861643343391182 0.6187947826714644
0.5730925283205927 0.07707190732463526 0.7032283626652138
0.7107941089181978 0.020118665456635692 0.6792653346529666
0.7110548098567135 0.09430200928709198 0.6070165668962625
0.8050435877188721 -0.019861643343391182 0.6187947826714644
0.7730925283205927 0.07707190732463526 0.7032283626652138
0.9107941089181978 0.020118665456635692 0.6792653346529666
0.9110548098567135 0.09430200928709198 0.6070165668962625
0.0050435877188720266 0.18013835665660882 0.6187947826714644
-0.026907471679407404 0.27707190732463527 0.7032283626652138
0.11079410891819777 0.22011866545663572 0.6792653346529666
0.11105480985671351 0.294302009287092 0.6070165668962625
0.20504358771887202 0.18013835665660882 0.6187947826714644
0.1730925283205926 0.27707190732463527 0.7032283626652138
0.3107941089181978 0.22011866545663572 0.6792653346529666
0.3110548098567135 0.294302009287092 0.6070165668962625
0.40504358771887206 0.18013835665660882 0.6187947826714644
0.3730925283205926 0.27707190732463527 0.7032283626652138
0.5107941089181978 0.22011866545663572 0.6792653346529666
0.5110548098567135 0.294302009287092 0.6070165668962625
0.605043587718872 0.18013835665660882 0.6187947826714644
0.5730925283205927 0.27707190732463527 0.7032283626652138
0.7107941089181978 0.22011866545663572 0.6792653346529666
0.7110548098567135 0.294302009287092 0.6070165668962625
0.8050435877188721 0.18013835665660882 0.6187947826714644
0.7730925283205927 0.27707190732463527 0.7032283626652138
0.9107941089181978 0.22011866545663572 0.6792653346529666
0.9110548098567135 0.294302009287092 0.6070165668962625
0.0050435877188720266 0.38013835665660883 0.6187947826714644
-0.026907471679407404 0.4770719073246353 0.7032283626652138
0.11079410891819777 0.4201186654566357 0.6792653346529666
0.11105480985671351 0.494302009287092 0.6070165668962625
0.20504358771887202 0.38013835665660883 0.6187947826714644
0.1730925283205926 0.4770719073246353 0.7032283626652138
0.3107941089181978 0.4201186654566357 0.6792653346529666
0.3110548098567135 0.494302009287092 0.6070165668962625
0.40504358771887206 0.38013835665660883 0.6187947826714644
0.3730925283205926 0.4770719073246353 0.7032283626652138
0.5107941089181978 0.4201186654566357 0.6792653346529666
0.5110548098567135 0.494302009287092 0.6070165668962625
0.605043587718872 0.38013835665660883 0.6187947826714644
0.5730925283205927 0.4770719073246353 0.7032283626652138
0.7107941089181978 0.4201186654566357 0.6792653346529666
0.7110548098567135 0.494302009287092 0.6070165668962625
0.8050435877188721 0.38013835665660883 0.6187947826714644
0.7730925283205927 0.4770719073246353 0.7032283626652138
0.9107941089181978 0.4201186654566357 0.6792653346529666
0.9110548098567135 0.494302009287092 0.6070165668962625
0.0050435877188720266 0.5801383566566088 0.6187947826714644
-0.026907471679407404 0.6770719073246353 0.7032283626652138
0.11079410891819777 0.6201186654566357 0.6792653346529666
0.11105480985671351 0.694302009287092 0.6070165668962625
0.20504358771887202 0.5801383566566088 0.6187947826714644
0.1730925283205926 0.6770719073246353 0.7032283626652138
0.3107941089181978 0.6201186654566357 0.6792653346529666
0.3110548098567135 0.694302009287092 0.6070165668962625
0.40504358771887206 0.5801383566566088 0.6187947826714644
0.3730925283205926 0.6770719073246353 0.7032283626652138
0.5107941089181978 0.6201186654566357 0.6792653346529666
0.5110548098567135 0.694302009287092 0.6070165668962625
0.605043587718872 0.5801383566566088 0.6187947826714644
0.5730925283205927 0.6770719073246353 0.7032283626652138
0.7107941089181978 0.6201186654566357 0.6792653346529666
0.7110548098567135 0.694302009287092 0.6070165668962625
0.8050435877188721 0.5801383566566088 0.6187947826714644
0.7730925283205927 0.6770719073246353 0.7032283626652138
0.9107941089181978 0.6201186654566357 0.6792653346529666
0.9110548098567135 0.694302009287092 0.6070165668962625
0.0050435877188720266 0.7801383566566088 0.6187947826714644
-0.026907471679407404 0.8770719073246354 0.7032283626652138
0.11079410891819777 0.8201186654566357 0.6792653346529666
0.11105480985671351 0.8943020092870921 0.6070165668962625
0.20504358771887202 0.7801383566566088 0.6187947826714644
0.1730925283205926 0.8770719073246354 0.7032283626652138
0.3107941089181978 0.8201186654566357 0.6792653346529666
0.3110548098567135 0.8943020092870921 0.6070165668962625
0.40504358771887206 0.7801383566566088 0.6187947826714644
0.3730925283205926 0.8770719073246354 0.7032283626652138
0.5107941089181978 0.8201186654566357 0.6792653346529666
0.5110548098567135 0.8943020092870921 0.6070165668962625
0.605043587718872 0.7801383566566088 0.6187947826714644
0.5730925283205927 0.8770719073246354 0.7032283626652138
0.7107941089181978 0.8201186654566357 0.6792653346529666
0.7110548098567135 0.8943020092870921 0.6070165668962625
0.8050435877188721 0.7801383566566088 0.6187947826714644
0.7730925283205927 0.8770719073246354 0.7032283626652138
0.9107941089181978 0.8201186654566357 0.6792653346529666
0.9110548098567135 0.8943020092870921 0.6070165668962625
0.0050435877188720266 -0.019861643343391182 0.8187947826714643
-0.026907471679407404 0.07707190732463526 0.9032283626652138
0.11079410891819777 0.020118665456635692 0.8792653346529665
0.11105480985671351 0.09430200928709198 0.8070165668962626
0.20504358771887202 -0.019861643343391182 0.8187947826714643
0.1730925283205926 0.07707190732463526 0.9032283626652138
0.3107941089181978 0.020118665456635692 0.8792653346529665
0.3110548098567135 0.09430200928709198 0.8070165668962626
0.40504358771887206 -0.019861643343391182 0.8187947826714643
0.3730925283205926 0.07707190732463526 0.9032283626652138
0.5107941089181978 0.020118665456635692 0.8792653346529665
0.5110548098567135 0.09430200928709198 0.8070165668962626
0.605043587718872 -0.019861643343391182 0.8187947826714643
0.5730925283205927 0.07707190732463526 0.9032283626652138
0.7107941089181978 0.020118665456635692 0.8792653346529665
0.7110548098567135 0.09430200928709198 0.8070165668962626
0.8050435877188721 -0.019861643343391182 0.8187947826714643
0.7730925283205927 0.07707190732463526 0.9032283626652138
0.9107941089181978 0.020118665456635692 0.8792653346529665
0.9110548098567135 0.09430200928709198 0.8070165668962626
0.0050435877188720266 0.18013835665660882 0.8187947826714643
-0.026907471679407404 0.27707190732463527 0.9032283626652138
0.11079410891819777 0.22011866545663572 0.8792653346529665
0.11105480985671351 0.294302009287092 0.8070165668962626
0.20504358771887202 0.18013835665660882 0.8187947826714643
0.1730925283205926 0.27707190732463527 0.9032283626652138
0.3107941089181978 0.22011866545663572 0.8792653346529665
0.3110548098567135 0.294302009287092 0.8070165668962626
0.40504358771887206 0.18013835665660882 0.8187947826714643
0.3730925283205926 0.27707190732463527 0.9032283626652138
0.5107941089181978 0.22011866545663572 0.8792653346529665
0.5110548098567135 0.294302009287092 0.8070165668962626
0.605043587718872 0.18013835665660882 0.8187947826714643
0.5730925283205927 0.27707190732463527 0.9032283626652138
0.7107941089181978 0.22011866545663572 0.8792653346529665
0.7110548098567135 0.294302009287092 0.8070165668962626
0.8050435877188721 0.18013835665660882 0.8187947826714643
0.7730925283205927 0.27707190732463527 0.9032283626652138
0.9107941089181978 0.22011866545663572 0.8792653346529665
0.9110548098567135 0.294302009287092 0.8070165668962626
0.0050435877188720266 0.38013835665660883 0.8187947826714643
-0.026907471679407404 0.4770719073246353 0.9032283626652138
0.11079410891819777 0.4201186654566357 0.8792653346529665
0.11105480985671351 0.494302009287092 0.8070165668962626
0.20504358771887202 0.38013835665660883 0.8187947826714643
0.1730925283205926 0.4770719073246353 0.9032283626652138
0.3107941089181978 0.4201186654566357 0.8792653346529665
0.3110548098567135 0.494302009287092 0.8070165668962626
0.40504358771887206 0.38013835665660883 0.8187947826714643
0.3730925283205926 0.4770719073246353 0.9032283626652138
0.5107941089181978 0.4201186654566357 0.8792653346529665
0.5110548098567135 0.494302009287092 0.8070165668962626
0.605043587718872 0.38013835665660883 0.8187947826714643
0.5730925283205927 0.4770719073246353 0.9032283626652138
0.7107941089181978 0.4201186654566357 0.8792653346529665
0.7110548098567135 0.494302009287092 0.8070165668962626
0.8050435877188721 0.38013835665660883 0.8187947826714643
0.7730925283205927 0.4770719073246353 0.9032283626652138
0.9107941089181978 0.4201186654566357 0.8792653346529665
0.9110548098567135 0.494302009287092 0.8070165668962626
0.0050435877188720266 0.5801383566566088 0.8187947826714643
-0.026907471679407404 0.6770719073246353 0.9032283626652138
0.11079410891819777 0.6201186654566357 0.8792653346529665
0.11105480985671351 0.694302009287092 0.8070165668962626
0.20504358771887202 0.5801383566566088 0.8187947826714643
0.1730925283205926 0.6770719073246353 0.9032283626652138
0.3107941089181978 0.6201186654566357 0.8792653346529665
0.3110548098567135 0.694302009287092 0.8070165668962626
0.40504358771887206 0.5801383566566088 0.8187947826714643
0.3730925283205926 0.6770719073246353 0.9032283626652138
0.5107941089181978 0.6201186654566357 0.8792653346529665
0.5110548098567135 0.694302009287092 0.8070165668962626
0.605043587718872 0.5801383566566088 0.8187947826714643
0.5730925283205927 0.6770719073246353 0.9032283626652138
0.7107941089181978 0.6201186654566357 0.8792653346529665
0.7110548098567135 0.694302009287092 0.8070165668962626
0.8050435877188721 0.5801383566566088 0.8187947826714643
0.7730925283205927 0.6770719073246353 0.9032283626652138
0.9107941089181978 0.6201186654566357 0.8792653346529665
0.9110548098567135 0.694302009287092 0.8070165668962626
0.0050435877188720266 0.7801383566566088 0.8187947826714643
-0.026907471679407404 0.8770719073246354 0.9032283626652138
0.11079410891819777 0.8201186654566357 0.8792653346529665
0.11105480985671351 0.8943020092870921 0.8070165668962626
0.20504358771887202 0.7801383566566088 0.8187947826714643
0.1730925283205926 0.8770719073246354 0.9032283626652138
0.3107941089181978 0.8201186654566357 0.8792653346529665
0.3110548098567135 0.8943020092870921 0.8070165668962626
0.40504358771887206 0.7801383566566088 0.8187947826714643
0.3730925283205926 0.8770719073246354 0.9032283626652138
0.5107941089181978 0.8201186654566357 0.8792653346529665
0.5110548098567135 0.8943020092870921 0.8070165668962626
0.605043587718872 0.7801383566566088 0.8187947826714643
0.5730925283205927 0.8770719073246354 0.9032283626652138
0.7107941089181978 0.8201186654566357 0.8792653346529665
0.7110548098567135 0.8943020092870921 0.8070165668962626
0.8050435877188721 0.7801383566566088 0.8187947826714643
0.7730925283205927 0.8770719073246354 0.9032283626652138
0.9107941089181978 0.8201186654566357 0.8792653346529665
0.9110548098567135 0.8943020092870921 0.8070165668962626
0.0818339687492625 -0.0017159729313011816 -0.004810551408609749
0.012514845869757155 0.12008583004611295 0.01231033597905077
0.017368449305870795 -0.010169122091040685 0.09285964143433459
0.100437800459038 0.10462430083968109 0.08013438630157044
0.28183396874926253 -0.0017159729313011816 -0.004810551408609749
0.2125148458697572 0.12008583004611295 0.01231033597905077
0.2173684493058708 -0.010169122091040685 0.09285964143433459
0.300437800459038 0.10462430083968109 0.08013438630157044
0.4818339687492625 -0.0017159729313011816 -0.004810551408609749
0.4125148458697572 0.12008583004611295 0.01231033597905077
0.41736844930587086 -0.010169122091040685 0.09285964143433459
0.500437800459038 0.10462430083968109 0.08013438630157044
0.6818339687492625 -0.0017159729313011816 -0.004810551408609749
0.6125148458697572 0.12008583004611295 0.01231033597905077
0.6173684493058709 -0.010169122091040685 0.09285964143433459
0.700437800459038 0.10462430083968109 0.08013438630157044
0.8818339687492625 -0.0017159729313011816 -0.004810551408609749
0.8125148458697572 0.12008583004611295 0.01231033597905077
0.8173684493058708 -0.010169122091040685 0.09285964143433459
0.9004378004590381 0.10462430083968109 0.08013438630157044
0.0818339687492625 0.19828402706869883 -0.004810551408609749
0.012514845869757155 0.32008583004611296 0.01231033597905077
0.017368449305870795 0.18983087790895933 0.09285964143433459
0.100437800459038 0.3046243008396811 0.08013438630157044
0.28183396874926253 0.19828402706869883 -0.004810551408609749
0.2125148458697572 0.32008583004611296 0.01231033597905077
0.2173684493058708 0.18983087790895933 0.09285964143433459
0.300437800459038 0.3046243008396811 0.08013438630157044
0.4818339687492625 0.19828402706869883 -0.004810551408609749
0.4125148458697572 0.32008583004611296 0.01231033597905077
0.41736844930587086 0.18983087790895933 0.09285964143433459
0.500437800459038 0.3046243008396811 0.08013438630157044
0.6818339687492625 0.19828402706869883 -0.004810551408609749
0.6125148458697572 0.32008583004611296 0.01231033597905077
0.6173684493058709 0.18983087790895933 0.09285964143433459
0.700437800459038 0.3046243008396811 0.08013438630157044
0.8818339687492625 0.19828402706869883 -0.004810551408609749
0.8125148458697572 0.32008583004611296 0.01231033597905077
0.8173684493058708 0.18983087790895933 0.09285964143433459
0.9004378004590381 0.3046243008396811 0.08013438630157044
0.0818339687492625 0.39828402706869886 -0.004810551408609749
0.012514845869757155 0.520085830046113 0.01231033597905077
0.017368449305870795 0.3898308779089593 0.09285964143433459
0.100437800459038 0.5046243008396811 0.08013438630157044
0.28183396874926253 0.39828402706869886 -0.004810551408609749
0.2125148458697572 0.520085830046113 0.01231033597905077
0.2173684493058708 0.3898308779089593 0.09285964143433459
0.300437800459038 0.5046243008396811 0.08013438630157044
0.4818339687492625 0.39828402706869886 -0.004810551408609749
0.4125148458697572 0.520085830046113 0.01231033597905077
0.41736844930587086 0.3898308779089593 0.09285964143433459
0.500437800459038 0.5046243008396811 0.08013438630157044
0.6818339687492625 0.39828402706869886 -0.004810551408609749
0.6125148458697572 0.520085830046113 0.01231033597905077
0.6173684493058709 0.3898308779089593 0.09285964143433459
0.700437800459038 0.5046243008396811 0.08013438630157044
0.8818339687492625 0.39828402706869886 -0.004810551408609749
0.8125148458697572 0.520085830046113 0.01231033597905077
0.8173684493058708 0.3898308779089593 0.09285964143433459
0.9004378004590381 0.5046243008396811 0.08013438630157044
0.0818339687492625 0.5982840270686988 -0.004810551408609749
0.012514845869757155 0.720085830046113 0.01231033597905077
0.017368449305870795 0.5898308779089593 0.09285964143433459
0.100437800459038 0.7046243008396811 0.08013438630157044
0.28183396874926253 0.5982840270686988 -0.004810551408609749
0.2125148458697572 0.720085830046113 0.01231033597905077
0.2173684493058708 0.5898308779089593 0.09285964143433459
0.300437800459038 0.7046243008396811 0.08013438630157044
0.4818339687492625 0.5982840270686988 -0.004810551408609749
0.4125148458697572 0.720085830046113 0.01231033597905077
0.41736844930587086 0.5898308779089593 0.09285964143433459
0.500437800459038 0.7046243008396811 0.08013438630157044
0.6818339687492625 0.5982840270686988 -0.004810551408609749
0.6125148458697572 0.720085830046113 0.01231033597905077
0.6173684493058709 0.5898308779089593 0.09285964143433459
0.700437800459038 0.7046243008396811 0.08013438630157044
0.8818339687492625 0.5982840270686988 -0.004810551408609749
0.8125148458697572 0.720085830046113 0.01231033597905077
0.8173684493058708 0.5898308779089593 0.09285964143433459
0.9004378004590381 0.7046243008396811 0.08013438630157044
0.0818339687492625 0.7982840270686988 -0.004810551408609749
0.012514845869757155 0.920085830046113 0.01231033597905077
0.017368449305870795 0.7898308779089593 0.09285964143433459
0.100437800459038 0.9046243008396812 0.08013438630157044
0.28183396874926253 0.7982840270686988 -0.004810551408609749
0.2125148458697572 0.920085830046113 0.01231033597905077
0.2173684493058708 0.7898308779089593 0.09285964143433459
0.300437800459038 0.9046243008396812 0.08013438630157044
0.4818339687492625 0.7982840270686988 -0.004810551408609749
0.4125148458697572 0.920085830046113 0.01231033597905077
0.41736844930587086 0.7898308779089593 0.09285964143433459
0.500437800459038 0.9046243008396812 0.08013438630157044
0.6818339687492625 0.7982840270686988 -0.004810551408609749
0.6125148458697572 0.920085830046113 0.01231033597905077
0.6173684493058709 0.7898308779089593 0.09285964143433459
0.700437800459038 0.9046243008396812 0.08013438630157044
0.8818339687492625 0.7982840270686988 -0.004810551408609749
0.8125148458697572 0.920085830046113 0.01231033597905077
0.8173684493058708 0.7898308779089593 0.09285964143433459
0.9004378004590381 0.9046243008396812 0.08013438630157044
0.0818339687492625 -0.0017159729313011816 0.19518944859139026
0.012514845869757155 0.12008583004611295 0.21231033597905077
0.017368449305870795 -0.010169122091040685 0.2928596414343346
0.100437800459038 0.10462430083968109 0.28013438630157045
0.28183396874926253 -0.0017159729313011816 0.19518944859139026
0.2125148458697572 0.12008583004611295 0.21231033597905077
0.2173684493058708 -0.010169122091040685 0.2928596414343346
0.300437800459038 0.10462430083968109 0.28013438630157045
0.4818339687492625 -0.0017159729313011816 0.19518944859139026
0.4125148458697572 0.12008583004611295 0.21231033597905077
0.41736844930587086 -0.010169122091040685 0.2928596414343346
0.500437800459038 0.10462430083968109 0.28013438630157045
0.6818339687492625 -0.0017159729313011816 0.19518944859139026
0.6125148458697572 0.12008583004611295 0.21231033597905077
0.6173684493058709 -0.010169122091040685 0.2928596414343346
0.700437800459038 0.10462430083968109 0.28013438630157045
0.8818339687492625 -0.0017159729313011816 0.19518944859139026
0.8125148458697572 0.12008583004611295 0.21231033597905077
0.8173684493058708 -0.010169122091040685 0.2928596414343346
0.9004378004590381 0.10462430083968109 0.28013438630157045
0.0818339687492625 0.19828402706869883 0.19518944859139026
0.012514845869757155 0.32008583004611296 0.21231033597905077
0.017368449305870795 0.18983087790895933 0.2928596414343346
0.100437800459038 0.3046243008396811 0.28013438630157045
0.28183396874926253 0.19828402706869883 0.19518944859139026
0.2125148458697572 0.32008583004611296 0.21231033597905077
0.2173684493058708 0.18983087790895933 0.2928596414343346
0.300437800459038 0.3046243008396811 0.28013438630157045
0.4818339687492625 0.19828402706869883 0.19518944859139026
0.4125148458697572 0.32008583004611296 0.21231033597905077
0.41736844930587086 0.18983087790895933 0.2928596414343346
0.500437800459038 0.3046243008396811 0.28013438630157045
0.6818339687492625 0.19828402706869883 0.19518944859139026
0.6125148458697572 0.32008583004611296 0.21231033597905077
0.6173684493058709 0.18983087790895933 0.2928596414343346
0.700437800459038 0.3046243008396811 0.28013438630157045
0.8818339687492625 0.19828402706869883 0.19518944859139026
0.8125148458697572 0.32008583004611296 0.21231033597905077
0.8173684493058708 0.18983087790895933 0.2928596414343346
0.9004378004590381 0.3046243008396811 0.28013438630157045
0.0818339687492625 0.39828402706869886 0.19518944859139026
0.012514845869757155 0.520085830046113 0.21231033597905077
0.017368449305870795 0.3898308779089593 0.2928596414343346
0.100437800459038 0.5046243008396811 0.28013438630157045
0.28183396874926253 0.39828402706869886 0.19518944859139026
0.2125148458697572 0.520085830046113 0.21231033597905077
0.2173684493058708 0.3898308779089593 0.2928596414343346
0.300437800459038 0.5046243008396811 0.28013438630157045
0.4818339687492625 0.39828402706869886 0.19518944859139026
0.4125148458697572 0.520085830046113 0.21231033597905077
0.41736844930587086 0.3898308779089593 0.2928596414343346
0.500437800459038 0.5046243008396811 0.28013438630157045
0.6818339687492625 0.39828402706869886 0.19518944859139026
0.6125148458697572 0.520085830046113 0.21231033597905077
0.6173684493058709 0.3898308779089593 0.2928596414343346
0.700437800459038 0.5046243008396811 0.28013438630157045
0.8818339687492625 0.39828402706869886 0.19518944859139026
0.8125148458697572 0.520085830046113 0.21231033597905077
0.8173684493058708 0.3898308779089593 0.2928596414343346
0.9004378004590381 0.5046243008396811 0.28013438630157045
0.0818339687492625 0.5982840270686988 0.19518944859139026
0.012514845869757155 0.720085830046113 0.21231033597905077
0.017368449305870795 0.5898308779089593 0.2928596414343346
0.100437800459038 0.7046243008396811 0.28013438630157045
0.28183396874926253 0.5982840270686988 0.19518944859139026
0.2125148458697572 0.720085830046113 0.21231033597905077
0.2173684493058708 0.5898308779089593 0.2928596414343346
0.300437800459038 0.7046243008396811 0.28013438630157045
0.4818339687492625 0.5982840270686988 0.19518944859139026
0.4125148458697572 0.720085830046113 0.21231033597905077
0.41736844930587086 0.5898308779089593 0.2928596414343346
0.500437800459038 0.7046243008396811 0.28013438630157045
0.6818339687492625 0.5982840270686988 0.19518944859139026
0.6125148458697572 0.720085830046113 0.21231033597905077
0.6173684493058709 0.5898308779089593 0.2928596414343346
0.700437800459038 0.7046243008396811 0.28013438630157045
0.8818339687492625 0.5982840270686988 0.19518944859139026
0.8125148458697572 0.720085830046113 0.21231033597905077
0.8173684493058708 0.5898308779089593 0.2928596414343346
0.9004378004590381 0.7046243008396811 0.28013438630157045
0.0818339687492625 0.7982840270686988 0.19518944859139026
0.012514845869757155 0.920085830046113 0.21231033597905077
0.017368449305870795 0.7898308779089593 0.2928596414343346
0.100437800459038 0.9046243008396812 0.28013438630157045
0.28183396874926253 0.7982840270686988 0.19518944859139026
0.2125148458697572 0.920085830046113 0.21231033597905077
0.2173684493058708 0.7898308779089593 0.2928596414343346
0.300437800459038 0.9046243008396812 0.28013438630157045
0.4818339687492625 0.7982840270686988 0.19518944859139026
0.4125148458697572 0.920085830046113 0.21231033597905077
0.41736844930587086 0.7898308779089593 0.2928596414343346
0.500437800459038 0.9046243008396812 0.28013438630157045
0.6818339687492625 0.7982840270686988 0.19518944859139026
0.6125148458697572 0.920085830046113 0.21231033597905077
0.6173684493058709 0.7898308779089593 0.2928596414343346
0.700437800459038 0.9046243008396812 0.28013438630157045
0.8818339687492625 0.7982840270686988 0.19518944859139026
0.8125148458697572 0.920085830046113 0.21231033597905077
0.8173684493058708 0.7898308779089593 0.2928596414343346
0.9004378004590381 0.9046243008396812 0.28013438630157045
0.0818339687492625 -0.0017159729313011816 0.39518944859139027
0.012514845869757155 0.12008583004611295 0.4123103359790508
0.017368449305870795 -0.010169122091040685 0.49285964143433464
0.100437800459038 0.10462430083968109 0.48013438630157046
0.28183396874926253 -0.0017159729313011816 0.39518944859139027
0.2125148458697572 0.12008583004611295 0.4123103359790508
0.2173684493058708 -0.010169122091040685 0.49285964143433464
0.300437800459038 0.10462430083968109 0.48013438630157046
0.4818339687492625 -0.0017159729313011816 0.39518944859139027
0.4125148458697572 0.12008583004611295 0.4123103359790508
0.41736844930587086 -0.010169122091040685 0.49285964143433464
0.500437800459038 0.10462430083968109 0.48013438630157046
0.6818339687492625 -0.0017159729313011816 0.39518944859139027
0.6125148458697572 0.12008583004611295 0.4123103359790508
0.6173684493058709 -0.010169122091040685 0.49285964143433464
0.700437800459038 0.10462430083968109 0.48013438630157046
0.8818339687492625 -0.0017159729313011816 0.39518944859139027
0.8125148458697572 0.12008583004611295 0.4123103359790508
0.8173684493058708 -0.010169122091040685 0.49285964143433464
0.9004378004590381 0.10462430083968109 0.48013438630157046
0.0818339687492625 0.19828402706869883 0.39518944859139027
0.012514845869757155 0.32008583004611296 0.4123103359790508
0.017368449305870795 0.18983087790895933 0.49285964143433464
0.100437800459038 0.3046243008396811 0.48013438630157046
0.28183396874926253 0.19828402706869883 0.39518944859139027
0.2125148458697572 0.32008583004611296 0.4123103359790508
0.2173684493058708 0.18983087790895933 0.49285964143433464
0.300437800459038 0.3046243008396811 0.48013438630157046
0.4818339687492625 0.19828402706869883 0.39518944859139027
0.4125148458697572 0.32008583004611296 0.4123103359790508
0.41736844930587086 0.18983087790895933 0.49285964143433464
0.500437800459038 0.3046243008396811 0.48013438630157046
0.6818339687492625 0.19828402706869883 0.39518944859139027
0.6125148458697572 0.32008583004611296 0.4123103359790508
0.6173684493058709 0.18983087790895933 0.49285964143433464
0.700437800459038 0.3046243008396811 0.48013438630157046
0.8818339687492625 0.19828402706869883 0.39518944859139027
0.8125148458697572 0.32008583004611296 0.4123103359790508
0.8173684493058708 0.18983087790895933 0.49285964143433464
0.9004378004590381 0.3046243008396811 0.48013438630157046
0.0818339687492625 0.39828402706869886 0.39518944859139027
0.012514845869757155 0.520085830046113 0.4123103359790508
0.017368449305870795 0.3898308779089593 0.49285964143433464
0.100437800459038 0.5046243008396811 0.48013438630157046
0.28183396874926253 0.39828402706869886 0.39518944859139027
0.2125148458697572 0.520085830046113 0.4123103359790508
0.2173684493058708 0.3898308779089593 0.49285964143433464
0.300437800459038 0.5046243008396811 0.48013438630157046
0.4818339687492625 0.39828402706869886 0.39518944859139027
0.4125148458697572 0.520085830046113 0.4123103359790508
0.41736844930587086 0.3898308779089593 0.49285964143433464
0.500437800459038 0.5046243008396811 0.48013438630157046
0.6818339687492625 0.39828402706869886 0.39518944859139027
0.6125148458697572 0.520085830046113 0.4123103359790508
0.6173684493058709 0.3898308779089593 0.49285964143433464
0.700437800459038 0.5046243008396811 0.48013438630157046
0.8818339687492625 0.39828402706869886 0.39518944859139027
0.8125148458697572 0.520085830046113 0.4123103359790508
0.8173684493058708 0.3898308779089593 0.49285964143433464
0.9004378004590381 0.5046243008396811 0.48013438630157046
0.0818339687492625 0.5982840270686988 0.39518944859139027
0.012514845869757155 0.720085830046113 0.4123103359790508
0.017368449305870795 0.5898308779089593 0.49285964143433464
0.100437800459038 0.7046243008396811 0.48013438630157046
0.28183396874926253 0.5982840270686988 0.39518944859139027
0.2125148458697572 0.720085830046113 0.4123103359790508
0.2173684493058708 0.5898308779089593 0.49285964143433464
0.300437800459038 0.7046243008396811 0.48013438630157046
0.4818339687492625 0.5982840270686988 0.39518944859139027
0.4125148458697572 0.720085830046113 0.4123103359790508
0.41736844930587086 0.5898308779089593 0.49285964143433464
0.500437800459038 0.7046243008396811 0.48013438630157046
0.6818339687492625 0.5982840270686988 0.39518944859139027
0.6125148458697572 0.720085830046113 0.4123103359790508
0.6173684493058709 0.5898308779089593 0.49285964143433464
0.700437800459038 0.7046243008396811 0.48013438630157046
0.8818339687492625 0.5982840270686988 0.39518944859139027
0.8125148458697572 0.720085830046113 0.4123103359790508
0.8173684493058708 0.5898308779089593 0.49285964143433464
0.9004378004590381 0.7046243008396811 0.48013438630157046
0.0818339687492625 0.7982840270686988 0.39518944859139027
0.012514845869757155 0.920085830046113 0.4123103359790508
0.017368449305870795 0.7898308779089593 0.49285964143433464
0.100437800459038 0.9046243008396812 0.48013438630157046
0.28183396874926253 0.7982840270686988 0.39518944859139027
0.2125148458697572 0.920085830046113 0.4123103359790508
0.2173684493058708 0.7898308779089593 0.49285964143433464
0.300437800459038 0.9046243008396812 0.48013438630157046
0.4818339687492625 0.7982840270686988 0.39518944859139027
0.4125148458697572 0.920085830046113 0.4123103359790508
0.41736844930587086 0.7898308779089593 0.49285964143433464
0.500437800459038 0.9046243008396812 0.48013438630157046
0.6818339687492625 0.7982840270686988 0.39518944859139027
0.6125148458697572 0.920085830046113 0.4123103359790508
0.6173684493058709 0.7898308779089593 0.49285964143433464
0.700437800459038 0.9046243008396812 0.48013438630157046
0.8818339687492625 0.7982840270686988 0.39518944859139027
0.8125148458697572 0.920085830046113 0.4123103359790508
0.8173684493058708 0.7898308779089593 0.49285964143433464
0.9004378004590381 0.9046243008396812 0.48013438630157046
0.0818339687492625 -0.0017159729313011816 0.5951894485913902
0.012514845869757155 0.12008583004611295 0.6123103359790508
0.017368449305870795 -0.010169122091040685 0.6928596414343346
0.100437800459038 0.10462430083968109 0.6801343863015705
0.28183396874926253 -0.0017159729313011816 0.5951894485913902
0.2125148458697572 0.12008583004611295 0.6123103359790508
0.2173684493058708 -0.010169122091040685 0.6928596414343346
0.300437800459038 0.10462430083968109 0.6801343863015705
0.4818339687492625 -0.0017159729313011816 0.5951894485913902
0.4125148458697572 0.12008583004611295 0.6123103359790508
0.41736844930587086 -0.010169122091040685 0.6928596414343346
0.500437800459038 0.10462430083968109 0.6801343863015705
0.6818339687492625 -0.0017159729313011816 0.5951894485913902
0.6125148458697572 0.12008583004611295 0.6123103359790508
0.6173684493058709 -0.010169122091040685 0.6928596414343346
0.700437800459038 0.10462430083968109 0.6801343863015705
0.8818339687492625 -0.0017159729313011816 0.5951894485913902
0.8125148458697572 0.12008583004611295 0.6123103359790508
0.8173684493058708 -0.010169122091040685 0.6928596414343346
0.9004378004590381 0.10462430083968109 0.6801343863015705
0.0818339687492625 0.19828402706869883 0.5951894485913902
0.012514845869757155 0.32008583004611296 0.6123103359790508
0.017368449305870795 0.18983087790895933 0.6928596414343346
0.100437800459038 0.3046243008396811 0.6801343863015705
0.28183396874926253 0.19828402706869883 0.5951894485913902
0.2125148458697572 0.32008583004611296 0.6123103359790508
0.2173684493058708 0.18983087790895933 0.6928596414343346
0.300437800459038 0.3046243008396811 0.6801343863015705
0.4818339687492625 0.19828402706869883 0.5951894485913902
0.4125148458697572 0.32008583004611296 0.6123103359790508
0.41736844930587086 0.18983087790895933 0.6928596414343346
0.500437800459038 0.3046243008396811 0.6801343863015705
0.6818339687492625 0.19828402706869883 0.5951894485913902
0.6125148458697572 0.32008583004611296 0.6123103359790508
0.6173684493058709 0.18983087790895933 0.6928596414343346
0.700437800459038 0.3046243008396811 0.6801343863015705
0.8818339687492625 0.19828402706869883 0.5951894485913902
0.8125148458697572 0.32008583004611296 0.6123103359790508
0.8173684493058708 0.18983087790895933 0.6928596414343346
0.9004378004590381 0.3046243008396811 0.6801343863015705
0.0818339687492625 0.39828402706869886 0.5951894485913902
0.012514845869757155 0.520085830046113 0.6123103359790508
0.017368449305870795 0.3898308779089593 0.6928596414343346
0.100437800459038 0.5046243008396811 0.6801343863015705
0.28183396874926253 0.39828402706869886 0.5951894485913902
0.2125148458697572 0.520085830046113 0.6123103359790508
0.2173684493058708 0.3898308779089593 0.6928596414343346
0.300437800459038 0.5046243008396811 0.6801343863015705
0.4818339687492625 0.39828402706869886 0.5951894485913902
0.4125148458697572 0.520085830046113 0.6123103359790508
0.41736844930587086 0.3898308779089593 0.6928596414343346
0.500437800459038 0.5046243008396811 0.6801343863015705
0.6818339687492625 0.39828402706869886 0.5951894485913902
0.6125148458697572 0.520085830046113 0.6123103359790508
0.6173684493058709 0.3898308779089593 0.6928596414343346
0.700437800459038 0.5046243008396811 0.6801343863015705
0.8818339687492625 0.39828402706869886 0.5951894485913902
0.8125148458697572 0.520085830046113 0.6123103359790508
0.8173684493058708 0.3898308779089593 0.6928596414343346
0.9004378004590381 0.5046243008396811 0.6801343863015705
0.0818339687492625 0.5982840270686988 0.5951894485913902
0.012514845869757155 0.720085830046113 0.6123103359790508
0.017368449305870795 0.5898308779089593 0.6928596414343346
0.100437800459038 0.7046243008396811 0.6801343863015705
0.28183396874926253 0.5982840270686988 0.5951894485913902
0.2125148458697572 0.720085830046113 0.6123103359790508
0.2173684493058708 0.5898308779089593 0.6928596414343346
0.300437800459038 0.7046243008396811 0.6801343863015705
0.4818339687492625 0.5982840270686988 0.5951894485913902
0.4125148458697572 0.720085830046113 0.6123103359790508
0.41736844930587086 0.5898308779089593 0.6928596414343346
0.500437800459038 0.7046243008396811 0.6801343863015705
0.6818339687492625 0.5982840270686988 0.5951894485913902
0.6125148458697572 0.720085830046113 0.6123103359790508
0.6173684493058709 0.5898308779089593 0.6928596414343346
0.700437800459038 0.7046243008396811 0.6801343863015705
0.8818339687492625 0.5982840270686988 0.5951894485913902
0.8125148458697572 0.720085830046113 0.6123103359790508
0.8173684493058708 0.5898308779089593 0.6928596414343346
0.9004378004590381 0.7046243008396811 0.6801343863015705
0.0818339687492625 0.7982840270686988 0.5951894485913902
0.012514845869757155 0.920085830046113 0.6123103359790508
0.017368449305870795 0.7898308779089593 0.6928596414343346
0.100437800459038 0.9046243008396812 0.6801343863015705
0.28183396874926253 0.7982840270686988 0.5951894485913902
0.2125148458697572 0.920085830046113 0.6123103359790508
0.2173684493058708 0.7898308779089593 0.6928596414343346
0.300437800459038 0.9046243008396812 0.6801343863015705
0.4818339687492625 0.7982840270686988 0.5951894485913902
0.4125148458697572 0.920085830046113 0.6123103359790508
0.41736844930587086 0.7898308779089593 0.6928596414343346
0.500437800459038 0.9046243008396812 0.6801343863015705
0.6818339687492625 0.7982840270686988 0.5951894485913902
0.6125148458697572 0.920085830046113 0.6123103359790508
0.6173684493058709 0.7898308779089593 0.6928596414343346
0.700437800459038 0.9046243008396812 0.6801343863015705
0.8818339687492625 0.7982840270686988 0.5951894485913902
0.8125148458697572 0.920085830046113 0.6123103359790508
0.8173684493058708 0.7898308779089593 0.6928596414343346
0.9004378004590381 0.9046243008396812 0.6801343863015705
0.0818339687492625 -0.0017159729313011816 0.7951894485913903
0.012514845869757155 0.12008583004611295 0.8123103359790508
0.017368449305870795 -0.010169122091040685 0.8928596414343346
0.100437800459038 0.10462430083968109 0.8801343863015705
0.28183396874926253 -0.0017159729313011816 0.7951894485913903
0.2125148458697572 0.12008583004611295 0.8123103359790508
0.2173684493058708 -0.010169122091040685 0.8928596414343346
0.300437800459038 0.10462430083968109 0.8801343863015705
0.4818339687492625 -0.0017159729313011816 0.7951894485913903
0.4125148458697572 0.12008583004611295 0.8123103359790508
0.41736844930587086 -0.010169122091040685 0.8928596414343346
0.500437800459038 0.10462430083968109 0.8801343863015705
0.6818339687492625 -0.0017159729313011816 0.7951894485913903
0.6125148458697572 0.12008583004611295 0.8123103359790508
0.6173684493058709 -0.010169122091040685 0.8928596414343346
0.700437800459038 0.10462430083968109 0.8801343863015705
0.8818339687492625 -0.0017159729313011816 0.7951894485913903
0.8125148458697572 0.12008583004611295 0.8123103359790508
0.8173684493058708 -0.010169122091040685 0.8928596414343346
0.9004378004590381 0.10462430083968109 0.8801343863015705
0.0818339687492625 0.19828402706869883 0.7951894485913903
0.012514845869757155 0.32008583004611296 0.8123103359790508
0.017368449305870795 0.18983087790895933 0.8928596414343346
0.100437800459038 0.3046243008396811 0.8801343863015705
0.28183396874926253 0.19828402706869883 0.7951894485913903
0.2125148458697572 0.32008583004611296 0.8123103359790508
0.2173684493058708 0.18983087790895933 0.8928596414343346
0.300437800459038 0.3046243008396811 0.8801343863015705
0.4818339687492625 0.19828402706869883 0.7951894485913903
0.4125148458697572 0.32008583004611296 0.8123103359790508
0.41736844930587086 0.18983087790895933 0.8928596414343346
0.500437800459038 0.3046243008396811 0.8801343863015705
0.6818339687492625 0.19828402706869883 0.7951894485913903
0.6125148458697572 0.32008583004611296 0.8123103359790508
0.6173684493058709 0.18983087790895933 0.8928596414343346
0.700437800459038 0.3046243008396811 0.8801343863015705
0.8818339687492625 0.19828402706869883 0.7951894485913903
0.8125148458697572 0.32008583004611296 0.8123103359790508
0.8173684493058708 0.18983087790895933 0.8928596414343346
0.9004378004590381 0.3046243008396811 0.8801343863015705
0.0818339687492625 0.39828402706869886 0.7951894485913903
0.012514845869757155 0.520085830046113 0.8123103359790508
0.017368449305870795 0.3898308779089593 0.8928596414343346
0.100437800459038 0.5046243008396811 0.8801343863015705
0.28183396874926253 0.39828402706869886 0.7951894485913903
0.2125148458697572 0.520085830046113 0.8123103359790508
0.2173684493058708 0.3898308779089593 0.8928596414343346
0.300437800459038 0.5046243008396811 0.8801343863015705
0.4818339687492625 0.39828402706869886 0.7951894485913903
0.4125148458697572 0.520085830046113 0.8123103359790508
0.41736844930587086 0.3898308779089593 0.8928596414343346
0.500437800459038 0.5046243008396811 0.8801343863015705
0.6818339687492625 0.39828402706869886 0.7951894485913903
0.6125148458697572 0.520085830046113 0.8123103359790508
0.6173684493058709 0.3898308779089593 0.8928596414343346
0.700437800459038 0.5046243008396811 0.8801343863015705
0.8818339687492625 0.39828402706869886 0.7951894485913903
0.8125148458697572 0.520085830046113 0.8123103359790508
0.8173684493058708 0.3898308779089593 0.8928596414343346
0.9004378004590381 0.5046243008396811 0.8801343863015705
0.0818339687492625 0.5982840270686988 0.7951894485913903
0.012514845869757155 0.720085830046113 0.8123103359790508
0.017368449305870795 0.5898308779089593 0.8928596414343346
0.100437800459038 0.7046243008396811 0.8801343863015705
0.28183396874926253 0.5982840270686988 0.7951894485913903
0.2125148458697572 0.720085830046113 0.8123103359790508
0.2173684493058708 0.5898308779089593 0.8928596414343346
0.300437800459038 0.7046243008396811 0.8801343863015705
0.4818339687492625 0.5982840270686988 0.7951894485913903
0.4125148458697572 0.720085830046113 0.8123103359790508
0.41736844930587086 0.5898308779089593 0.8928596414343346
0.500437800459038 0.7046243008396811 0.8801343863015705
0.6818339687492625 0.5982840270686988 0.7951894485913903
0.6125148458697572 0.720085830046113 0.8123103359790508
0.6173684493058709 0.5898308779089593 0.8928596414343346
0.700437800459038 0.7046243008396811 0.8801343863015705
0.8818339687492625 0.5982840270686988 0.7951894485913903
0.8125148458697572 0.720085830046113 0.8123103359790508
0.8173684493058708 0.5898308779089593 0.8928596414343346
0.9004378004590381 0.7046243008396811 0.8801343863015705
0.0818339687492625 0.7982840270686988 0.7951894485913903
0.012514845869757155 0.920085830046113 0.8123103359790508
0.017368449305870795 0.7898308779089593 0.8928596414343346
0.100437800459038 0.9046243008396812 0.8801343863015705
0.28183396874926253 0.7982840270686988 0.7951894485913903
0.2125148458697572 0.920085830046113 0.8123103359790508
0.2173684493058708 0.7898308779089593 0.8928596414343346
0.300437800459038 0.9046243008396812 0.8801343863015705
0.4818339687492625 0.7982840270686988 0.7951894485913903
0.4125148458697572 0.920085830046113 0.8123103359790508
0.41736844930587086 0.7898308779089593 0.8928596414343346
0.500437800459038 0.9046243008396812 0.8801343863015705
0.6818339687492625 0.7982840270686988 0.7951894485913903
0.6125148458697572 0.920085830046113 0.8123103359790508
0.6173684493058709 0.7898308779089593 0.8928596414343346
0.700437800459038 0.9046243008396812 0.8801343863015705
0.8818339687492625 0.7982840270686988 0.7951894485913903
0.8125148458697572 0.920085830046113 0.8123103359790508
0.8173684493058708 0.7898308779089593 0.8928596414343346
0.9004378004590381 0.9046243008396812 0.8801343863015705
