FCC BaO
5.61604
3.0 0.0 0.0
0.0 3.0 0.0
0.0 0.0 3.0
Ba O 
108 108 
Direct
0.7262759565381129 0.459913654838191 0.07919651427198215
0.2962292542432167 -0.6327975550768739 -0.22413686926728463
0.599358502294933 -0.0727264093087578 -0.12303413001254096
-0.1601823486740982 0.0879811817878903 -0.5585368665472643
1.0596092898714462 0.459913654838191 0.07919651427198215
0.62956258757655 -0.6327975550768739 -0.22413686926728463
0.9326918356282664 -0.0727264093087578 -0.12303413001254096
0.17315098465923512 0.0879811817878903 -0.5585368665472643
1.3929426232047795 0.459913654838191 0.07919651427198215
0.9628959209098833 -0.6327975550768739 -0.22413686926728463
1.2660251689615998 -0.0727264093087578 -0.12303413001254096
0.5064843179925684 0.0879811817878903 -0.5585368665472643
0.7262759565381129 0.7932469881715243 0.07919651427198215
0.2962292542432167 -0.2994642217435405 -0.22413686926728463
0.599358502294933 0.2606069240245755 -0.12303413001254096
-0.1601823486740982 0.42131451512122364 -0.5585368665472643
1.0596092898714462 0.7932469881715243 0.07919651427198215
0.62956258757655 -0.2994642217435405 -0.22413686926728463
0.9326918356282664 0.2606069240245755 -0.12303413001254096
0.17315098465923512 0.42131451512122364 -0.5585368665472643
1.3929426232047795 0.7932469881715243 0.07919651427198215
0.9628959209098833 -0.2994642217435405 -0.22413686926728463
1.2660251689615998 0.2606069240245755 -0.12303413001254096
0.5064843179925684 0.42131451512122364 -0.5585368665472643
0.7262759565381129 1.1265803215048575 0.07919651427198215
0.2962292542432167 0.03386911158979281 -0.22413686926728463
0.599358502294933 0.5939402573579088 -0.12303413001254096
-0.1601823486740982 0.7546478484545569 -0.5585368665472643
1.0596092898714462 1.1265803215048575 0.07919651427198215
0.62956258757655 0.03386911158979281 -0.22413686926728463
0.9326918356282664 0.5939402573579088 -0.12303413001254096
0.17315098465923512 0.7546478484545569 -0.5585368665472643
1.3929426232047795 1.1265803215048575 0.07919651427198215
0.9628959209098833 0.03386911158979281 -0.22413686926728463
1.2660251689615998 0.5939402573579088 -0.12303413001254096
0.5064843179925684 0.7546478484545569 -0.5585368665472643
0.7262759565381129 0.459913654838191 0.41252984760531547
0.2962292542432167 -0.6327975550768739 0.10919646406604869
0.599358502294933 -0.0727264093087578 0.21029920332079236
-0.1601823486740982 0.0879811817878903 -0.22520353321393097
1.0596092898714462 0.459913654838191 0.41252984760531547
0.62956258757655 -0.6327975550768739 0.10919646406604869
0.9326918356282664 -0.0727264093087578 0.21029920332079236
0.17315098465923512 0.0879811817878903 -0.22520353321393097
1.3929426232047795 0.459913654838191 0.41252984760531547
0.9628959209098833 -0.6327975550768739 0.10919646406604869
1.2660251689615998 -0.0727264093087578 0.21029920332079236
0.5064843179925684 0.0879811817878903 -0.22520353321393097
0.7262759565381129 0.7932469881715243 0.41252984760531547
0.2962292542432167 -0.2994642217435405 0.10919646406604869
0.599358502294933 0.2606069240245755 0.21029920332079236
-0.1601823486740982 0.42131451512122364 -0.22520353321393097
1.0596092898714462 0.7932469881715243 0.41252984760531547
0.62956258757655 -0.2994642217435405 0.10919646406604869
0.9326918356282664 0.2606069240245755 0.21029920332079236
0.17315098465923512 0.42131451512122364 -0.22520353321393097
1.3929426232047795 0.7932469881715243 0.41252984760531547
0.9628959209098833 -0.2994642217435405 0.10919646406604869
1.2660251689615998 0.2606069240245755 0.21029920332079236
0.5064843179925684 0.42131451512122364 -0.22520353321393097
0.7262759565381129 1.1265803215048575 0.41252984760531547
0.2962292542432167 0.03386911158979281 0.10919646406604869
0.599358502294933 0.5939402573579088 0.21029920332079236
-0.1601823486740982 0.7546478484545569 -0.22520353321393097
1.0596092898714462 1.1265803215048575 0.41252984760531547
0.62956258757655 0.03386911158979281 0.10919646406604869
0.9326918356282664 0.5939402573579088 0.21029920332079236
0.17315098465923512 0.7546478484545569 -0.22520353321393097
1.3929426232047795 1.1265803215048575 0.41252984760531547
0.9628959209098833 0.03386911158979281 0.10919646406604869
1.2660251689615998 0.5939402573579088 0.21029920332079236
0.5064843179925684 0.7546478484545569 -0.22520353321393097
0.7262759565381129 0.459913654838191 0.7458631809386489
0.2962292542432167 -0.6327975550768739 0.44252979739938203
0.599358502294933 -0.0727264093087578 0.5436325366541257
-0.1601823486740982 0.0879811817878903 0.10812980011940235
1.0596092898714462 0.459913654838191 0.7458631809386489
0.62956258757655 -0.6327975550768739 0.44252979739938203
0.9326918356282664 -0.0727264093087578 0.5436325366541257
0.17315098465923512 0.0879811817878903 0.10812980011940235
1.3929426232047795 0.459913654838191 0.7458631809386489
0.9628959209098833 -0.6327975550768739 0.44252979739938203
1.2660251689615998 -0.0727264093087578 0.5436325366541257
0.5064843179925684 0.0879811817878903 0.10812980011940235
0.7262759565381129 0.7932469881715243 0.7458631809386489
0.2962292542432167 -0.2994642217435405 0.44252979739938203
0.599358502294933 0.2606069240245755 0.5436325366541257
-0.1601823486740982 0.42131451512122364 0.10812980011940235
1.0596092898714462 0.7932469881715243 0.7458631809386489
0.62956258757655 -0.2994642217435405 0.44252979739938203
0.9326918356282664 0.2606069240245755 0.5436325366541257
0.17315098465923512 0.42131451512122364 0.10812980011940235
1.3929426232047795 0.7932469881715243 0.7458631809386489
0.9628959209098833 -0.2994642217435405 0.44252979739938203
1.2660251689615998 0.2606069240245755 0.5436325366541257
0.5064843179925684 0.42131451512122364 0.10812980011940235
0.7262759565381129 1.1265803215048575 0.7458631809386489
0.2962292542432167 0.03386911158979281 0.44252979739938203
0.599358502294933 0.5939402573579088 0.5436325366541257
-0.1601823486740982 0.7546478484545569 0.10812980011940235
1.0596092898714462 1.1265803215048575 0.7458631809386489
0.62956258757655 0.03386911158979281 0.44252979739938203
0.9326918356282664 0.5939402573579088 0.5436325366541257
0.17315098465923512 0.7546478484545569 0.10812980011940235
1.3929426232047795 1.1265803215048575 0.7458631809386489
0.9628959209098833 0.03386911158979281 0.44252979739938203
1.2660251689615998 0.5939402573579088 0.5436325366541257
0.5064843179925684 0.7546478484545569 0.10812980011940235
-0.11448675034964675 -0.47232806072243383 -0.17190514268389082
-0.12956105945620314 -0.11147223397193665 -0.09121225857671013
-0.028949556520469606 -0.11469985690726872 0.03179105836501581
0.2883622840390693 0.9647904284756434 0.27692156447856897
0.21884658298368656 -0.47232806072243383 -0.17190514268389082
0.20377227387713018 -0.11147223397193665 -0.09121225857671013
0.3043837768128637 -0.11469985690726872 0.03179105836501581
0.6216956173724026 0.9647904284756434 0.27692156447856897
0.5521799163170199 -0.47232806072243383 -0.17190514268389082
0.5371056072104634 -0.11147223397193665 -0.09121225857671013
0.637717110146197 -0.11469985690726872 0.03179105836501581
0.955028950705736 0.9647904284756434 0.27692156447856897
-0.11448675034964675 -0.1389947273891005 -0.17190514268389082
-0.12956105945620314 0.22186109936139667 -0.09121225857671013
-0.028949556520469606 0.2186334764260646 0.03179105836501581
0.2883622840390693 1.2981237618089767 0.27692156447856897
0.21884658298368656 -0.1389947273891005 -0.17190514268389082
0.20377227387713018 0.22186109936139667 -0.09121225857671013
0.3043837768128637 0.2186334764260646 0.03179105836501581
0.6216956173724026 1.2981237618089767 0.27692156447856897
0.5521799163170199 -0.1389947273891005 -0.17190514268389082
0.5371056072104634 0.22186109936139667 -0.09121225857671013
0.637717110146197 0.2186334764260646 0.03179105836501581
0.955028950705736 1.2981237618089767 0.27692156447856897
-0.11448675034964675 0.19433860594423283 -0.17190514268389082
-0.12956105945620314 0.55519443269473 -0.09121225857671013
-0.028949556520469606 0.5519668097593979 0.03179105836501581
0.2883622840390693 1.6314570951423102 0.27692156447856897
0.21884658298368656 0.19433860594423283 -0.17190514268389082
0.20377227387713018 0.55519443269473 -0.09121225857671013
0.3043837768128637 0.5519668097593979 0.03179105836501581
0.6216956173724026 1.6314570951423102 0.27692156447856897
0.5521799163170199 0.19433860594423283 -0.17190514268389082
0.5371056072104634 0.55519443269473 -0.09121225857671013
0.637717110146197 0.5519668097593979 0.03179105836501581
0.955028950705736 1.6314570951423102 0.27692156447856897
-0.11448675034964675 -0.47232806072243383 0.1614281906494425
-0.12956105945620314 -0.11147223397193665 0.2421210747566232
-0.028949556520469606 -0.11469985690726872 0.36512439169834915
0.2883622840390693 0.9647904284756434 0.6102548978119022
0.21884658298368656 -0.47232806072243383 0.1614281906494425
0.20377227387713018 -0.11147223397193665 0.2421210747566232
0.3043837768128637 -0.11469985690726872 0.36512439169834915
0.6216956173724026 0.9647904284756434 0.6102548978119022
0.5521799163170199 -0.47232806072243383 0.1614281906494425
0.5371056072104634 -0.11147223397193665 0.2421210747566232
0.637717110146197 -0.11469985690726872 0.36512439169834915
0.955028950705736 0.9647904284756434 0.6102548978119022
-0.11448675034964675 -0.1389947273891005 0.1614281906494425
-0.12956105945620314 0.22186109936139667 0.2421210747566232
-0.028949556520469606 0.2186334764260646 0.36512439169834915
0.2883622840390693 1.2981237618089767 0.6102548978119022
0.21884658298368656 -0.1389947273891005 0.1614281906494425
0.20377227387713018 0.22186109936139667 0.2421210747566232
0.3043837768128637 0.2186334764260646 0.36512439169834915
0.6216956173724026 1.2981237618089767 0.6102548978119022
0.5521799163170199 -0.1389947273891005 0.1614281906494425
0.5371056072104634 0.22186109936139667 0.2421210747566232
0.637717110146197 0.2186334764260646 0.36512439169834915
0.955028950705736 1.2981237618089767 0.6102548978119022
-0.11448675034964675 0.19433860594423283 0.1614281906494425
-0.12956105945620314 0.55519443269473 0.2421210747566232
-0.028949556520469606 0.5519668097593979 0.36512439169834915
0.2883622840390693 1.6314570951423102 0.6102548978119022
0.21884658298368656 0.19433860594423283 0.1614281906494425
0.20377227387713018 0.55519443269473 0.2421210747566232
0.3043837768128637 0.5519668097593979 0.36512439169834915
0.6216956173724026 1.6314570951423102 0.6102548978119022
0.5521799163170199 0.19433860594423283 0.1614281906494425
0.5371056072104634 0.55519443269473 0.2421210747566232
0.637717110146197 0.5519668097593979 0.36512439169834915
0.955028950705736 1.6314570951423102 0.6102548978119022
-0.11448675034964675 -0.47232806072243383 0.49476152398277584
-0.12956105945620314 -0.11147223397193665 0.5754544080899565
-0.028949556520469606 -0.11469985690726872 0.6984577250316824
0.2883622840390693 0.9647904284756434 0.9435882311452356
0.21884658298368656 -0.47232806072243383 0.49476152398277584
0.20377227387713018 -0.11147223397193665 0.5754544080899565
0.3043837768128637 -0.11469985690726872 0.6984577250316824
0.6216956173724026 0.9647904284756434 0.9435882311452356
0.5521799163170199 -0.47232806072243383 0.49476152398277584
0.5371056072104634 -0.11147223397193665 0.5754544080899565
0.637717110146197 -0.11469985690726872 0.6984577250316824
0.955028950705736 0.9647904284756434 0.9435882311452356
-0.11448675034964675 -0.1389947273891005 0.49476152398277584
-0.12956105945620314 0.22186109936139667 0.5754544080899565
-0.028949556520469606 0.2186334764260646 0.6984577250316824
0.2883622840390693 1.2981237618089767 0.9435882311452356
0.21884658298368656 -0.1389947273891005 0.49476152398277584
0.20377227387713018 0.22186109936139667 0.5754544080899565
0.3043837768128637 0.2186334764260646 0.6984577250316824
0.6216956173724026 1.2981237618089767 0.9435882311452356
0.5521799163170199 -0.1389947273891005 0.49476152398277584
0.5371056072104634 0.22186109936139667 0.5754544080899565
0.637717110146197 0.2186334764260646 0.6984577250316824
0.955028950705736 1.2981237618089767 0.9435882311452356
-0.11448675034964675 0.19433860594423283 0.49476152398277584
-0.12956105945620314 0.55519443269473 0.5754544080899565
-0.028949556520469606 0.5519668097593979 0.6984577250316824
0.2883622840390693 1.6314570951423102 0.9435882311452356
0.21884658298368656 0.19433860594423283 0.49476152398277584
0.20377227387713018 0.55519443269473 0.5754544080899565
0.3043837768128637 0.5519668097593979 0.6984577250316824
0.6216956173724026 1.6314570951423102 0.9435882311452356
0.5521799163170199 0.19433860594423283 0.49476152398277584
0.5371056072104634 0.55519443269473 0.5754544080899565
0.637717110146197 0.5519668097593979 0.6984577250316824
0.955028950705736 1.6314570951423102 0.9435882311452356
