FCC BaO
3.971
5.0 0.0 0.0
0.0 5.0 0.0
0.0 0.0 5.0
Ba O 
500 500 
Direct
-0.00580827531317956 0.025246823782119433 0.027092645318559695
0.027792740268009677 0.1128809335527341 0.0921907854981428
0.10251875130524715 -0.02216829163939007 0.11652640650790735
0.07228542284818536 0.09642839906204903 0.026913810351796765
0.19419172468682044 0.025246823782119433 0.027092645318559695
0.2277927402680097 0.1128809335527341 0.0921907854981428
0.3025187513052472 -0.02216829163939007 0.11652640650790735
0.2722854228481854 0.09642839906204903 0.026913810351796765
0.39419172468682045 0.025246823782119433 0.027092645318559695
0.4277927402680097 0.1128809335527341 0.0921907854981428
0.5025187513052471 -0.02216829163939007 0.11652640650790735
0.4722854228481854 0.09642839906204903 0.026913810351796765
0.5941917246868205 0.025246823782119433 0.027092645318559695
0.6277927402680097 0.1128809335527341 0.0921907854981428
0.7025187513052472 -0.02216829163939007 0.11652640650790735
0.6722854228481854 0.09642839906204903 0.026913810351796765
0.7941917246868204 0.025246823782119433 0.027092645318559695
0.8277927402680098 0.1128809335527341 0.0921907854981428
0.9025187513052473 -0.02216829163939007 0.11652640650790735
0.8722854228481854 0.09642839906204903 0.026913810351796765
-0.00580827531317956 0.22524682378211944 0.027092645318559695
0.027792740268009677 0.3128809335527341 0.0921907854981428
0.10251875130524715 0.17783170836060994 0.11652640650790735
0.07228542284818536 0.29642839906204904 0.026913810351796765
0.19419172468682044 0.22524682378211944 0.027092645318559695
0.2277927402680097 0.3128809335527341 0.0921907854981428
0.3025187513052472 0.17783170836060994 0.11652640650790735
0.2722854228481854 0.29642839906204904 0.026913810351796765
0.39419172468682045 0.22524682378211944 0.027092645318559695
0.4277927402680097 0.3128809335527341 0.0921907854981428
0.5025187513052471 0.17783170836060994 0.11652640650790735
0.4722854228481854 0.29642839906204904 0.026913810351796765
0.5941917246868205 0.22524682378211944 0.027092645318559695
0.6277927402680097 0.3128809335527341 0.0921907854981428
0.7025187513052472 0.17783170836060994 0.11652640650790735
0.6722854228481854 0.29642839906204904 0.026913810351796765
0.7941917246868204 0.22524682378211944 0.027092645318559695
0.8277927402680098 0.3128809335527341 0.0921907854981428
0.9025187513052473 0.17783170836060994 0.11652640650790735
0.8722854228481854 0.29642839906204904 0.026913810351796765
-0.00580827531317956 0.4252468237821194 0.027092645318559695
0.027792740268009677 0.5128809335527341 0.0921907854981428
0.10251875130524715 0.37783170836061 0.11652640650790735
0.07228542284818536 0.49642839906204905 0.026913810351796765
0.19419172468682044 0.4252468237821194 0.027092645318559695
0.2277927402680097 0.5128809335527341 0.0921907854981428
0.3025187513052472 0.37783170836061 0.11652640650790735
0.2722854228481854 0.49642839906204905 0.026913810351796765
0.39419172468682045 0.4252468237821194 0.027092645318559695
0.4277927402680097 0.5128809335527341 0.0921907854981428
0.5025187513052471 0.37783170836061 0.11652640650790735
0.4722854228481854 0.49642839906204905 0.026913810351796765
0.5941917246868205 0.4252468237821194 0.027092645318559695
0.6277927402680097 0.5128809335527341 0.0921907854981428
0.7025187513052472 0.37783170836061 0.11652640650790735
0.6722854228481854 0.49642839906204905 0.026913810351796765
0.7941917246868204 0.4252468237821194 0.027092645318559695
0.8277927402680098 0.5128809335527341 0.0921907854981428
0.9025187513052473 0.37783170836061 0.11652640650790735
0.8722854228481854 0.49642839906204905 0.026913810351796765
-0.00580827531317956 0.6252468237821195 0.027092645318559695
0.027792740268009677 0.7128809335527342 0.0921907854981428
0.10251875130524715 0.5778317083606099 0.11652640650790735
0.07228542284818536 0.6964283990620491 0.026913810351796765
0.19419172468682044 0.6252468237821195 0.027092645318559695
0.2277927402680097 0.7128809335527342 0.0921907854981428
0.3025187513052472 0.5778317083606099 0.11652640650790735
0.2722854228481854 0.6964283990620491 0.026913810351796765
0.39419172468682045 0.6252468237821195 0.027092645318559695
0.4277927402680097 0.7128809335527342 0.0921907854981428
0.5025187513052471 0.5778317083606099 0.11652640650790735
0.4722854228481854 0.6964283990620491 0.026913810351796765
0.5941917246868205 0.6252468237821195 0.027092645318559695
0.6277927402680097 0.7128809335527342 0.0921907854981428
0.7025187513052472 0.5778317083606099 0.11652640650790735
0.6722854228481854 0.6964283990620491 0.026913810351796765
0.7941917246868204 0.6252468237821195 0.027092645318559695
0.8277927402680098 0.7128809335527342 0.0921907854981428
0.9025187513052473 0.5778317083606099 0.11652640650790735
0.8722854228481854 0.6964283990620491 0.026913810351796765
-0.00580827531317956 0.8252468237821194 0.027092645318559695
0.027792740268009677 0.9128809335527341 0.0921907854981428
0.10251875130524715 0.77783170836061 0.11652640650790735
0.07228542284818536 0.8964283990620491 0.026913810351796765
0.19419172468682044 0.8252468237821194 0.027092645318559695
0.2277927402680097 0.9128809335527341 0.0921907854981428
0.3025187513052472 0.77783170836061 0.11652640650790735
0.2722854228481854 0.8964283990620491 0.026913810351796765
0.39419172468682045 0.8252468237821194 0.027092645318559695
0.4277927402680097 0.9128809335527341 0.0921907854981428
0.5025187513052471 0.77783170836061 0.11652640650790735
0.4722854228481854 0.8964283990620491 0.026913810351796765
0.5941917246868205 0.8252468237821194 0.027092645318559695
0.6277927402680097 0.9128809335527341 0.0921907854981428
0.7025187513052472 0.77783170836061 0.11652640650790735
0.6722854228481854 0.8964283990620491 0.026913810351796765
0.7941917246868204 0.8252468237821194 0.027092645318559695
0.8277927402680098 0.9128809335527341 0.0921907854981428
0.9025187513052473 0.77783170836061 0.11652640650790735
0.8722854228481854 0.8964283990620491 0.026913810351796765
-0.00580827531317956 0.025246823782119433 0.2270926453185597
0.027792740268009677 0.1128809335527341 0.2921907854981428
0.10251875130524715 -0.02216829163939007 0.31652640650790737
0.07228542284818536 0.09642839906204903 0.22691381035179675
0.19419172468682044 0.025246823782119433 0.2270926453185597
0.2277927402680097 0.1128809335527341 0.2921907854981428
0.3025187513052472 -0.02216829163939007 0.31652640650790737
0.2722854228481854 0.09642839906204903 0.22691381035179675
0.39419172468682045 0.025246823782119433 0.2270926453185597
0.4277927402680097 0.1128809335527341 0.2921907854981428
0.5025187513052471 -0.02216829163939007 0.31652640650790737
0.4722854228481854 0.09642839906204903 0.22691381035179675
0.5941917246868205 0.025246823782119433 0.2270926453185597
0.6277927402680097 0.1128809335527341 0.2921907854981428
0.7025187513052472 -0.02216829163939007 0.31652640650790737
0.6722854228481854 0.09642839906204903 0.22691381035179675
0.7941917246868204 0.025246823782119433 0.2270926453185597
0.8277927402680098 0.1128809335527341 0.2921907854981428
0.9025187513052473 -0.02216829163939007 0.31652640650790737
0.8722854228481854 0.09642839906204903 0.22691381035179675
-0.00580827531317956 0.22524682378211944 0.2270926453185597
0.027792740268009677 0.3128809335527341 0.2921907854981428
0.10251875130524715 0.17783170836060994 0.31652640650790737
0.07228542284818536 0.29642839906204904 0.22691381035179675
0.19419172468682044 0.22524682378211944 0.2270926453185597
0.2277927402680097 0.3128809335527341 0.2921907854981428
0.3025187513052472 0.17783170836060994 0.31652640650790737
0.2722854228481854 0.29642839906204904 0.22691381035179675
0.39419172468682045 0.22524682378211944 0.2270926453185597
0.4277927402680097 0.3128809335527341 0.2921907854981428
0.5025187513052471 0.17783170836060994 0.31652640650790737
0.4722854228481854 0.29642839906204904 0.22691381035179675
0.5941917246868205 0.22524682378211944 0.2270926453185597
0.6277927402680097 0.3128809335527341 0.2921907854981428
0.7025187513052472 0.17783170836060994 0.31652640650790737
0.6722854228481854 0.29642839906204904 0.22691381035179675
0.7941917246868204 0.22524682378211944 0.2270926453185597
0.8277927402680098 0.3128809335527341 0.2921907854981428
0.9025187513052473 0.17783170836060994 0.31652640650790737
0.8722854228481854 0.29642839906204904 0.22691381035179675
-0.00580827531317956 0.4252468237821194 0.2270926453185597
0.027792740268009677 0.5128809335527341 0.2921907854981428
0.10251875130524715 0.37783170836061 0.31652640650790737
0.07228542284818536 0.49642839906204905 0.22691381035179675
0.19419172468682044 0.4252468237821194 0.2270926453185597
0.2277927402680097 0.5128809335527341 0.2921907854981428
0.3025187513052472 0.37783170836061 0.31652640650790737
0.2722854228481854 0.49642839906204905 0.22691381035179675
0.39419172468682045 0.4252468237821194 0.2270926453185597
0.4277927402680097 0.5128809335527341 0.2921907854981428
0.5025187513052471 0.37783170836061 0.31652640650790737
0.4722854228481854 0.49642839906204905 0.22691381035179675
0.5941917246868205 0.4252468237821194 0.2270926453185597
0.6277927402680097 0.5128809335527341 0.2921907854981428
0.7025187513052472 0.37783170836061 0.31652640650790737
0.6722854228481854 0.49642839906204905 0.22691381035179675
0.7941917246868204 0.4252468237821194 0.2270926453185597
0.8277927402680098 0.5128809335527341 0.2921907854981428
0.9025187513052473 0.37783170836061 0.31652640650790737
0.8722854228481854 0.49642839906204905 0.22691381035179675
-0.00580827531317956 0.6252468237821195 0.2270926453185597
0.027792740268009677 0.7128809335527342 0.2921907854981428
0.10251875130524715 0.5778317083606099 0.31652640650790737
0.07228542284818536 0.6964283990620491 0.22691381035179675
0.19419172468682044 0.6252468237821195 0.2270926453185597
0.2277927402680097 0.7128809335527342 0.2921907854981428
0.3025187513052472 0.5778317083606099 0.31652640650790737
0.2722854228481854 0.6964283990620491 0.22691381035179675
0.39419172468682045 0.6252468237821195 0.2270926453185597
0.4277927402680097 0.7128809335527342 0.2921907854981428
0.5025187513052471 0.5778317083606099 0.31652640650790737
0.4722854228481854 0.6964283990620491 0.22691381035179675
0.5941917246868205 0.6252468237821195 0.2270926453185597
0.6277927402680097 0.7128809335527342 0.2921907854981428
0.7025187513052472 0.5778317083606099 0.31652640650790737
0.6722854228481854 0.6964283990620491 0.22691381035179675
0.7941917246868204 0.6252468237821195 0.2270926453185597
0.8277927402680098 0.7128809335527342 0.2921907854981428
0.9025187513052473 0.5778317083606099 0.31652640650790737
0.8722854228481854 0.6964283990620491 0.22691381035179675
-0.00580827531317956 0.8252468237821194 0.2270926453185597
0.027792740268009677 0.9128809335527341 0.2921907854981428
0.10251875130524715 0.77783170836061 0.31652640650790737
0.07228542284818536 0.8964283990620491 0.22691381035179675
0.19419172468682044 0.8252468237821194 0.2270926453185597
0.2277927402680097 0.9128809335527341 0.2921907854981428
0.3025187513052472 0.77783170836061 0.31652640650790737
0.2722854228481854 0.8964283990620491 0.22691381035179675
0.39419172468682045 0.8252468237821194 0.2270926453185597
0.4277927402680097 0.9128809335527341 0.2921907854981428
0.5025187513052471 0.77783170836061 0.31652640650790737
0.4722854228481854 0.8964283990620491 0.22691381035179675
0.5941917246868205 0.8252468237821194 0.2270926453185597
0.6277927402680097 0.9128809335527341 0.2921907854981428
0.7025187513052472 0.77783170836061 0.31652640650790737
0.6722854228481854 0.8964283990620491 0.22691381035179675
0.7941917246868204 0.8252468237821194 0.2270926453185597
0.8277927402680098 0.9128809335527341 0.2921907854981428
0.9025187513052473 0.77783170836061 0.31652640650790737
0.8722854228481854 0.8964283990620491 0.22691381035179675
-0.00580827531317956 0.025246823782119433 0.4270926453185597
0.027792740268009677 0.1128809335527341 0.4921907854981428
0.10251875130524715 -0.02216829163939007 0.5165264065079074
0.07228542284818536 0.09642839906204903 0.42691381035179676
0.19419172468682044 0.025246823782119433 0.4270926453185597
0.2277927402680097 0.1128809335527341 0.4921907854981428
0.3025187513052472 -0.02216829163939007 0.5165264065079074
0.2722854228481854 0.09642839906204903 0.42691381035179676
0.39419172468682045 0.025246823782119433 0.4270926453185597
0.4277927402680097 0.1128809335527341 0.4921907854981428
0.5025187513052471 -0.02216829163939007 0.5165264065079074
0.4722854228481854 0.09642839906204903 0.42691381035179676
0.5941917246868205 0.025246823782119433 0.4270926453185597
0.6277927402680097 0.1128809335527341 0.4921907854981428
0.7025187513052472 -0.02216829163939007 0.5165264065079074
0.6722854228481854 0.09642839906204903 0.42691381035179676
0.7941917246868204 0.025246823782119433 0.4270926453185597
0.8277927402680098 0.1128809335527341 0.4921907854981428
0.9025187513052473 -0.02216829163939007 0.5165264065079074
0.8722854228481854 0.09642839906204903 0.42691381035179676
-0.00580827531317956 0.22524682378211944 0.4270926453185597
0.027792740268009677 0.3128809335527341 0.4921907854981428
0.10251875130524715 0.17783170836060994 0.5165264065079074
0.07228542284818536 0.29642839906204904 0.42691381035179676
0.19419172468682044 0.22524682378211944 0.4270926453185597
0.2277927402680097 0.3128809335527341 0.4921907854981428
0.3025187513052472 0.17783170836060994 0.5165264065079074
0.2722854228481854 0.29642839906204904 0.42691381035179676
0.39419172468682045 0.22524682378211944 0.4270926453185597
0.4277927402680097 0.3128809335527341 0.4921907854981428
0.5025187513052471 0.17783170836060994 0.5165264065079074
0.4722854228481854 0.29642839906204904 0.42691381035179676
0.5941917246868205 0.22524682378211944 0.4270926453185597
0.6277927402680097 0.3128809335527341 0.4921907854981428
0.7025187513052472 0.17783170836060994 0.5165264065079074
0.6722854228481854 0.29642839906204904 0.42691381035179676
0.7941917246868204 0.22524682378211944 0.4270926453185597
0.8277927402680098 0.3128809335527341 0.4921907854981428
0.9025187513052473 0.17783170836060994 0.5165264065079074
0.8722854228481854 0.29642839906204904 0.42691381035179676
-0.00580827531317956 0.4252468237821194 0.4270926453185597
0.027792740268009677 0.5128809335527341 0.4921907854981428
0.10251875130524715 0.37783170836061 0.5165264065079074
0.07228542284818536 0.49642839906204905 0.42691381035179676
0.19419172468682044 0.4252468237821194 0.4270926453185597
0.2277927402680097 0.5128809335527341 0.4921907854981428
0.3025187513052472 0.37783170836061 0.5165264065079074
0.2722854228481854 0.49642839906204905 0.42691381035179676
0.39419172468682045 0.4252468237821194 0.4270926453185597
0.4277927402680097 0.5128809335527341 0.4921907854981428
0.5025187513052471 0.37783170836061 0.5165264065079074
0.4722854228481854 0.49642839906204905 0.42691381035179676
0.5941917246868205 0.4252468237821194 0.4270926453185597
0.6277927402680097 0.5128809335527341 0.4921907854981428
0.7025187513052472 0.37783170836061 0.5165264065079074
0.6722854228481854 0.49642839906204905 0.42691381035179676
0.7941917246868204 0.4252468237821194 0.4270926453185597
0.8277927402680098 0.5128809335527341 0.4921907854981428
0.9025187513052473 0.37783170836061 0.5165264065079074
0.8722854228481854 0.49642839906204905 0.42691381035179676
-0.00580827531317956 0.6252468237821195 0.4270926453185597
0.027792740268009677 0.7128809335527342 0.4921907854981428
0.10251875130524715 0.5778317083606099 0.5165264065079074
0.07228542284818536 0.6964283990620491 0.42691381035179676
0.19419172468682044 0.6252468237821195 0.4270926453185597
0.2277927402680097 0.7128809335527342 0.4921907854981428
0.3025187513052472 0.5778317083606099 0.5165264065079074
0.2722854228481854 0.6964283990620491 0.42691381035179676
0.39419172468682045 0.6252468237821195 0.4270926453185597
0.4277927402680097 0.7128809335527342 0.4921907854981428
0.5025187513052471 0.5778317083606099 0.5165264065079074
0.4722854228481854 0.6964283990620491 0.42691381035179676
0.5941917246868205 0.6252468237821195 0.4270926453185597
0.6277927402680097 0.7128809335527342 0.4921907854981428
0.7025187513052472 0.5778317083606099 0.5165264065079074
0.6722854228481854 0.6964283990620491 0.42691381035179676
0.7941917246868204 0.6252468237821195 0.4270926453185597
0.8277927402680098 0.7128809335527342 0.4921907854981428
0.9025187513052473 0.5778317083606099 0.5165264065079074
0.8722854228481854 0.6964283990620491 0.42691381035179676
-0.00580827531317956 0.8252468237821194 0.4270926453185597
0.027792740268009677 0.9128809335527341 0.4921907854981428
0.10251875130524715 0.77783170836061 0.5165264065079074
0.07228542284818536 0.8964283990620491 0.42691381035179676
0.19419172468682044 0.8252468237821194 0.4270926453185597
0.2277927402680097 0.9128809335527341 0.4921907854981428
0.3025187513052472 0.77783170836061 0.5165264065079074
0.2722854228481854 0.8964283990620491 0.42691381035179676
0.39419172468682045 0.8252468237821194 0.4270926453185597
0.4277927402680097 0.9128809335527341 0.4921907854981428
0.5025187513052471 0.77783170836061 0.5165264065079074
0.4722854228481854 0.8964283990620491 0.42691381035179676
0.5941917246868205 0.8252468237821194 0.4270926453185597
0.6277927402680097 0.9128809335527341 0.4921907854981428
0.7025187513052472 0.77783170836061 0.5165264065079074
0.6722854228481854 0.8964283990620491 0.42691381035179676
0.7941917246868204 0.8252468237821194 0.4270926453185597
0.8277927402680098 0.9128809335527341 0.4921907854981428
0.9025187513052473 0.77783170836061 0.5165264065079074
0.8722854228481854 0.8964283990620491 0.42691381035179676
-0.00580827531317956 0.025246823782119433 0.6270926453185597
0.027792740268009677 0.1128809335527341 0.6921907854981428
0.10251875130524715 -0.02216829163939007 0.7165264065079073
0.07228542284818536 0.09642839906204903 0.6269138103517968
0.19419172468682044 0.025246823782119433 0.6270926453185597
0.2277927402680097 0.1128809335527341 0.6921907854981428
0.3025187513052472 -0.02216829163939007 0.7165264065079073
0.2722854228481854 0.09642839906204903 0.6269138103517968
0.39419172468682045 0.025246823782119433 0.6270926453185597
0.4277927402680097 0.1128809335527341 0.6921907854981428
0.5025187513052471 -0.02216829163939007 0.7165264065079073
0.4722854228481854 0.09642839906204903 0.6269138103517968
0.5941917246868205 0.025246823782119433 0.6270926453185597
0.6277927402680097 0.1128809335527341 0.6921907854981428
0.7025187513052472 -0.02216829163939007 0.7165264065079073
0.6722854228481854 0.09642839906204903 0.6269138103517968
0.7941917246868204 0.025246823782119433 0.6270926453185597
0.8277927402680098 0.1128809335527341 0.6921907854981428
0.9025187513052473 -0.02216829163939007 0.7165264065079073
0.8722854228481854 0.09642839906204903 0.6269138103517968
-0.00580827531317956 0.22524682378211944 0.6270926453185597
0.027792740268009677 0.3128809335527341 0.6921907854981428
0.10251875130524715 0.17783170836060994 0.7165264065079073
0.07228542284818536 0.29642839906204904 0.6269138103517968
0.19419172468682044 0.22524682378211944 0.6270926453185597
0.2277927402680097 0.3128809335527341 0.6921907854981428
0.3025187513052472 0.17783170836060994 0.7165264065079073
0.2722854228481854 0.29642839906204904 0.6269138103517968
0.39419172468682045 0.22524682378211944 0.6270926453185597
0.4277927402680097 0.3128809335527341 0.6921907854981428
0.5025187513052471 0.17783170836060994 0.7165264065079073
0.4722854228481854 0.29642839906204904 0.6269138103517968
0.5941917246868205 0.22524682378211944 0.6270926453185597
0.6277927402680097 0.3128809335527341 0.6921907854981428
0.7025187513052472 0.17783170836060994 0.7165264065079073
0.6722854228481854 0.29642839906204904 0.6269138103517968
0.7941917246868204 0.22524682378211944 0.6270926453185597
0.8277927402680098 0.3128809335527341 0.6921907854981428
0.9025187513052473 0.17783170836060994 0.7165264065079073
0.8722854228481854 0.29642839906204904 0.6269138103517968
-0.00580827531317956 0.4252468237821194 0.6270926453185597
0.027792740268009677 0.5128809335527341 0.6921907854981428
0.10251875130524715 0.37783170836061 0.7165264065079073
0.07228542284818536 0.49642839906204905 0.6269138103517968
0.19419172468682044 0.4252468237821194 0.6270926453185597
0.2277927402680097 0.5128809335527341 0.6921907854981428
0.3025187513052472 0.37783170836061 0.7165264065079073
0.2722854228481854 0.49642839906204905 0.6269138103517968
0.39419172468682045 0.4252468237821194 0.6270926453185597
0.4277927402680097 0.5128809335527341 0.6921907854981428
0.5025187513052471 0.37783170836061 0.7165264065079073
0.4722854228481854 0.49642839906204905 0.6269138103517968
0.5941917246868205 0.4252468237821194 0.6270926453185597
0.6277927402680097 0.5128809335527341 0.6921907854981428
0.7025187513052472 0.37783170836061 0.7165264065079073
0.6722854228481854 0.49642839906204905 0.6269138103517968
0.7941917246868204 0.4252468237821194 0.6270926453185597
0.8277927402680098 0.5128809335527341 0.6921907854981428
0.9025187513052473 0.37783170836061 0.7165264065079073
0.8722854228481854 0.49642839906204905 0.6269138103517968
-0.00580827531317956 0.6252468237821195 0.6270926453185597
0.027792740268009677 0.7128809335527342 0.6921907854981428
0.10251875130524715 0.5778317083606099 0.7165264065079073
0.07228542284818536 0.6964283990620491 0.6269138103517968
0.19419172468682044 0.6252468237821195 0.6270926453185597
0.2277927402680097 0.7128809335527342 0.6921907854981428
0.3025187513052472 0.5778317083606099 0.7165264065079073
0.2722854228481854 0.6964283990620491 0.6269138103517968
0.39419172468682045 0.6252468237821195 0.6270926453185597
0.4277927402680097 0.7128809335527342 0.6921907854981428
0.5025187513052471 0.5778317083606099 0.7165264065079073
0.4722854228481854 0.6964283990620491 0.6269138103517968
0.5941917246868205 0.6252468237821195 0.6270926453185597
0.6277927402680097 0.7128809335527342 0.6921907854981428
0.7025187513052472 0.5778317083606099 0.7165264065079073
0.6722854228481854 0.6964283990620491 0.6269138103517968
0.7941917246868204 0.6252468237821195 0.6270926453185597
0.8277927402680098 0.7128809335527342 0.6921907854981428
0.9025187513052473 0.5778317083606099 0.7165264065079073
0.8722854228481854 0.6964283990620491 0.6269138103517968
-0.00580827531317956 0.8252468237821194 0.6270926453185597
0.027792740268009677 0.9128809335527341 0.6921907854981428
0.10251875130524715 0.77783170836061 0.7165264065079073
0.07228542284818536 0.8964283990620491 0.6269138103517968
0.19419172468682044 0.8252468237821194 0.6270926453185597
0.2277927402680097 0.9128809335527341 0.6921907854981428
0.3025187513052472 0.77783170836061 0.7165264065079073
0.2722854228481854 0.8964283990620491 0.6269138103517968
0.39419172468682045 0.8252468237821194 0.6270926453185597
0.4277927402680097 0.9128809335527341 0.6921907854981428
0.5025187513052471 0.77783170836061 0.7165264065079073
0.4722854228481854 0.8964283990620491 0.6269138103517968
0.5941917246868205 0.8252468237821194 0.6270926453185597
0.6277927402680097 0.9128809335527341 0.6921907854981428
0.7025187513052472 0.77783170836061 0.7165264065079073
0.6722854228481854 0.8964283990620491 0.6269138103517968
0.7941917246868204 0.8252468237821194 0.6270926453185597
0.8277927402680098 0.9128809335527341 0.6921907854981428
0.9025187513052473 0.77783170836061 0.7165264065079073
0.8722854228481854 0.8964283990620491 0.6269138103517968
-0.00580827531317956 0.025246823782119433 0.8270926453185597
0.027792740268009677 0.1128809335527341 0.8921907854981429
0.10251875130524715 -0.02216829163939007 0.9165264065079074
0.07228542284818536 0.09642839906204903 0.8269138103517968
0.19419172468682044 0.025246823782119433 0.8270926453185597
0.2277927402680097 0.1128809335527341 0.8921907854981429
0.3025187513052472 -0.02216829163939007 0.9165264065079074
0.2722854228481854 0.09642839906204903 0.8269138103517968
0.39419172468682045 0.025246823782119433 0.8270926453185597
0.4277927402680097 0.1128809335527341 0.8921907854981429
0.5025187513052471 -0.02216829163939007 0.9165264065079074
0.4722854228481854 0.09642839906204903 0.8269138103517968
0.5941917246868205 0.025246823782119433 0.8270926453185597
0.6277927402680097 0.1128809335527341 0.8921907854981429
0.7025187513052472 -0.02216829163939007 0.9165264065079074
0.6722854228481854 0.09642839906204903 0.8269138103517968
0.7941917246868204 0.025246823782119433 0.8270926453185597
0.8277927402680098 0.1128809335527341 0.8921907854981429
0.9025187513052473 -0.02216829163939007 0.9165264065079074
0.8722854228481854 0.09642839906204903 0.8269138103517968
-0.00580827531317956 0.22524682378211944 0.8270926453185597
0.027792740268009677 0.3128809335527341 0.8921907854981429
0.10251875130524715 0.17783170836060994 0.9165264065079074
0.07228542284818536 0.29642839906204904 0.8269138103517968
0.19419172468682044 0.22524682378211944 0.8270926453185597
0.2277927402680097 0.3128809335527341 0.8921907854981429
0.3025187513052472 0.17783170836060994 0.9165264065079074
0.2722854228481854 0.29642839906204904 0.8269138103517968
0.39419172468682045 0.22524682378211944 0.8270926453185597
0.4277927402680097 0.3128809335527341 0.8921907854981429
0.5025187513052471 0.17783170836060994 0.9165264065079074
0.4722854228481854 0.29642839906204904 0.8269138103517968
0.5941917246868205 0.22524682378211944 0.8270926453185597
0.6277927402680097 0.3128809335527341 0.8921907854981429
0.7025187513052472 0.17783170836060994 0.9165264065079074
0.6722854228481854 0.29642839906204904 0.8269138103517968
0.7941917246868204 0.22524682378211944 0.8270926453185597
0.8277927402680098 0.3128809335527341 0.8921907854981429
0.9025187513052473 0.17783170836060994 0.9165264065079074
0.8722854228481854 0.29642839906204904 0.8269138103517968
-0.00580827531317956 0.4252468237821194 0.8270926453185597
0.027792740268009677 0.5128809335527341 0.8921907854981429
0.10251875130524715 0.37783170836061 0.9165264065079074
0.07228542284818536 0.49642839906204905 0.8269138103517968
0.19419172468682044 0.4252468237821194 0.8270926453185597
0.2277927402680097 0.5128809335527341 0.8921907854981429
0.3025187513052472 0.37783170836061 0.9165264065079074
0.2722854228481854 0.49642839906204905 0.8269138103517968
0.39419172468682045 0.4252468237821194 0.8270926453185597
0.4277927402680097 0.5128809335527341 0.8921907854981429
0.5025187513052471 0.37783170836061 0.9165264065079074
0.4722854228481854 0.49642839906204905 0.8269138103517968
0.5941917246868205 0.4252468237821194 0.8270926453185597
0.6277927402680097 0.5128809335527341 0.8921907854981429
0.7025187513052472 0.37783170836061 0.9165264065079074
0.6722854228481854 0.49642839906204905 0.8269138103517968
0.7941917246868204 0.4252468237821194 0.8270926453185597
0.8277927402680098 0.5128809335527341 0.8921907854981429
0.9025187513052473 0.37783170836061 0.9165264065079074
0.8722854228481854 0.49642839906204905 0.8269138103517968
-0.00580827531317956 0.6252468237821195 0.8270926453185597
0.027792740268009677 0.7128809335527342 0.8921907854981429
0.10251875130524715 0.5778317083606099 0.9165264065079074
0.07228542284818536 0.6964283990620491 0.8269138103517968
0.19419172468682044 0.6252468237821195 0.8270926453185597
0.2277927402680097 0.7128809335527342 0.8921907854981429
0.3025187513052472 0.5778317083606099 0.9165264065079074
0.2722854228481854 0.6964283990620491 0.8269138103517968
0.39419172468682045 0.6252468237821195 0.8270926453185597
0.4277927402680097 0.7128809335527342 0.8921907854981429
0.5025187513052471 0.5778317083606099 0.9165264065079074
0.4722854228481854 0.6964283990620491 0.8269138103517968
0.5941917246868205 0.6252468237821195 0.8270926453185597
0.6277927402680097 0.7128809335527342 0.8921907854981429
0.7025187513052472 0.5778317083606099 0.9165264065079074
0.6722854228481854 0.6964283990620491 0.8269138103517968
0.7941917246868204 0.6252468237821195 0.8270926453185597
0.8277927402680098 0.7128809335527342 0.8921907854981429
0.9025187513052473 0.5778317083606099 0.9165264065079074
0.8722854228481854 0.6964283990620491 0.8269138103517968
-0.00580827531317956 0.8252468237821194 0.8270926453185597
0.027792740268009677 0.9128809335527341 0.8921907854981429
0.10251875130524715 0.77783170836061 0.9165264065079074
0.07228542284818536 0.8964283990620491 0.8269138103517968
0.19419172468682044 0.8252468237821194 0.8270926453185597
0.2277927402680097 0.9128809335527341 0.8921907854981429
0.3025187513052472 0.77783170836061 0.9165264065079074
0.2722854228481854 0.8964283990620491 0.8269138103517968
0.39419172468682045 0.8252468237821194 0.8270926453185597
0.4277927402680097 0.9128809335527341 0.8921907854981429
0.5025187513052471 0.77783170836061 0.9165264065079074
0.4722854228481854 0.8964283990620491 0.8269138103517968
0.5941917246868205 0.8252468237821194 0.8270926453185597
0.6277927402680097 0.9128809335527341 0.8921907854981429
0.7025187513052472 0.77783170836061 0.9165264065079074
0.6722854228481854 0.8964283990620491 0.8269138103517968
0.7941917246868204 0.8252468237821194 0.8270926453185597
0.8277927402680098 0.9128809335527341 0.8921907854981429
0.9025187513052473 0.77783170836061 0.9165264065079074
0.8722854228481854 0.8964283990620491 0.8269138103517968
0.07206696579858661 -0.01642987925149143 0.005807910004308704
-0.02369537582286926 0.12887865393070377 0.02097420132348495
0.005225086396643087 0.006775378616813841 0.108685448458943
0.11235565313713597 0.09215938977712021 0.12045549917222775
0.2720669657985866 -0.01642987925149143 0.005807910004308704
0.17630462417713078 0.12887865393070377 0.02097420132348495
0.20522508639664308 0.006775378616813841 0.108685448458943
0.312355653137136 0.09215938977712021 0.12045549917222775
0.4720669657985866 -0.01642987925149143 0.005807910004308704
0.3763046241771308 0.12887865393070377 0.02097420132348495
0.4052250863966431 0.006775378616813841 0.108685448458943
0.512355653137136 0.09215938977712021 0.12045549917222775
0.6720669657985866 -0.01642987925149143 0.005807910004308704
0.5763046241771307 0.12887865393070377 0.02097420132348495
0.6052250863966431 0.006775378616813841 0.108685448458943
0.712355653137136 0.09215938977712021 0.12045549917222775
0.8720669657985867 -0.01642987925149143 0.005807910004308704
0.7763046241771308 0.12887865393070377 0.02097420132348495
0.8052250863966433 0.006775378616813841 0.108685448458943
0.9123556531371361 0.09215938977712021 0.12045549917222775
0.07206696579858661 0.1835701207485086 0.005807910004308704
-0.02369537582286926 0.3288786539307038 0.02097420132348495
0.005225086396643087 0.20677537861681383 0.108685448458943
0.11235565313713597 0.2921593897771202 0.12045549917222775
0.2720669657985866 0.1835701207485086 0.005807910004308704
0.17630462417713078 0.3288786539307038 0.02097420132348495
0.20522508639664308 0.20677537861681383 0.108685448458943
0.312355653137136 0.2921593897771202 0.12045549917222775
0.4720669657985866 0.1835701207485086 0.005807910004308704
0.3763046241771308 0.3288786539307038 0.02097420132348495
0.4052250863966431 0.20677537861681383 0.108685448458943
0.512355653137136 0.2921593897771202 0.12045549917222775
0.6720669657985866 0.1835701207485086 0.005807910004308704
0.5763046241771307 0.3288786539307038 0.02097420132348495
0.6052250863966431 0.20677537861681383 0.108685448458943
0.712355653137136 0.2921593897771202 0.12045549917222775
0.8720669657985867 0.1835701207485086 0.005807910004308704
0.7763046241771308 0.3288786539307038 0.02097420132348495
0.8052250863966433 0.20677537861681383 0.108685448458943
0.9123556531371361 0.2921593897771202 0.12045549917222775
0.07206696579858661 0.3835701207485086 0.005807910004308704
-0.02369537582286926 0.5288786539307039 0.02097420132348495
0.005225086396643087 0.40677537861681384 0.108685448458943
0.11235565313713597 0.4921593897771202 0.12045549917222775
0.2720669657985866 0.3835701207485086 0.005807910004308704
0.17630462417713078 0.5288786539307039 0.02097420132348495
0.20522508639664308 0.40677537861681384 0.108685448458943
0.312355653137136 0.4921593897771202 0.12045549917222775
0.4720669657985866 0.3835701207485086 0.005807910004308704
0.3763046241771308 0.5288786539307039 0.02097420132348495
0.4052250863966431 0.40677537861681384 0.108685448458943
0.512355653137136 0.4921593897771202 0.12045549917222775
0.6720669657985866 0.3835701207485086 0.005807910004308704
0.5763046241771307 0.5288786539307039 0.02097420132348495
0.6052250863966431 0.40677537861681384 0.108685448458943
0.712355653137136 0.4921593897771202 0.12045549917222775
0.8720669657985867 0.3835701207485086 0.005807910004308704
0.7763046241771308 0.5288786539307039 0.02097420132348495
0.8052250863966433 0.40677537861681384 0.108685448458943
0.9123556531371361 0.4921593897771202 0.12045549917222775
0.07206696579858661 0.5835701207485086 0.005807910004308704
-0.02369537582286926 0.7288786539307038 0.02097420132348495
0.005225086396643087 0.6067753786168139 0.108685448458943
0.11235565313713597 0.6921593897771202 0.12045549917222775
0.2720669657985866 0.5835701207485086 0.005807910004308704
0.17630462417713078 0.7288786539307038 0.02097420132348495
0.20522508639664308 0.6067753786168139 0.108685448458943
0.312355653137136 0.6921593897771202 0.12045549917222775
0.4720669657985866 0.5835701207485086 0.005807910004308704
0.3763046241771308 0.7288786539307038 0.02097420132348495
0.4052250863966431 0.6067753786168139 0.108685448458943
0.512355653137136 0.6921593897771202 0.12045549917222775
0.6720669657985866 0.5835701207485086 0.005807910004308704
0.5763046241771307 0.7288786539307038 0.02097420132348495
0.6052250863966431 0.6067753786168139 0.108685448458943
0.712355653137136 0.6921593897771202 0.12045549917222775
0.8720669657985867 0.5835701207485086 0.005807910004308704
0.7763046241771308 0.7288786539307038 0.02097420132348495
0.8052250863966433 0.6067753786168139 0.108685448458943
0.9123556531371361 0.6921593897771202 0.12045549917222775
0.07206696579858661 0.7835701207485086 0.005807910004308704
-0.02369537582286926 0.9288786539307039 0.02097420132348495
0.005225086396643087 0.8067753786168139 0.108685448458943
0.11235565313713597 0.8921593897771203 0.12045549917222775
0.2720669657985866 0.7835701207485086 0.005807910004308704
0.17630462417713078 0.9288786539307039 0.02097420132348495
0.20522508639664308 0.8067753786168139 0.108685448458943
0.312355653137136 0.8921593897771203 0.12045549917222775
0.4720669657985866 0.7835701207485086 0.005807910004308704
0.3763046241771308 0.9288786539307039 0.02097420132348495
0.4052250863966431 0.8067753786168139 0.108685448458943
0.512355653137136 0.8921593897771203 0.12045549917222775
0.6720669657985866 0.7835701207485086 0.005807910004308704
0.5763046241771307 0.9288786539307039 0.02097420132348495
0.6052250863966431 0.8067753786168139 0.108685448458943
0.712355653137136 0.8921593897771203 0.12045549917222775
0.8720669657985867 0.7835701207485086 0.005807910004308704
0.7763046241771308 0.9288786539307039 0.02097420132348495
0.8052250863966433 0.8067753786168139 0.108685448458943
0.9123556531371361 0.8921593897771203 0.12045549917222775
0.07206696579858661 -0.01642987925149143 0.2058079100043087
-0.02369537582286926 0.12887865393070377 0.22097420132348497
0.005225086396643087 0.006775378616813841 0.30868544845894297
0.11235565313713597 0.09215938977712021 0.32045549917222776
0.2720669657985866 -0.01642987925149143 0.2058079100043087
0.17630462417713078 0.12887865393070377 0.22097420132348497
0.20522508639664308 0.006775378616813841 0.30868544845894297
0.312355653137136 0.09215938977712021 0.32045549917222776
0.4720669657985866 -0.01642987925149143 0.2058079100043087
0.3763046241771308 0.12887865393070377 0.22097420132348497
0.4052250863966431 0.006775378616813841 0.30868544845894297
0.512355653137136 0.09215938977712021 0.32045549917222776
0.6720669657985866 -0.01642987925149143 0.2058079100043087
0.5763046241771307 0.12887865393070377 0.22097420132348497
0.6052250863966431 0.006775378616813841 0.30868544845894297
0.712355653137136 0.09215938977712021 0.32045549917222776
0.8720669657985867 -0.01642987925149143 0.2058079100043087
0.7763046241771308 0.12887865393070377 0.22097420132348497
0.8052250863966433 0.006775378616813841 0.30868544845894297
0.9123556531371361 0.09215938977712021 0.32045549917222776
0.07206696579858661 0.1835701207485086 0.2058079100043087
-0.02369537582286926 0.3288786539307038 0.22097420132348497
0.005225086396643087 0.20677537861681383 0.30868544845894297
0.11235565313713597 0.2921593897771202 0.32045549917222776
0.2720669657985866 0.1835701207485086 0.2058079100043087
0.17630462417713078 0.3288786539307038 0.22097420132348497
0.20522508639664308 0.20677537861681383 0.30868544845894297
0.312355653137136 0.2921593897771202 0.32045549917222776
0.4720669657985866 0.1835701207485086 0.2058079100043087
0.3763046241771308 0.3288786539307038 0.22097420132348497
0.4052250863966431 0.20677537861681383 0.30868544845894297
0.512355653137136 0.2921593897771202 0.32045549917222776
0.6720669657985866 0.1835701207485086 0.2058079100043087
0.5763046241771307 0.3288786539307038 0.22097420132348497
0.6052250863966431 0.20677537861681383 0.30868544845894297
0.712355653137136 0.2921593897771202 0.32045549917222776
0.8720669657985867 0.1835701207485086 0.2058079100043087
0.7763046241771308 0.3288786539307038 0.22097420132348497
0.8052250863966433 0.20677537861681383 0.30868544845894297
0.9123556531371361 0.2921593897771202 0.32045549917222776
0.07206696579858661 0.3835701207485086 0.2058079100043087
-0.02369537582286926 0.5288786539307039 0.22097420132348497
0.005225086396643087 0.40677537861681384 0.30868544845894297
0.11235565313713597 0.4921593897771202 0.32045549917222776
0.2720669657985866 0.3835701207485086 0.2058079100043087
0.17630462417713078 0.5288786539307039 0.22097420132348497
0.20522508639664308 0.40677537861681384 0.30868544845894297
0.312355653137136 0.4921593897771202 0.32045549917222776
0.4720669657985866 0.3835701207485086 0.2058079100043087
0.3763046241771308 0.5288786539307039 0.22097420132348497
0.4052250863966431 0.40677537861681384 0.30868544845894297
0.512355653137136 0.4921593897771202 0.32045549917222776
0.6720669657985866 0.3835701207485086 0.2058079100043087
0.5763046241771307 0.5288786539307039 0.22097420132348497
0.6052250863966431 0.40677537861681384 0.30868544845894297
0.712355653137136 0.4921593897771202 0.32045549917222776
0.8720669657985867 0.3835701207485086 0.2058079100043087
0.7763046241771308 0.5288786539307039 0.22097420132348497
0.8052250863966433 0.40677537861681384 0.30868544845894297
0.9123556531371361 0.4921593897771202 0.32045549917222776
0.07206696579858661 0.5835701207485086 0.2058079100043087
-0.02369537582286926 0.7288786539307038 0.22097420132348497
0.005225086396643087 0.6067753786168139 0.30868544845894297
0.11235565313713597 0.6921593897771202 0.32045549917222776
0.2720669657985866 0.5835701207485086 0.2058079100043087
0.17630462417713078 0.7288786539307038 0.22097420132348497
0.20522508639664308 0.6067753786168139 0.30868544845894297
0.312355653137136 0.6921593897771202 0.32045549917222776
0.4720669657985866 0.5835701207485086 0.2058079100043087
0.3763046241771308 0.7288786539307038 0.22097420132348497
0.4052250863966431 0.6067753786168139 0.30868544845894297
0.512355653137136 0.6921593897771202 0.32045549917222776
0.6720669657985866 0.5835701207485086 0.2058079100043087
0.5763046241771307 0.7288786539307038 0.22097420132348497
0.6052250863966431 0.6067753786168139 0.30868544845894297
0.712355653137136 0.6921593897771202 0.32045549917222776
0.8720669657985867 0.5835701207485086 0.2058079100043087
0.7763046241771308 0.7288786539307038 0.22097420132348497
0.8052250863966433 0.6067753786168139 0.30868544845894297
0.9123556531371361 0.6921593897771202 0.32045549917222776
0.07206696579858661 0.7835701207485086 0.2058079100043087
-0.02369537582286926 0.9288786539307039 0.22097420132348497
0.005225086396643087 0.8067753786168139 0.30868544845894297
0.11235565313713597 0.8921593897771203 0.32045549917222776
0.2720669657985866 0.7835701207485086 0.2058079100043087
0.17630462417713078 0.9288786539307039 0.22097420132348497
0.20522508639664308 0.8067753786168139 0.30868544845894297
0.312355653137136 0.8921593897771203 0.32045549917222776
0.4720669657985866 0.7835701207485086 0.2058079100043087
0.3763046241771308 0.9288786539307039 0.22097420132348497
0.4052250863966431 0.8067753786168139 0.30868544845894297
0.512355653137136 0.8921593897771203 0.32045549917222776
0.6720669657985866 0.7835701207485086 0.2058079100043087
0.5763046241771307 0.9288786539307039 0.22097420132348497
0.6052250863966431 0.8067753786168139 0.30868544845894297
0.712355653137136 0.8921593897771203 0.32045549917222776
0.8720669657985867 0.7835701207485086 0.2058079100043087
0.7763046241771308 0.9288786539307039 0.22097420132348497
0.8052250863966433 0.8067753786168139 0.30868544845894297
0.9123556531371361 0.8921593897771203 0.32045549917222776
0.07206696579858661 -0.01642987925149143 0.4058079100043087
-0.02369537582286926 0.12887865393070377 0.42097420132348495
0.005225086396643087 0.006775378616813841 0.508685448458943
0.11235565313713597 0.09215938977712021 0.5204554991722278
0.2720669657985866 -0.01642987925149143 0.4058079100043087
0.17630462417713078 0.12887865393070377 0.42097420132348495
0.20522508639664308 0.006775378616813841 0.508685448458943
0.312355653137136 0.09215938977712021 0.5204554991722278
0.4720669657985866 -0.01642987925149143 0.4058079100043087
0.3763046241771308 0.12887865393070377 0.42097420132348495
0.4052250863966431 0.006775378616813841 0.508685448458943
0.512355653137136 0.09215938977712021 0.5204554991722278
0.6720669657985866 -0.01642987925149143 0.4058079100043087
0.5763046241771307 0.12887865393070377 0.42097420132348495
0.6052250863966431 0.006775378616813841 0.508685448458943
0.712355653137136 0.09215938977712021 0.5204554991722278
0.8720669657985867 -0.01642987925149143 0.4058079100043087
0.7763046241771308 0.12887865393070377 0.42097420132348495
0.8052250863966433 0.006775378616813841 0.508685448458943
0.9123556531371361 0.09215938977712021 0.5204554991722278
0.07206696579858661 0.1835701207485086 0.4058079100043087
-0.02369537582286926 0.3288786539307038 0.42097420132348495
0.005225086396643087 0.20677537861681383 0.508685448458943
0.11235565313713597 0.2921593897771202 0.5204554991722278
0.2720669657985866 0.1835701207485086 0.4058079100043087
0.17630462417713078 0.3288786539307038 0.42097420132348495
0.20522508639664308 0.20677537861681383 0.508685448458943
0.312355653137136 0.2921593897771202 0.5204554991722278
0.4720669657985866 0.1835701207485086 0.4058079100043087
0.3763046241771308 0.3288786539307038 0.42097420132348495
0.4052250863966431 0.20677537861681383 0.508685448458943
0.512355653137136 0.2921593897771202 0.5204554991722278
0.6720669657985866 0.1835701207485086 0.4058079100043087
0.5763046241771307 0.3288786539307038 0.42097420132348495
0.6052250863966431 0.20677537861681383 0.508685448458943
0.712355653137136 0.2921593897771202 0.5204554991722278
0.8720669657985867 0.1835701207485086 0.4058079100043087
0.7763046241771308 0.3288786539307038 0.42097420132348495
0.8052250863966433 0.20677537861681383 0.508685448458943
0.9123556531371361 0.2921593897771202 0.5204554991722278
0.07206696579858661 0.3835701207485086 0.4058079100043087
-0.02369537582286926 0.5288786539307039 0.42097420132348495
0.005225086396643087 0.40677537861681384 0.508685448458943
0.11235565313713597 0.4921593897771202 0.5204554991722278
0.2720669657985866 0.3835701207485086 0.4058079100043087
0.17630462417713078 0.5288786539307039 0.42097420132348495
0.20522508639664308 0.40677537861681384 0.508685448458943
0.312355653137136 0.4921593897771202 0.5204554991722278
0.4720669657985866 0.3835701207485086 0.4058079100043087
0.3763046241771308 0.5288786539307039 0.42097420132348495
0.4052250863966431 0.40677537861681384 0.508685448458943
0.512355653137136 0.4921593897771202 0.5204554991722278
0.6720669657985866 0.3835701207485086 0.4058079100043087
0.5763046241771307 0.5288786539307039 0.42097420132348495
0.6052250863966431 0.40677537861681384 0.508685448458943
0.712355653137136 0.4921593897771202 0.5204554991722278
0.8720669657985867 0.3835701207485086 0.4058079100043087
0.7763046241771308 0.5288786539307039 0.42097420132348495
0.8052250863966433 0.40677537861681384 0.508685448458943
0.9123556531371361 0.4921593897771202 0.5204554991722278
0.07206696579858661 0.5835701207485086 0.4058079100043087
-0.02369537582286926 0.7288786539307038 0.42097420132348495
0.005225086396643087 0.6067753786168139 0.508685448458943
0.11235565313713597 0.6921593897771202 0.5204554991722278
0.2720669657985866 0.5835701207485086 0.4058079100043087
0.17630462417713078 0.7288786539307038 0.42097420132348495
0.20522508639664308 0.6067753786168139 0.508685448458943
0.312355653137136 0.6921593897771202 0.5204554991722278
0.4720669657985866 0.5835701207485086 0.4058079100043087
0.3763046241771308 0.7288786539307038 0.42097420132348495
0.4052250863966431 0.6067753786168139 0.508685448458943
0.512355653137136 0.6921593897771202 0.5204554991722278
0.6720669657985866 0.5835701207485086 0.4058079100043087
0.5763046241771307 0.7288786539307038 0.42097420132348495
0.6052250863966431 0.6067753786168139 0.508685448458943
0.712355653137136 0.6921593897771202 0.5204554991722278
0.8720669657985867 0.5835701207485086 0.4058079100043087
0.7763046241771308 0.7288786539307038 0.42097420132348495
0.8052250863966433 0.6067753786168139 0.508685448458943
0.9123556531371361 0.6921593897771202 0.5204554991722278
0.07206696579858661 0.7835701207485086 0.4058079100043087
-0.02369537582286926 0.9288786539307039 0.42097420132348495
0.005225086396643087 0.8067753786168139 0.508685448458943
0.11235565313713597 0.8921593897771203 0.5204554991722278
0.2720669657985866 0.7835701207485086 0.4058079100043087
0.17630462417713078 0.9288786539307039 0.42097420132348495
0.20522508639664308 0.8067753786168139 0.508685448458943
0.312355653137136 0.8921593897771203 0.5204554991722278
0.4720669657985866 0.7835701207485086 0.4058079100043087
0.3763046241771308 0.9288786539307039 0.42097420132348495
0.4052250863966431 0.8067753786168139 0.508685448458943
0.512355653137136 0.8921593897771203 0.5204554991722278
0.6720669657985866 0.7835701207485086 0.4058079100043087
0.5763046241771307 0.9288786539307039 0.42097420132348495
0.6052250863966431 0.8067753786168139 0.508685448458943
0.712355653137136 0.8921593897771203 0.5204554991722278
0.8720669657985867 0.7835701207485086 0.4058079100043087
0.7763046241771308 0.9288786539307039 0.42097420132348495
0.8052250863966433 0.8067753786168139 0.508685448458943
0.9123556531371361 0.8921593897771203 0.5204554991722278
0.07206696579858661 -0.01642987925149143 0.6058079100043088
-0.02369537582286926 0.12887865393070377 0.6209742013234849
0.005225086396643087 0.006775378616813841 0.708685448458943
0.11235565313713597 0.09215938977712021 0.7204554991722278
0.2720669657985866 -0.01642987925149143 0.6058079100043088
0.17630462417713078 0.12887865393070377 0.6209742013234849
0.20522508639664308 0.006775378616813841 0.708685448458943
0.312355653137136 0.09215938977712021 0.7204554991722278
0.4720669657985866 -0.01642987925149143 0.6058079100043088
0.3763046241771308 0.12887865393070377 0.6209742013234849
0.4052250863966431 0.006775378616813841 0.708685448458943
0.512355653137136 0.09215938977712021 0.7204554991722278
0.6720669657985866 -0.01642987925149143 0.6058079100043088
0.5763046241771307 0.12887865393070377 0.6209742013234849
0.6052250863966431 0.006775378616813841 0.708685448458943
0.712355653137136 0.09215938977712021 0.7204554991722278
0.8720669657985867 -0.01642987925149143 0.6058079100043088
0.7763046241771308 0.12887865393070377 0.6209742013234849
0.8052250863966433 0.006775378616813841 0.708685448458943
0.9123556531371361 0.09215938977712021 0.7204554991722278
0.07206696579858661 0.1835701207485086 0.6058079100043088
-0.02369537582286926 0.3288786539307038 0.6209742013234849
0.005225086396643087 0.20677537861681383 0.708685448458943
0.11235565313713597 0.2921593897771202 0.7204554991722278
0.2720669657985866 0.1835701207485086 0.6058079100043088
0.17630462417713078 0.3288786539307038 0.6209742013234849
0.20522508639664308 0.20677537861681383 0.708685448458943
0.312355653137136 0.2921593897771202 0.7204554991722278
0.4720669657985866 0.1835701207485086 0.6058079100043088
0.3763046241771308 0.3288786539307038 0.6209742013234849
0.4052250863966431 0.20677537861681383 0.708685448458943
0.512355653137136 0.2921593897771202 0.7204554991722278
0.6720669657985866 0.1835701207485086 0.6058079100043088
0.5763046241771307 0.3288786539307038 0.6209742013234849
0.6052250863966431 0.20677537861681383 0.708685448458943
0.712355653137136 0.2921593897771202 0.7204554991722278
0.8720669657985867 0.1835701207485086 0.6058079100043088
0.7763046241771308 0.3288786539307038 0.6209742013234849
0.8052250863966433 0.20677537861681383 0.708685448458943
0.9123556531371361 0.2921593897771202 0.7204554991722278
0.07206696579858661 0.3835701207485086 0.6058079100043088
-0.02369537582286926 0.5288786539307039 0.6209742013234849
0.005225086396643087 0.40677537861681384 0.708685448458943
0.11235565313713597 0.4921593897771202 0.7204554991722278
0.2720669657985866 0.3835701207485086 0.6058079100043088
0.17630462417713078 0.5288786539307039 0.6209742013234849
0.20522508639664308 0.40677537861681384 0.708685448458943
0.312355653137136 0.4921593897771202 0.7204554991722278
0.4720669657985866 0.3835701207485086 0.6058079100043088
0.3763046241771308 0.5288786539307039 0.6209742013234849
0.4052250863966431 0.40677537861681384 0.708685448458943
0.512355653137136 0.4921593897771202 0.7204554991722278
0.6720669657985866 0.3835701207485086 0.6058079100043088
0.5763046241771307 0.5288786539307039 0.6209742013234849
0.6052250863966431 0.40677537861681384 0.708685448458943
0.712355653137136 0.4921593897771202 0.7204554991722278
0.8720669657985867 0.3835701207485086 0.6058079100043088
0.7763046241771308 0.5288786539307039 0.6209742013234849
0.8052250863966433 0.40677537861681384 0.708685448458943
0.9123556531371361 0.4921593897771202 0.7204554991722278
0.07206696579858661 0.5835701207485086 0.6058079100043088
-0.02369537582286926 0.7288786539307038 0.6209742013234849
0.005225086396643087 0.6067753786168139 0.708685448458943
0.11235565313713597 0.6921593897771202 0.7204554991722278
0.2720669657985866 0.5835701207485086 0.6058079100043088
0.17630462417713078 0.7288786539307038 0.6209742013234849
0.20522508639664308 0.6067753786168139 0.708685448458943
0.312355653137136 0.6921593897771202 0.7204554991722278
0.4720669657985866 0.5835701207485086 0.6058079100043088
0.3763046241771308 0.7288786539307038 0.6209742013234849
0.4052250863966431 0.6067753786168139 0.708685448458943
0.512355653137136 0.6921593897771202 0.7204554991722278
0.6720669657985866 0.5835701207485086 0.6058079100043088
0.5763046241771307 0.7288786539307038 0.6209742013234849
0.6052250863966431 0.6067753786168139 0.708685448458943
0.712355653137136 0.6921593897771202 0.7204554991722278
0.8720669657985867 0.5835701207485086 0.6058079100043088
0.7763046241771308 0.7288786539307038 0.6209742013234849
0.8052250863966433 0.6067753786168139 0.708685448458943
0.9123556531371361 0.6921593897771202 0.7204554991722278
0.07206696579858661 0.7835701207485086 0.6058079100043088
-0.02369537582286926 0.9288786539307039 0.6209742013234849
0.005225086396643087 0.8067753786168139 0.708685448458943
0.11235565313713597 0.8921593897771203 0.7204554991722278
0.2720669657985866 0.7835701207485086 0.6058079100043088
0.17630462417713078 0.9288786539307039 0.6209742013234849
0.20522508639664308 0.8067753786168139 0.708685448458943
0.312355653137136 0.8921593897771203 0.7204554991722278
0.4720669657985866 0.7835701207485086 0.6058079100043088
0.3763046241771308 0.9288786539307039 0.6209742013234849
0.4052250863966431 0.8067753786168139 0.708685448458943
0.512355653137136 0.8921593897771203 0.7204554991722278
0.6720669657985866 0.7835701207485086 0.6058079100043088
0.5763046241771307 0.9288786539307039 0.6209742013234849
0.6052250863966431 0.8067753786168139 0.708685448458943
0.712355653137136 0.8921593897771203 0.7204554991722278
0.8720669657985867 0.7835701207485086 0.6058079100043088
0.7763046241771308 0.9288786539307039 0.6209742013234849
0.8052250863966433 0.8067753786168139 0.708685448458943
0.9123556531371361 0.8921593897771203 0.7204554991722278
0.07206696579858661 -0.01642987925149143 0.8058079100043088
-0.02369537582286926 0.12887865393070377 0.8209742013234851
0.005225086396643087 0.006775378616813841 0.9086854484589431
0.11235565313713597 0.09215938977712021 0.9204554991722278
0.2720669657985866 -0.01642987925149143 0.8058079100043088
0.17630462417713078 0.12887865393070377 0.8209742013234851
0.20522508639664308 0.006775378616813841 0.9086854484589431
0.312355653137136 0.09215938977712021 0.9204554991722278
0.4720669657985866 -0.01642987925149143 0.8058079100043088
0.3763046241771308 0.12887865393070377 0.8209742013234851
0.4052250863966431 0.006775378616813841 0.9086854484589431
0.512355653137136 0.09215938977712021 0.9204554991722278
0.6720669657985866 -0.01642987925149143 0.8058079100043088
0.5763046241771307 0.12887865393070377 0.8209742013234851
0.6052250863966431 0.006775378616813841 0.9086854484589431
0.712355653137136 0.09215938977712021 0.9204554991722278
0.8720669657985867 -0.01642987925149143 0.8058079100043088
0.7763046241771308 0.12887865393070377 0.8209742013234851
0.8052250863966433 0.006775378616813841 0.9086854484589431
0.9123556531371361 0.09215938977712021 0.9204554991722278
0.07206696579858661 0.1835701207485086 0.8058079100043088
-0.02369537582286926 0.3288786539307038 0.8209742013234851
0.005225086396643087 0.20677537861681383 0.9086854484589431
0.11235565313713597 0.2921593897771202 0.9204554991722278
0.2720669657985866 0.1835701207485086 0.8058079100043088
0.17630462417713078 0.3288786539307038 0.8209742013234851
0.20522508639664308 0.20677537861681383 0.9086854484589431
0.312355653137136 0.2921593897771202 0.9204554991722278
0.4720669657985866 0.1835701207485086 0.8058079100043088
0.3763046241771308 0.3288786539307038 0.8209742013234851
0.4052250863966431 0.20677537861681383 0.9086854484589431
0.512355653137136 0.2921593897771202 0.9204554991722278
0.6720669657985866 0.1835701207485086 0.8058079100043088
0.5763046241771307 0.3288786539307038 0.8209742013234851
0.6052250863966431 0.20677537861681383 0.9086854484589431
0.712355653137136 0.2921593897771202 0.9204554991722278
0.8720669657985867 0.1835701207485086 0.8058079100043088
0.7763046241771308 0.3288786539307038 0.8209742013234851
0.8052250863966433 0.20677537861681383 0.9086854484589431
0.9123556531371361 0.2921593897771202 0.9204554991722278
0.07206696579858661 0.3835701207485086 0.8058079100043088
-0.02369537582286926 0.5288786539307039 0.8209742013234851
0.005225086396643087 0.40677537861681384 0.9086854484589431
0.11235565313713597 0.4921593897771202 0.9204554991722278
0.2720669657985866 0.3835701207485086 0.8058079100043088
0.17630462417713078 0.5288786539307039 0.8209742013234851
0.20522508639664308 0.40677537861681384 0.9086854484589431
0.312355653137136 0.4921593897771202 0.9204554991722278
0.4720669657985866 0.3835701207485086 0.8058079100043088
0.3763046241771308 0.5288786539307039 0.8209742013234851
0.4052250863966431 0.40677537861681384 0.9086854484589431
0.512355653137136 0.4921593897771202 0.9204554991722278
0.6720669657985866 0.3835701207485086 0.8058079100043088
0.5763046241771307 0.5288786539307039 0.8209742013234851
0.6052250863966431 0.40677537861681384 0.9086854484589431
0.712355653137136 0.4921593897771202 0.9204554991722278
0.8720669657985867 0.3835701207485086 0.8058079100043088
0.7763046241771308 0.5288786539307039 0.8209742013234851
0.8052250863966433 0.40677537861681384 0.9086854484589431
0.9123556531371361 0.4921593897771202 0.9204554991722278
0.07206696579858661 0.5835701207485086 0.8058079100043088
-0.02369537582286926 0.7288786539307038 0.8209742013234851
0.005225086396643087 0.6067753786168139 0.9086854484589431
0.11235565313713597 0.6921593897771202 0.9204554991722278
0.2720669657985866 0.5835701207485086 0.8058079100043088
0.17630462417713078 0.7288786539307038 0.8209742013234851
0.20522508639664308 0.6067753786168139 0.9086854484589431
0.312355653137136 0.6921593897771202 0.9204554991722278
0.4720669657985866 0.5835701207485086 0.8058079100043088
0.3763046241771308 0.7288786539307038 0.8209742013234851
0.4052250863966431 0.6067753786168139 0.9086854484589431
0.512355653137136 0.6921593897771202 0.9204554991722278
0.6720669657985866 0.5835701207485086 0.8058079100043088
0.5763046241771307 0.7288786539307038 0.8209742013234851
0.6052250863966431 0.6067753786168139 0.9086854484589431
0.712355653137136 0.6921593897771202 0.9204554991722278
0.8720669657985867 0.5835701207485086 0.8058079100043088
0.7763046241771308 0.7288786539307038 0.8209742013234851
0.8052250863966433 0.6067753786168139 0.9086854484589431
0.9123556531371361 0.6921593897771202 0.9204554991722278
0.07206696579858661 0.7835701207485086 0.8058079100043088
-0.02369537582286926 0.9288786539307039 0.8209742013234851
0.005225086396643087 0.8067753786168139 0.9086854484589431
0.11235565313713597 0.8921593897771203 0.9204554991722278
0.2720669657985866 0.7835701207485086 0.8058079100043088
0.17630462417713078 0.9288786539307039 0.8209742013234851
0.20522508639664308 0.8067753786168139 0.9086854484589431
0.312355653137136 0.8921593897771203 0.9204554991722278
0.4720669657985866 0.7835701207485086 0.8058079100043088
0.3763046241771308 0.9288786539307039 0.8209742013234851
0.4052250863966431 0.8067753786168139 0.9086854484589431
0.512355653137136 0.8921593897771203 0.9204554991722278
0.6720669657985866 0.7835701207485086 0.8058079100043088
0.5763046241771307 0.9288786539307039 0.8209742013234851
0.6052250863966431 0.8067753786168139 0.9086854484589431
0.712355653137136 0.8921593897771203 0.9204554991722278
0.8720669657985867 0.7835701207485086 0.8058079100043088
0.7763046241771308 0.9288786539307039 0.8209742013234851
0.8052250863966433 0.8067753786168139 0.9086854484589431
0.9123556531371361 0.8921593897771203 0.9204554991722278
