FCC BaO
3.971
5.0 0.0 0.0
0.0 5.0 0.0
0.0 0.0 5.0
Ba O 
500 500 
Direct
-0.027180724980111128 0.0002506586287457846 -0.02696237811683206
0.0045258762179968435 0.07588352989840606 0.11805974405518777
0.10560325949029195 0.002715875677501192 0.12387795859260053
0.07156496823706482 0.08628240312692148 -0.008374120848639146
0.1728192750198889 0.0002506586287457846 -0.02696237811683206
0.20452587621799687 0.07588352989840606 0.11805974405518777
0.305603259490292 0.002715875677501192 0.12387795859260053
0.27156496823706483 0.08628240312692148 -0.008374120848639146
0.3728192750198889 0.0002506586287457846 -0.02696237811683206
0.40452587621799685 0.07588352989840606 0.11805974405518777
0.5056032594902921 0.002715875677501192 0.12387795859260053
0.47156496823706484 0.08628240312692148 -0.008374120848639146
0.5728192750198889 0.0002506586287457846 -0.02696237811683206
0.6045258762179969 0.07588352989840606 0.11805974405518777
0.705603259490292 0.002715875677501192 0.12387795859260053
0.6715649682370648 0.08628240312692148 -0.008374120848639146
0.7728192750198889 0.0002506586287457846 -0.02696237811683206
0.8045258762179968 0.07588352989840606 0.11805974405518777
0.9056032594902921 0.002715875677501192 0.12387795859260053
0.8715649682370649 0.08628240312692148 -0.008374120848639146
-0.027180724980111128 0.2002506586287458 -0.02696237811683206
0.0045258762179968435 0.2758835298984061 0.11805974405518777
0.10560325949029195 0.2027158756775012 0.12387795859260053
0.07156496823706482 0.2862824031269215 -0.008374120848639146
0.1728192750198889 0.2002506586287458 -0.02696237811683206
0.20452587621799687 0.2758835298984061 0.11805974405518777
0.305603259490292 0.2027158756775012 0.12387795859260053
0.27156496823706483 0.2862824031269215 -0.008374120848639146
0.3728192750198889 0.2002506586287458 -0.02696237811683206
0.40452587621799685 0.2758835298984061 0.11805974405518777
0.5056032594902921 0.2027158756775012 0.12387795859260053
0.47156496823706484 0.2862824031269215 -0.008374120848639146
0.5728192750198889 0.2002506586287458 -0.02696237811683206
0.6045258762179969 0.2758835298984061 0.11805974405518777
0.705603259490292 0.2027158756775012 0.12387795859260053
0.6715649682370648 0.2862824031269215 -0.008374120848639146
0.7728192750198889 0.2002506586287458 -0.02696237811683206
0.8045258762179968 0.2758835298984061 0.11805974405518777
0.9056032594902921 0.2027158756775012 0.12387795859260053
0.8715649682370649 0.2862824031269215 -0.008374120848639146
-0.027180724980111128 0.4002506586287458 -0.02696237811683206
0.0045258762179968435 0.47588352989840604 0.11805974405518777
0.10560325949029195 0.40271587567750117 0.12387795859260053
0.07156496823706482 0.4862824031269215 -0.008374120848639146
0.1728192750198889 0.4002506586287458 -0.02696237811683206
0.20452587621799687 0.47588352989840604 0.11805974405518777
0.305603259490292 0.40271587567750117 0.12387795859260053
0.27156496823706483 0.4862824031269215 -0.008374120848639146
0.3728192750198889 0.4002506586287458 -0.02696237811683206
0.40452587621799685 0.47588352989840604 0.11805974405518777
0.5056032594902921 0.40271587567750117 0.12387795859260053
0.47156496823706484 0.4862824031269215 -0.008374120848639146
0.5728192750198889 0.4002506586287458 -0.02696237811683206
0.6045258762179969 0.47588352989840604 0.11805974405518777
0.705603259490292 0.40271587567750117 0.12387795859260053
0.6715649682370648 0.4862824031269215 -0.008374120848639146
0.7728192750198889 0.4002506586287458 -0.02696237811683206
0.8045258762179968 0.47588352989840604 0.11805974405518777
0.9056032594902921 0.40271587567750117 0.12387795859260053
0.8715649682370649 0.4862824031269215 -0.008374120848639146
-0.027180724980111128 0.6002506586287458 -0.02696237811683206
0.0045258762179968435 0.675883529898406 0.11805974405518777
0.10560325949029195 0.6027158756775012 0.12387795859260053
0.07156496823706482 0.6862824031269215 -0.008374120848639146
0.1728192750198889 0.6002506586287458 -0.02696237811683206
0.20452587621799687 0.675883529898406 0.11805974405518777
0.305603259490292 0.6027158756775012 0.12387795859260053
0.27156496823706483 0.6862824031269215 -0.008374120848639146
0.3728192750198889 0.6002506586287458 -0.02696237811683206
0.40452587621799685 0.675883529898406 0.11805974405518777
0.5056032594902921 0.6027158756775012 0.12387795859260053
0.47156496823706484 0.6862824031269215 -0.008374120848639146
0.5728192750198889 0.6002506586287458 -0.02696237811683206
0.6045258762179969 0.675883529898406 0.11805974405518777
0.705603259490292 0.6027158756775012 0.12387795859260053
0.6715649682370648 0.6862824031269215 -0.008374120848639146
0.7728192750198889 0.6002506586287458 -0.02696237811683206
0.8045258762179968 0.675883529898406 0.11805974405518777
0.9056032594902921 0.6027158756775012 0.12387795859260053
0.8715649682370649 0.6862824031269215 -0.008374120848639146
-0.027180724980111128 0.8002506586287459 -0.02696237811683206
0.0045258762179968435 0.875883529898406 0.11805974405518777
0.10560325949029195 0.8027158756775012 0.12387795859260053
0.07156496823706482 0.8862824031269215 -0.008374120848639146
0.1728192750198889 0.8002506586287459 -0.02696237811683206
0.20452587621799687 0.875883529898406 0.11805974405518777
0.305603259490292 0.8027158756775012 0.12387795859260053
0.27156496823706483 0.8862824031269215 -0.008374120848639146
0.3728192750198889 0.8002506586287459 -0.02696237811683206
0.40452587621799685 0.875883529898406 0.11805974405518777
0.5056032594902921 0.8027158756775012 0.12387795859260053
0.47156496823706484 0.8862824031269215 -0.008374120848639146
0.5728192750198889 0.8002506586287459 -0.02696237811683206
0.6045258762179969 0.875883529898406 0.11805974405518777
0.705603259490292 0.8027158756775012 0.12387795859260053
0.6715649682370648 0.8862824031269215 -0.008374120848639146
0.7728192750198889 0.8002506586287459 -0.02696237811683206
0.8045258762179968 0.875883529898406 0.11805974405518777
0.9056032594902921 0.8027158756775012 0.12387795859260053
0.8715649682370649 0.8862824031269215 -0.008374120848639146
-0.027180724980111128 0.0002506586287457846 0.17303762188316796
0.0045258762179968435 0.07588352989840606 0.3180597440551878
0.10560325949029195 0.002715875677501192 0.3238779585926006
0.07156496823706482 0.08628240312692148 0.19162587915136087
0.1728192750198889 0.0002506586287457846 0.17303762188316796
0.20452587621799687 0.07588352989840606 0.3180597440551878
0.305603259490292 0.002715875677501192 0.3238779585926006
0.27156496823706483 0.08628240312692148 0.19162587915136087
0.3728192750198889 0.0002506586287457846 0.17303762188316796
0.40452587621799685 0.07588352989840606 0.3180597440551878
0.5056032594902921 0.002715875677501192 0.3238779585926006
0.47156496823706484 0.08628240312692148 0.19162587915136087
0.5728192750198889 0.0002506586287457846 0.17303762188316796
0.6045258762179969 0.07588352989840606 0.3180597440551878
0.705603259490292 0.002715875677501192 0.3238779585926006
0.6715649682370648 0.08628240312692148 0.19162587915136087
0.7728192750198889 0.0002506586287457846 0.17303762188316796
0.8045258762179968 0.07588352989840606 0.3180597440551878
0.9056032594902921 0.002715875677501192 0.3238779585926006
0.8715649682370649 0.08628240312692148 0.19162587915136087
-0.027180724980111128 0.2002506586287458 0.17303762188316796
0.0045258762179968435 0.2758835298984061 0.3180597440551878
0.10560325949029195 0.2027158756775012 0.3238779585926006
0.07156496823706482 0.2862824031269215 0.19162587915136087
0.1728192750198889 0.2002506586287458 0.17303762188316796
0.20452587621799687 0.2758835298984061 0.3180597440551878
0.305603259490292 0.2027158756775012 0.3238779585926006
0.27156496823706483 0.2862824031269215 0.19162587915136087
0.3728192750198889 0.2002506586287458 0.17303762188316796
0.40452587621799685 0.2758835298984061 0.3180597440551878
0.5056032594902921 0.2027158756775012 0.3238779585926006
0.47156496823706484 0.2862824031269215 0.19162587915136087
0.5728192750198889 0.2002506586287458 0.17303762188316796
0.6045258762179969 0.2758835298984061 0.3180597440551878
0.705603259490292 0.2027158756775012 0.3238779585926006
0.6715649682370648 0.2862824031269215 0.19162587915136087
0.7728192750198889 0.2002506586287458 0.17303762188316796
0.8045258762179968 0.2758835298984061 0.3180597440551878
0.9056032594902921 0.2027158756775012 0.3238779585926006
0.8715649682370649 0.2862824031269215 0.19162587915136087
-0.027180724980111128 0.4002506586287458 0.17303762188316796
0.0045258762179968435 0.47588352989840604 0.3180597440551878
0.10560325949029195 0.40271587567750117 0.3238779585926006
0.07156496823706482 0.4862824031269215 0.19162587915136087
0.1728192750198889 0.4002506586287458 0.17303762188316796
0.20452587621799687 0.47588352989840604 0.3180597440551878
0.305603259490292 0.40271587567750117 0.3238779585926006
0.27156496823706483 0.4862824031269215 0.19162587915136087
0.3728192750198889 0.4002506586287458 0.17303762188316796
0.40452587621799685 0.47588352989840604 0.3180597440551878
0.5056032594902921 0.40271587567750117 0.3238779585926006
0.47156496823706484 0.4862824031269215 0.19162587915136087
0.5728192750198889 0.4002506586287458 0.17303762188316796
0.6045258762179969 0.47588352989840604 0.3180597440551878
0.705603259490292 0.40271587567750117 0.3238779585926006
0.6715649682370648 0.4862824031269215 0.19162587915136087
0.7728192750198889 0.4002506586287458 0.17303762188316796
0.8045258762179968 0.47588352989840604 0.3180597440551878
0.9056032594902921 0.40271587567750117 0.3238779585926006
0.8715649682370649 0.4862824031269215 0.19162587915136087
-0.027180724980111128 0.6002506586287458 0.17303762188316796
0.0045258762179968435 0.675883529898406 0.3180597440551878
0.10560325949029195 0.6027158756775012 0.3238779585926006
0.07156496823706482 0.6862824031269215 0.19162587915136087
0.1728192750198889 0.6002506586287458 0.17303762188316796
0.20452587621799687 0.675883529898406 0.3180597440551878
0.305603259490292 0.6027158756775012 0.3238779585926006
0.27156496823706483 0.6862824031269215 0.19162587915136087
0.3728192750198889 0.6002506586287458 0.17303762188316796
0.40452587621799685 0.675883529898406 0.3180597440551878
0.5056032594902921 0.6027158756775012 0.3238779585926006
0.47156496823706484 0.6862824031269215 0.19162587915136087
0.5728192750198889 0.6002506586287458 0.17303762188316796
0.6045258762179969 0.675883529898406 0.3180597440551878
0.705603259490292 0.6027158756775012 0.3238779585926006
0.6715649682370648 0.6862824031269215 0.19162587915136087
0.7728192750198889 0.6002506586287458 0.17303762188316796
0.8045258762179968 0.675883529898406 0.3180597440551878
0.9056032594902921 0.6027158756775012 0.3238779585926006
0.8715649682370649 0.6862824031269215 0.19162587915136087
-0.027180724980111128 0.8002506586287459 0.17303762188316796
0.0045258762179968435 0.875883529898406 0.3180597440551878
0.10560325949029195 0.8027158756775012 0.3238779585926006
0.07156496823706482 0.8862824031269215 0.19162587915136087
0.1728192750198889 0.8002506586287459 0.17303762188316796
0.20452587621799687 0.875883529898406 0.3180597440551878
0.305603259490292 0.8027158756775012 0.3238779585926006
0.27156496823706483 0.8862824031269215 0.19162587915136087
0.3728192750198889 0.8002506586287459 0.17303762188316796
0.40452587621799685 0.875883529898406 0.3180597440551878
0.5056032594902921 0.8027158756775012 0.3238779585926006
0.47156496823706484 0.8862824031269215 0.19162587915136087
0.5728192750198889 0.8002506586287459 0.17303762188316796
0.6045258762179969 0.875883529898406 0.3180597440551878
0.705603259490292 0.8027158756775012 0.3238779585926006
0.6715649682370648 0.8862824031269215 0.19162587915136087
0.7728192750198889 0.8002506586287459 0.17303762188316796
0.8045258762179968 0.875883529898406 0.3180597440551878
0.9056032594902921 0.8027158756775012 0.3238779585926006
0.8715649682370649 0.8862824031269215 0.19162587915136087
-0.027180724980111128 0.0002506586287457846 0.37303762188316797
0.0045258762179968435 0.07588352989840606 0.5180597440551877
0.10560325949029195 0.002715875677501192 0.5238779585926006
0.07156496823706482 0.08628240312692148 0.3916258791513609
0.1728192750198889 0.0002506586287457846 0.37303762188316797
0.20452587621799687 0.07588352989840606 0.5180597440551877
0.305603259490292 0.002715875677501192 0.5238779585926006
0.27156496823706483 0.08628240312692148 0.3916258791513609
0.3728192750198889 0.0002506586287457846 0.37303762188316797
0.40452587621799685 0.07588352989840606 0.5180597440551877
0.5056032594902921 0.002715875677501192 0.5238779585926006
0.47156496823706484 0.08628240312692148 0.3916258791513609
0.5728192750198889 0.0002506586287457846 0.37303762188316797
0.6045258762179969 0.07588352989840606 0.5180597440551877
0.705603259490292 0.002715875677501192 0.5238779585926006
0.6715649682370648 0.08628240312692148 0.3916258791513609
0.7728192750198889 0.0002506586287457846 0.37303762188316797
0.8045258762179968 0.07588352989840606 0.5180597440551877
0.9056032594902921 0.002715875677501192 0.5238779585926006
0.8715649682370649 0.08628240312692148 0.3916258791513609
-0.027180724980111128 0.2002506586287458 0.37303762188316797
0.0045258762179968435 0.2758835298984061 0.5180597440551877
0.10560325949029195 0.2027158756775012 0.5238779585926006
0.07156496823706482 0.2862824031269215 0.3916258791513609
0.1728192750198889 0.2002506586287458 0.37303762188316797
0.20452587621799687 0.2758835298984061 0.5180597440551877
0.305603259490292 0.2027158756775012 0.5238779585926006
0.27156496823706483 0.2862824031269215 0.3916258791513609
0.3728192750198889 0.2002506586287458 0.37303762188316797
0.40452587621799685 0.2758835298984061 0.5180597440551877
0.5056032594902921 0.2027158756775012 0.5238779585926006
0.47156496823706484 0.2862824031269215 0.3916258791513609
0.5728192750198889 0.2002506586287458 0.37303762188316797
0.6045258762179969 0.2758835298984061 0.5180597440551877
0.705603259490292 0.2027158756775012 0.5238779585926006
0.6715649682370648 0.2862824031269215 0.3916258791513609
0.7728192750198889 0.2002506586287458 0.37303762188316797
0.8045258762179968 0.2758835298984061 0.5180597440551877
0.9056032594902921 0.2027158756775012 0.5238779585926006
0.8715649682370649 0.2862824031269215 0.3916258791513609
-0.027180724980111128 0.4002506586287458 0.37303762188316797
0.0045258762179968435 0.47588352989840604 0.5180597440551877
0.10560325949029195 0.40271587567750117 0.5238779585926006
0.07156496823706482 0.4862824031269215 0.3916258791513609
0.1728192750198889 0.4002506586287458 0.37303762188316797
0.20452587621799687 0.47588352989840604 0.5180597440551877
0.305603259490292 0.40271587567750117 0.5238779585926006
0.27156496823706483 0.4862824031269215 0.3916258791513609
0.3728192750198889 0.4002506586287458 0.37303762188316797
0.40452587621799685 0.47588352989840604 0.5180597440551877
0.5056032594902921 0.40271587567750117 0.5238779585926006
0.47156496823706484 0.4862824031269215 0.3916258791513609
0.5728192750198889 0.4002506586287458 0.37303762188316797
0.6045258762179969 0.47588352989840604 0.5180597440551877
0.705603259490292 0.40271587567750117 0.5238779585926006
0.6715649682370648 0.4862824031269215 0.3916258791513609
0.7728192750198889 0.4002506586287458 0.37303762188316797
0.8045258762179968 0.47588352989840604 0.5180597440551877
0.9056032594902921 0.40271587567750117 0.5238779585926006
0.8715649682370649 0.4862824031269215 0.3916258791513609
-0.027180724980111128 0.6002506586287458 0.37303762188316797
0.0045258762179968435 0.675883529898406 0.5180597440551877
0.10560325949029195 0.6027158756775012 0.5238779585926006
0.07156496823706482 0.6862824031269215 0.3916258791513609
0.1728192750198889 0.6002506586287458 0.37303762188316797
0.20452587621799687 0.675883529898406 0.5180597440551877
0.305603259490292 0.6027158756775012 0.5238779585926006
0.27156496823706483 0.6862824031269215 0.3916258791513609
0.3728192750198889 0.6002506586287458 0.37303762188316797
0.40452587621799685 0.675883529898406 0.5180597440551877
0.5056032594902921 0.6027158756775012 0.5238779585926006
0.47156496823706484 0.6862824031269215 0.3916258791513609
0.5728192750198889 0.6002506586287458 0.37303762188316797
0.6045258762179969 0.675883529898406 0.5180597440551877
0.705603259490292 0.6027158756775012 0.5238779585926006
0.6715649682370648 0.6862824031269215 0.3916258791513609
0.7728192750198889 0.6002506586287458 0.37303762188316797
0.8045258762179968 0.675883529898406 0.5180597440551877
0.9056032594902921 0.6027158756775012 0.5238779585926006
0.8715649682370649 0.6862824031269215 0.3916258791513609
-0.027180724980111128 0.8002506586287459 0.37303762188316797
0.0045258762179968435 0.875883529898406 0.5180597440551877
0.10560325949029195 0.8027158756775012 0.5238779585926006
0.07156496823706482 0.8862824031269215 0.3916258791513609
0.1728192750198889 0.8002506586287459 0.37303762188316797
0.20452587621799687 0.875883529898406 0.5180597440551877
0.305603259490292 0.8027158756775012 0.5238779585926006
0.27156496823706483 0.8862824031269215 0.3916258791513609
0.3728192750198889 0.8002506586287459 0.37303762188316797
0.40452587621799685 0.875883529898406 0.5180597440551877
0.5056032594902921 0.8027158756775012 0.5238779585926006
0.47156496823706484 0.8862824031269215 0.3916258791513609
0.5728192750198889 0.8002506586287459 0.37303762188316797
0.6045258762179969 0.875883529898406 0.5180597440551877
0.705603259490292 0.8027158756775012 0.5238779585926006
0.6715649682370648 0.8862824031269215 0.3916258791513609
0.7728192750198889 0.8002506586287459 0.37303762188316797
0.8045258762179968 0.875883529898406 0.5180597440551877
0.9056032594902921 0.8027158756775012 0.5238779585926006
0.8715649682370649 0.8862824031269215 0.3916258791513609
-0.027180724980111128 0.0002506586287457846 0.573037621883168
0.0045258762179968435 0.07588352989840606 0.7180597440551878
0.10560325949029195 0.002715875677501192 0.7238779585926006
0.07156496823706482 0.08628240312692148 0.5916258791513609
0.1728192750198889 0.0002506586287457846 0.573037621883168
0.20452587621799687 0.07588352989840606 0.7180597440551878
0.305603259490292 0.002715875677501192 0.7238779585926006
0.27156496823706483 0.08628240312692148 0.5916258791513609
0.3728192750198889 0.0002506586287457846 0.573037621883168
0.40452587621799685 0.07588352989840606 0.7180597440551878
0.5056032594902921 0.002715875677501192 0.7238779585926006
0.47156496823706484 0.08628240312692148 0.5916258791513609
0.5728192750198889 0.0002506586287457846 0.573037621883168
0.6045258762179969 0.07588352989840606 0.7180597440551878
0.705603259490292 0.002715875677501192 0.7238779585926006
0.6715649682370648 0.08628240312692148 0.5916258791513609
0.7728192750198889 0.0002506586287457846 0.573037621883168
0.8045258762179968 0.07588352989840606 0.7180597440551878
0.9056032594902921 0.002715875677501192 0.7238779585926006
0.8715649682370649 0.08628240312692148 0.5916258791513609
-0.027180724980111128 0.2002506586287458 0.573037621883168
0.0045258762179968435 0.2758835298984061 0.7180597440551878
0.10560325949029195 0.2027158756775012 0.7238779585926006
0.07156496823706482 0.2862824031269215 0.5916258791513609
0.1728192750198889 0.2002506586287458 0.573037621883168
0.20452587621799687 0.2758835298984061 0.7180597440551878
0.305603259490292 0.2027158756775012 0.7238779585926006
0.27156496823706483 0.2862824031269215 0.5916258791513609
0.3728192750198889 0.2002506586287458 0.573037621883168
0.40452587621799685 0.2758835298984061 0.7180597440551878
0.5056032594902921 0.2027158756775012 0.7238779585926006
0.47156496823706484 0.2862824031269215 0.5916258791513609
0.5728192750198889 0.2002506586287458 0.573037621883168
0.6045258762179969 0.2758835298984061 0.7180597440551878
0.705603259490292 0.2027158756775012 0.7238779585926006
0.6715649682370648 0.2862824031269215 0.5916258791513609
0.7728192750198889 0.2002506586287458 0.573037621883168
0.8045258762179968 0.2758835298984061 0.7180597440551878
0.9056032594902921 0.2027158756775012 0.7238779585926006
0.8715649682370649 0.2862824031269215 0.5916258791513609
-0.027180724980111128 0.4002506586287458 0.573037621883168
0.0045258762179968435 0.47588352989840604 0.7180597440551878
0.10560325949029195 0.40271587567750117 0.7238779585926006
0.07156496823706482 0.4862824031269215 0.5916258791513609
0.1728192750198889 0.4002506586287458 0.573037621883168
0.20452587621799687 0.47588352989840604 0.7180597440551878
0.305603259490292 0.40271587567750117 0.7238779585926006
0.27156496823706483 0.4862824031269215 0.5916258791513609
0.3728192750198889 0.4002506586287458 0.573037621883168
0.40452587621799685 0.47588352989840604 0.7180597440551878
0.5056032594902921 0.40271587567750117 0.7238779585926006
0.47156496823706484 0.4862824031269215 0.5916258791513609
0.5728192750198889 0.4002506586287458 0.573037621883168
0.6045258762179969 0.47588352989840604 0.7180597440551878
0.705603259490292 0.40271587567750117 0.7238779585926006
0.6715649682370648 0.4862824031269215 0.5916258791513609
0.7728192750198889 0.4002506586287458 0.573037621883168
0.8045258762179968 0.47588352989840604 0.7180597440551878
0.9056032594902921 0.40271587567750117 0.7238779585926006
0.8715649682370649 0.4862824031269215 0.5916258791513609
-0.027180724980111128 0.6002506586287458 0.573037621883168
0.0045258762179968435 0.675883529898406 0.7180597440551878
0.10560325949029195 0.6027158756775012 0.7238779585926006
0.07156496823706482 0.6862824031269215 0.5916258791513609
0.1728192750198889 0.6002506586287458 0.573037621883168
0.20452587621799687 0.675883529898406 0.7180597440551878
0.305603259490292 0.6027158756775012 0.7238779585926006
0.27156496823706483 0.6862824031269215 0.5916258791513609
0.3728192750198889 0.6002506586287458 0.573037621883168
0.40452587621799685 0.675883529898406 0.7180597440551878
0.5056032594902921 0.6027158756775012 0.7238779585926006
0.47156496823706484 0.6862824031269215 0.5916258791513609
0.5728192750198889 0.6002506586287458 0.573037621883168
0.6045258762179969 0.675883529898406 0.7180597440551878
0.705603259490292 0.6027158756775012 0.7238779585926006
0.6715649682370648 0.6862824031269215 0.5916258791513609
0.7728192750198889 0.6002506586287458 0.573037621883168
0.8045258762179968 0.675883529898406 0.7180597440551878
0.9056032594902921 0.6027158756775012 0.7238779585926006
0.8715649682370649 0.6862824031269215 0.5916258791513609
-0.027180724980111128 0.8002506586287459 0.573037621883168
0.0045258762179968435 0.875883529898406 0.7180597440551878
0.10560325949029195 0.8027158756775012 0.7238779585926006
0.07156496823706482 0.8862824031269215 0.5916258791513609
0.1728192750198889 0.8002506586287459 0.573037621883168
0.20452587621799687 0.875883529898406 0.7180597440551878
0.305603259490292 0.8027158756775012 0.7238779585926006
0.27156496823706483 0.8862824031269215 0.5916258791513609
0.3728192750198889 0.8002506586287459 0.573037621883168
0.40452587621799685 0.875883529898406 0.7180597440551878
0.5056032594902921 0.8027158756775012 0.7238779585926006
0.47156496823706484 0.8862824031269215 0.5916258791513609
0.5728192750198889 0.8002506586287459 0.573037621883168
0.6045258762179969 0.875883529898406 0.7180597440551878
0.705603259490292 0.8027158756775012 0.7238779585926006
0.6715649682370648 0.8862824031269215 0.5916258791513609
0.7728192750198889 0.8002506586287459 0.573037621883168
0.8045258762179968 0.875883529898406 0.7180597440551878
0.9056032594902921 0.8027158756775012 0.7238779585926006
0.8715649682370649 0.8862824031269215 0.5916258791513609
-0.027180724980111128 0.0002506586287457846 0.773037621883168
0.0045258762179968435 0.07588352989840606 0.9180597440551879
0.10560325949029195 0.002715875677501192 0.9238779585926006
0.07156496823706482 0.08628240312692148 0.7916258791513608
0.1728192750198889 0.0002506586287457846 0.773037621883168
0.20452587621799687 0.07588352989840606 0.9180597440551879
0.305603259490292 0.002715875677501192 0.9238779585926006
0.27156496823706483 0.08628240312692148 0.7916258791513608
0.3728192750198889 0.0002506586287457846 0.773037621883168
0.40452587621799685 0.07588352989840606 0.9180597440551879
0.5056032594902921 0.002715875677501192 0.9238779585926006
0.47156496823706484 0.08628240312692148 0.7916258791513608
0.5728192750198889 0.0002506586287457846 0.773037621883168
0.6045258762179969 0.07588352989840606 0.9180597440551879
0.705603259490292 0.002715875677501192 0.9238779585926006
0.6715649682370648 0.08628240312692148 0.7916258791513608
0.7728192750198889 0.0002506586287457846 0.773037621883168
0.8045258762179968 0.07588352989840606 0.9180597440551879
0.9056032594902921 0.002715875677501192 0.9238779585926006
0.8715649682370649 0.08628240312692148 0.7916258791513608
-0.027180724980111128 0.2002506586287458 0.773037621883168
0.0045258762179968435 0.2758835298984061 0.9180597440551879
0.10560325949029195 0.2027158756775012 0.9238779585926006
0.07156496823706482 0.2862824031269215 0.7916258791513608
0.1728192750198889 0.2002506586287458 0.773037621883168
0.20452587621799687 0.2758835298984061 0.9180597440551879
0.305603259490292 0.2027158756775012 0.9238779585926006
0.27156496823706483 0.2862824031269215 0.7916258791513608
0.3728192750198889 0.2002506586287458 0.773037621883168
0.40452587621799685 0.2758835298984061 0.9180597440551879
0.5056032594902921 0.2027158756775012 0.9238779585926006
0.47156496823706484 0.2862824031269215 0.7916258791513608
0.5728192750198889 0.2002506586287458 0.773037621883168
0.6045258762179969 0.2758835298984061 0.9180597440551879
0.705603259490292 0.2027158756775012 0.9238779585926006
0.6715649682370648 0.2862824031269215 0.7916258791513608
0.7728192750198889 0.2002506586287458 0.773037621883168
0.8045258762179968 0.2758835298984061 0.9180597440551879
0.9056032594902921 0.2027158756775012 0.9238779585926006
0.8715649682370649 0.2862824031269215 0.7916258791513608
-0.027180724980111128 0.4002506586287458 0.773037621883168
0.0045258762179968435 0.47588352989840604 0.9180597440551879
0.10560325949029195 0.40271587567750117 0.9238779585926006
0.07156496823706482 0.4862824031269215 0.7916258791513608
0.1728192750198889 0.4002506586287458 0.773037621883168
0.20452587621799687 0.47588352989840604 0.9180597440551879
0.305603259490292 0.40271587567750117 0.9238779585926006
0.27156496823706483 0.4862824031269215 0.7916258791513608
0.3728192750198889 0.4002506586287458 0.773037621883168
0.40452587621799685 0.47588352989840604 0.9180597440551879
0.5056032594902921 0.40271587567750117 0.9238779585926006
0.47156496823706484 0.4862824031269215 0.7916258791513608
0.5728192750198889 0.4002506586287458 0.773037621883168
0.6045258762179969 0.47588352989840604 0.9180597440551879
0.705603259490292 0.40271587567750117 0.9238779585926006
0.6715649682370648 0.4862824031269215 0.7916258791513608
0.7728192750198889 0.4002506586287458 0.773037621883168
0.8045258762179968 0.47588352989840604 0.9180597440551879
0.9056032594902921 0.40271587567750117 0.9238779585926006
0.8715649682370649 0.4862824031269215 0.7916258791513608
-0.027180724980111128 0.6002506586287458 0.773037621883168
0.0045258762179968435 0.675883529898406 0.9180597440551879
0.10560325949029195 0.6027158756775012 0.9238779585926006
0.07156496823706482 0.6862824031269215 0.7916258791513608
0.1728192750198889 0.6002506586287458 0.773037621883168
0.20452587621799687 0.675883529898406 0.9180597440551879
0.305603259490292 0.6027158756775012 0.9238779585926006
0.27156496823706483 0.6862824031269215 0.7916258791513608
0.3728192750198889 0.6002506586287458 0.773037621883168
0.40452587621799685 0.675883529898406 0.9180597440551879
0.5056032594902921 0.6027158756775012 0.9238779585926006
0.47156496823706484 0.6862824031269215 0.7916258791513608
0.5728192750198889 0.6002506586287458 0.773037621883168
0.6045258762179969 0.675883529898406 0.9180597440551879
0.705603259490292 0.6027158756775012 0.9238779585926006
0.6715649682370648 0.6862824031269215 0.7916258791513608
0.7728192750198889 0.6002506586287458 0.773037621883168
0.8045258762179968 0.675883529898406 0.9180597440551879
0.9056032594902921 0.6027158756775012 0.9238779585926006
0.8715649682370649 0.6862824031269215 0.7916258791513608
-0.027180724980111128 0.8002506586287459 0.773037621883168
0.0045258762179968435 0.875883529898406 0.9180597440551879
0.10560325949029195 0.8027158756775012 0.9238779585926006
0.07156496823706482 0.8862824031269215 0.7916258791513608
0.1728192750198889 0.8002506586287459 0.773037621883168
0.20452587621799687 0.875883529898406 0.9180597440551879
0.305603259490292 0.8027158756775012 0.9238779585926006
0.27156496823706483 0.8862824031269215 0.7916258791513608
0.3728192750198889 0.8002506586287459 0.773037621883168
0.40452587621799685 0.875883529898406 0.9180597440551879
0.5056032594902921 0.8027158756775012 0.9238779585926006
0.47156496823706484 0.8862824031269215 0.7916258791513608
0.5728192750198889 0.8002506586287459 0.773037621883168
0.6045258762179969 0.875883529898406 0.9180597440551879
0.705603259490292 0.8027158756775012 0.9238779585926006
0.6715649682370648 0.8862824031269215 0.7916258791513608
0.7728192750198889 0.8002506586287459 0.773037621883168
0.8045258762179968 0.875883529898406 0.9180597440551879
0.9056032594902921 0.8027158756775012 0.9238779585926006
0.8715649682370649 0.8862824031269215 0.7916258791513608
0.09449906575096245 -0.014145037777404204 -0.0020215073961247767
0.003193409011705589 0.08170734264805675 -0.005212122823710668
-0.006963012792829202 -0.014591993995051109 0.1142574544964363
0.11398797884335338 0.07785637181435398 0.075080156441444
0.29449906575096246 -0.014145037777404204 -0.0020215073961247767
0.20319340901170557 0.08170734264805675 -0.005212122823710668
0.1930369872071708 -0.014591993995051109 0.1142574544964363
0.3139879788433534 0.07785637181435398 0.075080156441444
0.4944990657509625 -0.014145037777404204 -0.0020215073961247767
0.4031934090117056 0.08170734264805675 -0.005212122823710668
0.39303698720717084 -0.014591993995051109 0.1142574544964363
0.5139879788433535 0.07785637181435398 0.075080156441444
0.6944990657509624 -0.014145037777404204 -0.0020215073961247767
0.6031934090117056 0.08170734264805675 -0.005212122823710668
0.5930369872071708 -0.014591993995051109 0.1142574544964363
0.7139879788433534 0.07785637181435398 0.075080156441444
0.8944990657509625 -0.014145037777404204 -0.0020215073961247767
0.8031934090117057 0.08170734264805675 -0.005212122823710668
0.7930369872071709 -0.014591993995051109 0.1142574544964363
0.9139879788433535 0.07785637181435398 0.075080156441444
0.09449906575096245 0.1858549622225958 -0.0020215073961247767
0.003193409011705589 0.28170734264805675 -0.005212122823710668
-0.006963012792829202 0.1854080060049489 0.1142574544964363
0.11398797884335338 0.277856371814354 0.075080156441444
0.29449906575096246 0.1858549622225958 -0.0020215073961247767
0.20319340901170557 0.28170734264805675 -0.005212122823710668
0.1930369872071708 0.1854080060049489 0.1142574544964363
0.3139879788433534 0.277856371814354 0.075080156441444
0.4944990657509625 0.1858549622225958 -0.0020215073961247767
0.4031934090117056 0.28170734264805675 -0.005212122823710668
0.39303698720717084 0.1854080060049489 0.1142574544964363
0.5139879788433535 0.277856371814354 0.075080156441444
0.6944990657509624 0.1858549622225958 -0.0020215073961247767
0.6031934090117056 0.28170734264805675 -0.005212122823710668
0.5930369872071708 0.1854080060049489 0.1142574544964363
0.7139879788433534 0.277856371814354 0.075080156441444
0.8944990657509625 0.1858549622225958 -0.0020215073961247767
0.8031934090117057 0.28170734264805675 -0.005212122823710668
0.7930369872071709 0.1854080060049489 0.1142574544964363
0.9139879788433535 0.277856371814354 0.075080156441444
0.09449906575096245 0.3858549622225958 -0.0020215073961247767
0.003193409011705589 0.4817073426480567 -0.005212122823710668
-0.006963012792829202 0.38540800600494896 0.1142574544964363
0.11398797884335338 0.477856371814354 0.075080156441444
0.29449906575096246 0.3858549622225958 -0.0020215073961247767
0.20319340901170557 0.4817073426480567 -0.005212122823710668
0.1930369872071708 0.38540800600494896 0.1142574544964363
0.3139879788433534 0.477856371814354 0.075080156441444
0.4944990657509625 0.3858549622225958 -0.0020215073961247767
0.4031934090117056 0.4817073426480567 -0.005212122823710668
0.39303698720717084 0.38540800600494896 0.1142574544964363
0.5139879788433535 0.477856371814354 0.075080156441444
0.6944990657509624 0.3858549622225958 -0.0020215073961247767
0.6031934090117056 0.4817073426480567 -0.005212122823710668
0.5930369872071708 0.38540800600494896 0.1142574544964363
0.7139879788433534 0.477856371814354 0.075080156441444
0.8944990657509625 0.3858549622225958 -0.0020215073961247767
0.8031934090117057 0.4817073426480567 -0.005212122823710668
0.7930369872071709 0.38540800600494896 0.1142574544964363
0.9139879788433535 0.477856371814354 0.075080156441444
0.09449906575096245 0.5858549622225958 -0.0020215073961247767
0.003193409011705589 0.6817073426480568 -0.005212122823710668
-0.006963012792829202 0.5854080060049489 0.1142574544964363
0.11398797884335338 0.677856371814354 0.075080156441444
0.29449906575096246 0.5858549622225958 -0.0020215073961247767
0.20319340901170557 0.6817073426480568 -0.005212122823710668
0.1930369872071708 0.5854080060049489 0.1142574544964363
0.3139879788433534 0.677856371814354 0.075080156441444
0.4944990657509625 0.5858549622225958 -0.0020215073961247767
0.4031934090117056 0.6817073426480568 -0.005212122823710668
0.39303698720717084 0.5854080060049489 0.1142574544964363
0.5139879788433535 0.677856371814354 0.075080156441444
0.6944990657509624 0.5858549622225958 -0.0020215073961247767
0.6031934090117056 0.6817073426480568 -0.005212122823710668
0.5930369872071708 0.5854080060049489 0.1142574544964363
0.7139879788433534 0.677856371814354 0.075080156441444
0.8944990657509625 0.5858549622225958 -0.0020215073961247767
0.8031934090117057 0.6817073426480568 -0.005212122823710668
0.7930369872071709 0.5854080060049489 0.1142574544964363
0.9139879788433535 0.677856371814354 0.075080156441444
0.09449906575096245 0.7858549622225959 -0.0020215073961247767
0.003193409011705589 0.8817073426480567 -0.005212122823710668
-0.006963012792829202 0.7854080060049489 0.1142574544964363
0.11398797884335338 0.8778563718143539 0.075080156441444
0.29449906575096246 0.7858549622225959 -0.0020215073961247767
0.20319340901170557 0.8817073426480567 -0.005212122823710668
0.1930369872071708 0.7854080060049489 0.1142574544964363
0.3139879788433534 0.8778563718143539 0.075080156441444
0.4944990657509625 0.7858549622225959 -0.0020215073961247767
0.4031934090117056 0.8817073426480567 -0.005212122823710668
0.39303698720717084 0.7854080060049489 0.1142574544964363
0.5139879788433535 0.8778563718143539 0.075080156441444
0.6944990657509624 0.7858549622225959 -0.0020215073961247767
0.6031934090117056 0.8817073426480567 -0.005212122823710668
0.5930369872071708 0.7854080060049489 0.1142574544964363
0.7139879788433534 0.8778563718143539 0.075080156441444
0.8944990657509625 0.7858549622225959 -0.0020215073961247767
0.8031934090117057 0.8817073426480567 -0.005212122823710668
0.7930369872071709 0.7854080060049489 0.1142574544964363
0.9139879788433535 0.8778563718143539 0.075080156441444
0.09449906575096245 -0.014145037777404204 0.19797849260387523
0.003193409011705589 0.08170734264805675 0.19478787717628934
-0.006963012792829202 -0.014591993995051109 0.31425745449643633
0.11398797884335338 0.07785637181435398 0.275080156441444
0.29449906575096246 -0.014145037777404204 0.19797849260387523
0.20319340901170557 0.08170734264805675 0.19478787717628934
0.1930369872071708 -0.014591993995051109 0.31425745449643633
0.3139879788433534 0.07785637181435398 0.275080156441444
0.4944990657509625 -0.014145037777404204 0.19797849260387523
0.4031934090117056 0.08170734264805675 0.19478787717628934
0.39303698720717084 -0.014591993995051109 0.31425745449643633
0.5139879788433535 0.07785637181435398 0.275080156441444
0.6944990657509624 -0.014145037777404204 0.19797849260387523
0.6031934090117056 0.08170734264805675 0.19478787717628934
0.5930369872071708 -0.014591993995051109 0.31425745449643633
0.7139879788433534 0.07785637181435398 0.275080156441444
0.8944990657509625 -0.014145037777404204 0.19797849260387523
0.8031934090117057 0.08170734264805675 0.19478787717628934
0.7930369872071709 -0.014591993995051109 0.31425745449643633
0.9139879788433535 0.07785637181435398 0.275080156441444
0.09449906575096245 0.1858549622225958 0.19797849260387523
0.003193409011705589 0.28170734264805675 0.19478787717628934
-0.006963012792829202 0.1854080060049489 0.31425745449643633
0.11398797884335338 0.277856371814354 0.275080156441444
0.29449906575096246 0.1858549622225958 0.19797849260387523
0.20319340901170557 0.28170734264805675 0.19478787717628934
0.1930369872071708 0.1854080060049489 0.31425745449643633
0.3139879788433534 0.277856371814354 0.275080156441444
0.4944990657509625 0.1858549622225958 0.19797849260387523
0.4031934090117056 0.28170734264805675 0.19478787717628934
0.39303698720717084 0.1854080060049489 0.31425745449643633
0.5139879788433535 0.277856371814354 0.275080156441444
0.6944990657509624 0.1858549622225958 0.19797849260387523
0.6031934090117056 0.28170734264805675 0.19478787717628934
0.5930369872071708 0.1854080060049489 0.31425745449643633
0.7139879788433534 0.277856371814354 0.275080156441444
0.8944990657509625 0.1858549622225958 0.19797849260387523
0.8031934090117057 0.28170734264805675 0.19478787717628934
0.7930369872071709 0.1854080060049489 0.31425745449643633
0.9139879788433535 0.277856371814354 0.275080156441444
0.09449906575096245 0.3858549622225958 0.19797849260387523
0.003193409011705589 0.4817073426480567 0.19478787717628934
-0.006963012792829202 0.38540800600494896 0.31425745449643633
0.11398797884335338 0.477856371814354 0.275080156441444
0.29449906575096246 0.3858549622225958 0.19797849260387523
0.20319340901170557 0.4817073426480567 0.19478787717628934
0.1930369872071708 0.38540800600494896 0.31425745449643633
0.3139879788433534 0.477856371814354 0.275080156441444
0.4944990657509625 0.3858549622225958 0.19797849260387523
0.4031934090117056 0.4817073426480567 0.19478787717628934
0.39303698720717084 0.38540800600494896 0.31425745449643633
0.5139879788433535 0.477856371814354 0.275080156441444
0.6944990657509624 0.3858549622225958 0.19797849260387523
0.6031934090117056 0.4817073426480567 0.19478787717628934
0.5930369872071708 0.38540800600494896 0.31425745449643633
0.7139879788433534 0.477856371814354 0.275080156441444
0.8944990657509625 0.3858549622225958 0.19797849260387523
0.8031934090117057 0.4817073426480567 0.19478787717628934
0.7930369872071709 0.38540800600494896 0.31425745449643633
0.9139879788433535 0.477856371814354 0.275080156441444
0.09449906575096245 0.5858549622225958 0.19797849260387523
0.003193409011705589 0.6817073426480568 0.19478787717628934
-0.006963012792829202 0.5854080060049489 0.31425745449643633
0.11398797884335338 0.677856371814354 0.275080156441444
0.29449906575096246 0.5858549622225958 0.19797849260387523
0.20319340901170557 0.6817073426480568 0.19478787717628934
0.1930369872071708 0.5854080060049489 0.31425745449643633
0.3139879788433534 0.677856371814354 0.275080156441444
0.4944990657509625 0.5858549622225958 0.19797849260387523
0.4031934090117056 0.6817073426480568 0.19478787717628934
0.39303698720717084 0.5854080060049489 0.31425745449643633
0.5139879788433535 0.677856371814354 0.275080156441444
0.6944990657509624 0.5858549622225958 0.19797849260387523
0.6031934090117056 0.6817073426480568 0.19478787717628934
0.5930369872071708 0.5854080060049489 0.31425745449643633
0.7139879788433534 0.677856371814354 0.275080156441444
0.8944990657509625 0.5858549622225958 0.19797849260387523
0.8031934090117057 0.6817073426480568 0.19478787717628934
0.7930369872071709 0.5854080060049489 0.31425745449643633
0.9139879788433535 0.677856371814354 0.275080156441444
0.09449906575096245 0.7858549622225959 0.19797849260387523
0.003193409011705589 0.8817073426480567 0.19478787717628934
-0.006963012792829202 0.7854080060049489 0.31425745449643633
0.11398797884335338 0.8778563718143539 0.275080156441444
0.29449906575096246 0.7858549622225959 0.19797849260387523
0.20319340901170557 0.8817073426480567 0.19478787717628934
0.1930369872071708 0.7854080060049489 0.31425745449643633
0.3139879788433534 0.8778563718143539 0.275080156441444
0.4944990657509625 0.7858549622225959 0.19797849260387523
0.4031934090117056 0.8817073426480567 0.19478787717628934
0.39303698720717084 0.7854080060049489 0.31425745449643633
0.5139879788433535 0.8778563718143539 0.275080156441444
0.6944990657509624 0.7858549622225959 0.19797849260387523
0.6031934090117056 0.8817073426480567 0.19478787717628934
0.5930369872071708 0.7854080060049489 0.31425745449643633
0.7139879788433534 0.8778563718143539 0.275080156441444
0.8944990657509625 0.7858549622225959 0.19797849260387523
0.8031934090117057 0.8817073426480567 0.19478787717628934
0.7930369872071709 0.7854080060049489 0.31425745449643633
0.9139879788433535 0.8778563718143539 0.275080156441444
0.09449906575096245 -0.014145037777404204 0.39797849260387524
0.003193409011705589 0.08170734264805675 0.3947878771762894
-0.006963012792829202 -0.014591993995051109 0.5142574544964363
0.11398797884335338 0.07785637181435398 0.47508015644144397
0.29449906575096246 -0.014145037777404204 0.39797849260387524
0.20319340901170557 0.08170734264805675 0.3947878771762894
0.1930369872071708 -0.014591993995051109 0.5142574544964363
0.3139879788433534 0.07785637181435398 0.47508015644144397
0.4944990657509625 -0.014145037777404204 0.39797849260387524
0.4031934090117056 0.08170734264805675 0.3947878771762894
0.39303698720717084 -0.014591993995051109 0.5142574544964363
0.5139879788433535 0.07785637181435398 0.47508015644144397
0.6944990657509624 -0.014145037777404204 0.39797849260387524
0.6031934090117056 0.08170734264805675 0.3947878771762894
0.5930369872071708 -0.014591993995051109 0.5142574544964363
0.7139879788433534 0.07785637181435398 0.47508015644144397
0.8944990657509625 -0.014145037777404204 0.39797849260387524
0.8031934090117057 0.08170734264805675 0.3947878771762894
0.7930369872071709 -0.014591993995051109 0.5142574544964363
0.9139879788433535 0.07785637181435398 0.47508015644144397
0.09449906575096245 0.1858549622225958 0.39797849260387524
0.003193409011705589 0.28170734264805675 0.3947878771762894
-0.006963012792829202 0.1854080060049489 0.5142574544964363
0.11398797884335338 0.277856371814354 0.47508015644144397
0.29449906575096246 0.1858549622225958 0.39797849260387524
0.20319340901170557 0.28170734264805675 0.3947878771762894
0.1930369872071708 0.1854080060049489 0.5142574544964363
0.3139879788433534 0.277856371814354 0.47508015644144397
0.4944990657509625 0.1858549622225958 0.39797849260387524
0.4031934090117056 0.28170734264805675 0.3947878771762894
0.39303698720717084 0.1854080060049489 0.5142574544964363
0.5139879788433535 0.277856371814354 0.47508015644144397
0.6944990657509624 0.1858549622225958 0.39797849260387524
0.6031934090117056 0.28170734264805675 0.3947878771762894
0.5930369872071708 0.1854080060049489 0.5142574544964363
0.7139879788433534 0.277856371814354 0.47508015644144397
0.8944990657509625 0.1858549622225958 0.39797849260387524
0.8031934090117057 0.28170734264805675 0.3947878771762894
0.7930369872071709 0.1854080060049489 0.5142574544964363
0.9139879788433535 0.277856371814354 0.47508015644144397
0.09449906575096245 0.3858549622225958 0.39797849260387524
0.003193409011705589 0.4817073426480567 0.3947878771762894
-0.006963012792829202 0.38540800600494896 0.5142574544964363
0.11398797884335338 0.477856371814354 0.47508015644144397
0.29449906575096246 0.3858549622225958 0.39797849260387524
0.20319340901170557 0.4817073426480567 0.3947878771762894
0.1930369872071708 0.38540800600494896 0.5142574544964363
0.3139879788433534 0.477856371814354 0.47508015644144397
0.4944990657509625 0.3858549622225958 0.39797849260387524
0.4031934090117056 0.4817073426480567 0.3947878771762894
0.39303698720717084 0.38540800600494896 0.5142574544964363
0.5139879788433535 0.477856371814354 0.47508015644144397
0.6944990657509624 0.3858549622225958 0.39797849260387524
0.6031934090117056 0.4817073426480567 0.3947878771762894
0.5930369872071708 0.38540800600494896 0.5142574544964363
0.7139879788433534 0.477856371814354 0.47508015644144397
0.8944990657509625 0.3858549622225958 0.39797849260387524
0.8031934090117057 0.4817073426480567 0.3947878771762894
0.7930369872071709 0.38540800600494896 0.5142574544964363
0.9139879788433535 0.477856371814354 0.47508015644144397
0.09449906575096245 0.5858549622225958 0.39797849260387524
0.003193409011705589 0.6817073426480568 0.3947878771762894
-0.006963012792829202 0.5854080060049489 0.5142574544964363
0.11398797884335338 0.677856371814354 0.47508015644144397
0.29449906575096246 0.5858549622225958 0.39797849260387524
0.20319340901170557 0.6817073426480568 0.3947878771762894
0.1930369872071708 0.5854080060049489 0.5142574544964363
0.3139879788433534 0.677856371814354 0.47508015644144397
0.4944990657509625 0.5858549622225958 0.39797849260387524
0.4031934090117056 0.6817073426480568 0.3947878771762894
0.39303698720717084 0.5854080060049489 0.5142574544964363
0.5139879788433535 0.677856371814354 0.47508015644144397
0.6944990657509624 0.5858549622225958 0.39797849260387524
0.6031934090117056 0.6817073426480568 0.3947878771762894
0.5930369872071708 0.5854080060049489 0.5142574544964363
0.7139879788433534 0.677856371814354 0.47508015644144397
0.8944990657509625 0.5858549622225958 0.39797849260387524
0.8031934090117057 0.6817073426480568 0.3947878771762894
0.7930369872071709 0.5854080060049489 0.5142574544964363
0.9139879788433535 0.677856371814354 0.47508015644144397
0.09449906575096245 0.7858549622225959 0.39797849260387524
0.003193409011705589 0.8817073426480567 0.3947878771762894
-0.006963012792829202 0.7854080060049489 0.5142574544964363
0.11398797884335338 0.8778563718143539 0.47508015644144397
0.29449906575096246 0.7858549622225959 0.39797849260387524
0.20319340901170557 0.8817073426480567 0.3947878771762894
0.1930369872071708 0.7854080060049489 0.5142574544964363
0.3139879788433534 0.8778563718143539 0.47508015644144397
0.4944990657509625 0.7858549622225959 0.39797849260387524
0.4031934090117056 0.8817073426480567 0.3947878771762894
0.39303698720717084 0.7854080060049489 0.5142574544964363
0.5139879788433535 0.8778563718143539 0.47508015644144397
0.6944990657509624 0.7858549622225959 0.39797849260387524
0.6031934090117056 0.8817073426480567 0.3947878771762894
0.5930369872071708 0.7854080060049489 0.5142574544964363
0.7139879788433534 0.8778563718143539 0.47508015644144397
0.8944990657509625 0.7858549622225959 0.39797849260387524
0.8031934090117057 0.8817073426480567 0.3947878771762894
0.7930369872071709 0.7854080060049489 0.5142574544964363
0.9139879788433535 0.8778563718143539 0.47508015644144397
0.09449906575096245 -0.014145037777404204 0.5979784926038753
0.003193409011705589 0.08170734264805675 0.5947878771762893
-0.006963012792829202 -0.014591993995051109 0.7142574544964364
0.11398797884335338 0.07785637181435398 0.675080156441444
0.29449906575096246 -0.014145037777404204 0.5979784926038753
0.20319340901170557 0.08170734264805675 0.5947878771762893
0.1930369872071708 -0.014591993995051109 0.7142574544964364
0.3139879788433534 0.07785637181435398 0.675080156441444
0.4944990657509625 -0.014145037777404204 0.5979784926038753
0.4031934090117056 0.08170734264805675 0.5947878771762893
0.39303698720717084 -0.014591993995051109 0.7142574544964364
0.5139879788433535 0.07785637181435398 0.675080156441444
0.6944990657509624 -0.014145037777404204 0.5979784926038753
0.6031934090117056 0.08170734264805675 0.5947878771762893
0.5930369872071708 -0.014591993995051109 0.7142574544964364
0.7139879788433534 0.07785637181435398 0.675080156441444
0.8944990657509625 -0.014145037777404204 0.5979784926038753
0.8031934090117057 0.08170734264805675 0.5947878771762893
0.7930369872071709 -0.014591993995051109 0.7142574544964364
0.9139879788433535 0.07785637181435398 0.675080156441444
0.09449906575096245 0.1858549622225958 0.5979784926038753
0.003193409011705589 0.28170734264805675 0.5947878771762893
-0.006963012792829202 0.1854080060049489 0.7142574544964364
0.11398797884335338 0.277856371814354 0.675080156441444
0.29449906575096246 0.1858549622225958 0.5979784926038753
0.20319340901170557 0.28170734264805675 0.5947878771762893
0.1930369872071708 0.1854080060049489 0.7142574544964364
0.3139879788433534 0.277856371814354 0.675080156441444
0.4944990657509625 0.1858549622225958 0.5979784926038753
0.4031934090117056 0.28170734264805675 0.5947878771762893
0.39303698720717084 0.1854080060049489 0.7142574544964364
0.5139879788433535 0.277856371814354 0.675080156441444
0.6944990657509624 0.1858549622225958 0.5979784926038753
0.6031934090117056 0.28170734264805675 0.5947878771762893
0.5930369872071708 0.1854080060049489 0.7142574544964364
0.7139879788433534 0.277856371814354 0.675080156441444
0.8944990657509625 0.1858549622225958 0.5979784926038753
0.8031934090117057 0.28170734264805675 0.5947878771762893
0.7930369872071709 0.1854080060049489 0.7142574544964364
0.9139879788433535 0.277856371814354 0.675080156441444
0.09449906575096245 0.3858549622225958 0.5979784926038753
0.003193409011705589 0.4817073426480567 0.5947878771762893
-0.006963012792829202 0.38540800600494896 0.7142574544964364
0.11398797884335338 0.477856371814354 0.675080156441444
0.29449906575096246 0.3858549622225958 0.5979784926038753
0.20319340901170557 0.4817073426480567 0.5947878771762893
0.1930369872071708 0.38540800600494896 0.7142574544964364
0.3139879788433534 0.477856371814354 0.675080156441444
0.4944990657509625 0.3858549622225958 0.5979784926038753
0.4031934090117056 0.4817073426480567 0.5947878771762893
0.39303698720717084 0.38540800600494896 0.7142574544964364
0.5139879788433535 0.477856371814354 0.675080156441444
0.6944990657509624 0.3858549622225958 0.5979784926038753
0.6031934090117056 0.4817073426480567 0.5947878771762893
0.5930369872071708 0.38540800600494896 0.7142574544964364
0.7139879788433534 0.477856371814354 0.675080156441444
0.8944990657509625 0.3858549622225958 0.5979784926038753
0.8031934090117057 0.4817073426480567 0.5947878771762893
0.7930369872071709 0.38540800600494896 0.7142574544964364
0.9139879788433535 0.477856371814354 0.675080156441444
0.09449906575096245 0.5858549622225958 0.5979784926038753
0.003193409011705589 0.6817073426480568 0.5947878771762893
-0.006963012792829202 0.5854080060049489 0.7142574544964364
0.11398797884335338 0.677856371814354 0.675080156441444
0.29449906575096246 0.5858549622225958 0.5979784926038753
0.20319340901170557 0.6817073426480568 0.5947878771762893
0.1930369872071708 0.5854080060049489 0.7142574544964364
0.3139879788433534 0.677856371814354 0.675080156441444
0.4944990657509625 0.5858549622225958 0.5979784926038753
0.4031934090117056 0.6817073426480568 0.5947878771762893
0.39303698720717084 0.5854080060049489 0.7142574544964364
0.5139879788433535 0.677856371814354 0.675080156441444
0.6944990657509624 0.5858549622225958 0.5979784926038753
0.6031934090117056 0.6817073426480568 0.5947878771762893
0.5930369872071708 0.5854080060049489 0.7142574544964364
0.7139879788433534 0.677856371814354 0.675080156441444
0.8944990657509625 0.5858549622225958 0.5979784926038753
0.8031934090117057 0.6817073426480568 0.5947878771762893
0.7930369872071709 0.5854080060049489 0.7142574544964364
0.9139879788433535 0.677856371814354 0.675080156441444
0.09449906575096245 0.7858549622225959 0.5979784926038753
0.003193409011705589 0.8817073426480567 0.5947878771762893
-0.006963012792829202 0.7854080060049489 0.7142574544964364
0.11398797884335338 0.8778563718143539 0.675080156441444
0.29449906575096246 0.7858549622225959 0.5979784926038753
0.20319340901170557 0.8817073426480567 0.5947878771762893
0.1930369872071708 0.7854080060049489 0.7142574544964364
0.3139879788433534 0.8778563718143539 0.675080156441444
0.4944990657509625 0.7858549622225959 0.5979784926038753
0.4031934090117056 0.8817073426480567 0.5947878771762893
0.39303698720717084 0.7854080060049489 0.7142574544964364
0.5139879788433535 0.8778563718143539 0.675080156441444
0.6944990657509624 0.7858549622225959 0.5979784926038753
0.6031934090117056 0.8817073426480567 0.5947878771762893
0.5930369872071708 0.7854080060049489 0.7142574544964364
0.7139879788433534 0.8778563718143539 0.675080156441444
0.8944990657509625 0.7858549622225959 0.5979784926038753
0.8031934090117057 0.8817073426480567 0.5947878771762893
0.7930369872071709 0.7854080060049489 0.7142574544964364
0.9139879788433535 0.8778563718143539 0.675080156441444
0.09449906575096245 -0.014145037777404204 0.7979784926038752
0.003193409011705589 0.08170734264805675 0.7947878771762893
-0.006963012792829202 -0.014591993995051109 0.9142574544964364
0.11398797884335338 0.07785637181435398 0.875080156441444
0.29449906575096246 -0.014145037777404204 0.7979784926038752
0.20319340901170557 0.08170734264805675 0.7947878771762893
0.1930369872071708 -0.014591993995051109 0.9142574544964364
0.3139879788433534 0.07785637181435398 0.875080156441444
0.4944990657509625 -0.014145037777404204 0.7979784926038752
0.4031934090117056 0.08170734264805675 0.7947878771762893
0.39303698720717084 -0.014591993995051109 0.9142574544964364
0.5139879788433535 0.07785637181435398 0.875080156441444
0.6944990657509624 -0.014145037777404204 0.7979784926038752
0.6031934090117056 0.08170734264805675 0.7947878771762893
0.5930369872071708 -0.014591993995051109 0.9142574544964364
0.7139879788433534 0.07785637181435398 0.875080156441444
0.8944990657509625 -0.014145037777404204 0.7979784926038752
0.8031934090117057 0.08170734264805675 0.7947878771762893
0.7930369872071709 -0.014591993995051109 0.9142574544964364
0.9139879788433535 0.07785637181435398 0.875080156441444
0.09449906575096245 0.1858549622225958 0.7979784926038752
0.003193409011705589 0.28170734264805675 0.7947878771762893
-0.006963012792829202 0.1854080060049489 0.9142574544964364
0.11398797884335338 0.277856371814354 0.875080156441444
0.29449906575096246 0.1858549622225958 0.7979784926038752
0.20319340901170557 0.28170734264805675 0.7947878771762893
0.1930369872071708 0.1854080060049489 0.9142574544964364
0.3139879788433534 0.277856371814354 0.875080156441444
0.4944990657509625 0.1858549622225958 0.7979784926038752
0.4031934090117056 0.28170734264805675 0.7947878771762893
0.39303698720717084 0.1854080060049489 0.9142574544964364
0.5139879788433535 0.277856371814354 0.875080156441444
0.6944990657509624 0.1858549622225958 0.7979784926038752
0.6031934090117056 0.28170734264805675 0.7947878771762893
0.5930369872071708 0.1854080060049489 0.9142574544964364
0.7139879788433534 0.277856371814354 0.875080156441444
0.8944990657509625 0.1858549622225958 0.7979784926038752
0.8031934090117057 0.28170734264805675 0.7947878771762893
0.7930369872071709 0.1854080060049489 0.9142574544964364
0.9139879788433535 0.277856371814354 0.875080156441444
0.09449906575096245 0.3858549622225958 0.7979784926038752
0.003193409011705589 0.4817073426480567 0.7947878771762893
-0.006963012792829202 0.38540800600494896 0.9142574544964364
0.11398797884335338 0.477856371814354 0.875080156441444
0.29449906575096246 0.3858549622225958 0.7979784926038752
0.20319340901170557 0.4817073426480567 0.7947878771762893
0.1930369872071708 0.38540800600494896 0.9142574544964364
0.3139879788433534 0.477856371814354 0.875080156441444
0.4944990657509625 0.3858549622225958 0.7979784926038752
0.4031934090117056 0.4817073426480567 0.7947878771762893
0.39303698720717084 0.38540800600494896 0.9142574544964364
0.5139879788433535 0.477856371814354 0.875080156441444
0.6944990657509624 0.3858549622225958 0.7979784926038752
0.6031934090117056 0.4817073426480567 0.7947878771762893
0.5930369872071708 0.38540800600494896 0.9142574544964364
0.7139879788433534 0.477856371814354 0.875080156441444
0.8944990657509625 0.3858549622225958 0.7979784926038752
0.8031934090117057 0.4817073426480567 0.7947878771762893
0.7930369872071709 0.38540800600494896 0.9142574544964364
0.9139879788433535 0.477856371814354 0.875080156441444
0.09449906575096245 0.5858549622225958 0.7979784926038752
0.003193409011705589 0.6817073426480568 0.7947878771762893
-0.006963012792829202 0.5854080060049489 0.9142574544964364
0.11398797884335338 0.677856371814354 0.875080156441444
0.29449906575096246 0.5858549622225958 0.7979784926038752
0.20319340901170557 0.6817073426480568 0.7947878771762893
0.1930369872071708 0.5854080060049489 0.9142574544964364
0.3139879788433534 0.677856371814354 0.875080156441444
0.4944990657509625 0.5858549622225958 0.7979784926038752
0.4031934090117056 0.6817073426480568 0.7947878771762893
0.39303698720717084 0.5854080060049489 0.9142574544964364
0.5139879788433535 0.677856371814354 0.875080156441444
0.6944990657509624 0.5858549622225958 0.7979784926038752
0.6031934090117056 0.6817073426480568 0.7947878771762893
0.5930369872071708 0.5854080060049489 0.9142574544964364
0.7139879788433534 0.677856371814354 0.875080156441444
0.8944990657509625 0.5858549622225958 0.7979784926038752
0.8031934090117057 0.6817073426480568 0.7947878771762893
0.7930369872071709 0.5854080060049489 0.9142574544964364
0.9139879788433535 0.677856371814354 0.875080156441444
0.09449906575096245 0.7858549622225959 0.7979784926038752
0.003193409011705589 0.8817073426480567 0.7947878771762893
-0.006963012792829202 0.7854080060049489 0.9142574544964364
0.11398797884335338 0.8778563718143539 0.875080156441444
0.29449906575096246 0.7858549622225959 0.7979784926038752
0.20319340901170557 0.8817073426480567 0.7947878771762893
0.1930369872071708 0.7854080060049489 0.9142574544964364
0.3139879788433534 0.8778563718143539 0.875080156441444
0.4944990657509625 0.7858549622225959 0.7979784926038752
0.4031934090117056 0.8817073426480567 0.7947878771762893
0.39303698720717084 0.7854080060049489 0.9142574544964364
0.5139879788433535 0.8778563718143539 0.875080156441444
0.6944990657509624 0.7858549622225959 0.7979784926038752
0.6031934090117056 0.8817073426480567 0.7947878771762893
0.5930369872071708 0.7854080060049489 0.9142574544964364
0.7139879788433534 0.8778563718143539 0.875080156441444
0.8944990657509625 0.7858549622225959 0.7979784926038752
0.8031934090117057 0.8817073426480567 0.7947878771762893
0.7930369872071709 0.7854080060049489 0.9142574544964364
0.9139879788433535 0.8778563718143539 0.875080156441444
