FCC BaO
3.971
5.0 0.0 0.0
0.0 5.0 0.0
0.0 0.0 5.0
Ba O 
500 500 
Direct
-0.024651635015872753 0.013151725481404034 -0.008278352381944808
0.012857308322884835 0.07115968672486854 0.12439009097987844
0.07836941998316857 0.003273813276322619 0.09875543819436969
0.11941615582092908 0.11737188874311894 -0.01506733334867414
0.17534836498412726 0.013151725481404034 -0.008278352381944808
0.21285730832288485 0.07115968672486854 0.12439009097987844
0.27836941998316855 0.003273813276322619 0.09875543819436969
0.3194161558209291 0.11737188874311894 -0.01506733334867414
0.37534836498412727 0.013151725481404034 -0.008278352381944808
0.4128573083228848 0.07115968672486854 0.12439009097987844
0.4783694199831686 0.003273813276322619 0.09875543819436969
0.519416155820929 0.11737188874311894 -0.01506733334867414
0.5753483649841272 0.013151725481404034 -0.008278352381944808
0.6128573083228849 0.07115968672486854 0.12439009097987844
0.6783694199831687 0.003273813276322619 0.09875543819436969
0.7194161558209291 0.11737188874311894 -0.01506733334867414
0.7753483649841273 0.013151725481404034 -0.008278352381944808
0.8128573083228849 0.07115968672486854 0.12439009097987844
0.8783694199831686 0.003273813276322619 0.09875543819436969
0.9194161558209292 0.11737188874311894 -0.01506733334867414
-0.024651635015872753 0.21315172548140404 -0.008278352381944808
0.012857308322884835 0.27115968672486856 0.12439009097987844
0.07836941998316857 0.20327381327632266 0.09875543819436969
0.11941615582092908 0.31737188874311895 -0.01506733334867414
0.17534836498412726 0.21315172548140404 -0.008278352381944808
0.21285730832288485 0.27115968672486856 0.12439009097987844
0.27836941998316855 0.20327381327632266 0.09875543819436969
0.3194161558209291 0.31737188874311895 -0.01506733334867414
0.37534836498412727 0.21315172548140404 -0.008278352381944808
0.4128573083228848 0.27115968672486856 0.12439009097987844
0.4783694199831686 0.20327381327632266 0.09875543819436969
0.519416155820929 0.31737188874311895 -0.01506733334867414
0.5753483649841272 0.21315172548140404 -0.008278352381944808
0.6128573083228849 0.27115968672486856 0.12439009097987844
0.6783694199831687 0.20327381327632266 0.09875543819436969
0.7194161558209291 0.31737188874311895 -0.01506733334867414
0.7753483649841273 0.21315172548140404 -0.008278352381944808
0.8128573083228849 0.27115968672486856 0.12439009097987844
0.8783694199831686 0.20327381327632266 0.09875543819436969
0.9194161558209292 0.31737188874311895 -0.01506733334867414
-0.024651635015872753 0.4131517254814041 -0.008278352381944808
0.012857308322884835 0.4711596867248686 0.12439009097987844
0.07836941998316857 0.40327381327632267 0.09875543819436969
0.11941615582092908 0.5173718887431189 -0.01506733334867414
0.17534836498412726 0.4131517254814041 -0.008278352381944808
0.21285730832288485 0.4711596867248686 0.12439009097987844
0.27836941998316855 0.40327381327632267 0.09875543819436969
0.3194161558209291 0.5173718887431189 -0.01506733334867414
0.37534836498412727 0.4131517254814041 -0.008278352381944808
0.4128573083228848 0.4711596867248686 0.12439009097987844
0.4783694199831686 0.40327381327632267 0.09875543819436969
0.519416155820929 0.5173718887431189 -0.01506733334867414
0.5753483649841272 0.4131517254814041 -0.008278352381944808
0.6128573083228849 0.4711596867248686 0.12439009097987844
0.6783694199831687 0.40327381327632267 0.09875543819436969
0.7194161558209291 0.5173718887431189 -0.01506733334867414
0.7753483649841273 0.4131517254814041 -0.008278352381944808
0.8128573083228849 0.4711596867248686 0.12439009097987844
0.8783694199831686 0.40327381327632267 0.09875543819436969
0.9194161558209292 0.5173718887431189 -0.01506733334867414
-0.024651635015872753 0.6131517254814041 -0.008278352381944808
0.012857308322884835 0.6711596867248686 0.12439009097987844
0.07836941998316857 0.6032738132763227 0.09875543819436969
0.11941615582092908 0.717371888743119 -0.01506733334867414
0.17534836498412726 0.6131517254814041 -0.008278352381944808
0.21285730832288485 0.6711596867248686 0.12439009097987844
0.27836941998316855 0.6032738132763227 0.09875543819436969
0.3194161558209291 0.717371888743119 -0.01506733334867414
0.37534836498412727 0.6131517254814041 -0.008278352381944808
0.4128573083228848 0.6711596867248686 0.12439009097987844
0.4783694199831686 0.6032738132763227 0.09875543819436969
0.519416155820929 0.717371888743119 -0.01506733334867414
0.5753483649841272 0.6131517254814041 -0.008278352381944808
0.6128573083228849 0.6711596867248686 0.12439009097987844
0.6783694199831687 0.6032738132763227 0.09875543819436969
0.7194161558209291 0.717371888743119 -0.01506733334867414
0.7753483649841273 0.6131517254814041 -0.008278352381944808
0.8128573083228849 0.6711596867248686 0.12439009097987844
0.8783694199831686 0.6032738132763227 0.09875543819436969
0.9194161558209292 0.717371888743119 -0.01506733334867414
-0.024651635015872753 0.8131517254814041 -0.008278352381944808
0.012857308322884835 0.8711596867248685 0.12439009097987844
0.07836941998316857 0.8032738132763226 0.09875543819436969
0.11941615582092908 0.9173718887431189 -0.01506733334867414
0.17534836498412726 0.8131517254814041 -0.008278352381944808
0.21285730832288485 0.8711596867248685 0.12439009097987844
0.27836941998316855 0.8032738132763226 0.09875543819436969
0.3194161558209291 0.9173718887431189 -0.01506733334867414
0.37534836498412727 0.8131517254814041 -0.008278352381944808
0.4128573083228848 0.8711596867248685 0.12439009097987844
0.4783694199831686 0.8032738132763226 0.09875543819436969
0.519416155820929 0.9173718887431189 -0.01506733334867414
0.5753483649841272 0.8131517254814041 -0.008278352381944808
0.6128573083228849 0.8711596867248685 0.12439009097987844
0.6783694199831687 0.8032738132763226 0.09875543819436969
0.7194161558209291 0.9173718887431189 -0.01506733334867414
0.7753483649841273 0.8131517254814041 -0.008278352381944808
0.8128573083228849 0.8711596867248685 0.12439009097987844
0.8783694199831686 0.8032738132763226 0.09875543819436969
0.9194161558209292 0.9173718887431189 -0.01506733334867414
-0.024651635015872753 0.013151725481404034 0.1917216476180552
0.012857308322884835 0.07115968672486854 0.3243900909798785
0.07836941998316857 0.003273813276322619 0.2987554381943697
0.11941615582092908 0.11737188874311894 0.18493266665132588
0.17534836498412726 0.013151725481404034 0.1917216476180552
0.21285730832288485 0.07115968672486854 0.3243900909798785
0.27836941998316855 0.003273813276322619 0.2987554381943697
0.3194161558209291 0.11737188874311894 0.18493266665132588
0.37534836498412727 0.013151725481404034 0.1917216476180552
0.4128573083228848 0.07115968672486854 0.3243900909798785
0.4783694199831686 0.003273813276322619 0.2987554381943697
0.519416155820929 0.11737188874311894 0.18493266665132588
0.5753483649841272 0.013151725481404034 0.1917216476180552
0.6128573083228849 0.07115968672486854 0.3243900909798785
0.6783694199831687 0.003273813276322619 0.2987554381943697
0.7194161558209291 0.11737188874311894 0.18493266665132588
0.7753483649841273 0.013151725481404034 0.1917216476180552
0.8128573083228849 0.07115968672486854 0.3243900909798785
0.8783694199831686 0.003273813276322619 0.2987554381943697
0.9194161558209292 0.11737188874311894 0.18493266665132588
-0.024651635015872753 0.21315172548140404 0.1917216476180552
0.012857308322884835 0.27115968672486856 0.3243900909798785
0.07836941998316857 0.20327381327632266 0.2987554381943697
0.11941615582092908 0.31737188874311895 0.18493266665132588
0.17534836498412726 0.21315172548140404 0.1917216476180552
0.21285730832288485 0.27115968672486856 0.3243900909798785
0.27836941998316855 0.20327381327632266 0.2987554381943697
0.3194161558209291 0.31737188874311895 0.18493266665132588
0.37534836498412727 0.21315172548140404 0.1917216476180552
0.4128573083228848 0.27115968672486856 0.3243900909798785
0.4783694199831686 0.20327381327632266 0.2987554381943697
0.519416155820929 0.31737188874311895 0.18493266665132588
0.5753483649841272 0.21315172548140404 0.1917216476180552
0.6128573083228849 0.27115968672486856 0.3243900909798785
0.6783694199831687 0.20327381327632266 0.2987554381943697
0.7194161558209291 0.31737188874311895 0.18493266665132588
0.7753483649841273 0.21315172548140404 0.1917216476180552
0.8128573083228849 0.27115968672486856 0.3243900909798785
0.8783694199831686 0.20327381327632266 0.2987554381943697
0.9194161558209292 0.31737188874311895 0.18493266665132588
-0.024651635015872753 0.4131517254814041 0.1917216476180552
0.012857308322884835 0.4711596867248686 0.3243900909798785
0.07836941998316857 0.40327381327632267 0.2987554381943697
0.11941615582092908 0.5173718887431189 0.18493266665132588
0.17534836498412726 0.4131517254814041 0.1917216476180552
0.21285730832288485 0.4711596867248686 0.3243900909798785
0.27836941998316855 0.40327381327632267 0.2987554381943697
0.3194161558209291 0.5173718887431189 0.18493266665132588
0.37534836498412727 0.4131517254814041 0.1917216476180552
0.4128573083228848 0.4711596867248686 0.3243900909798785
0.4783694199831686 0.40327381327632267 0.2987554381943697
0.519416155820929 0.5173718887431189 0.18493266665132588
0.5753483649841272 0.4131517254814041 0.1917216476180552
0.6128573083228849 0.4711596867248686 0.3243900909798785
0.6783694199831687 0.40327381327632267 0.2987554381943697
0.7194161558209291 0.5173718887431189 0.18493266665132588
0.7753483649841273 0.4131517254814041 0.1917216476180552
0.8128573083228849 0.4711596867248686 0.3243900909798785
0.8783694199831686 0.40327381327632267 0.2987554381943697
0.9194161558209292 0.5173718887431189 0.18493266665132588
-0.024651635015872753 0.6131517254814041 0.1917216476180552
0.012857308322884835 0.6711596867248686 0.3243900909798785
0.07836941998316857 0.6032738132763227 0.2987554381943697
0.11941615582092908 0.717371888743119 0.18493266665132588
0.17534836498412726 0.6131517254814041 0.1917216476180552
0.21285730832288485 0.6711596867248686 0.3243900909798785
0.27836941998316855 0.6032738132763227 0.2987554381943697
0.3194161558209291 0.717371888743119 0.18493266665132588
0.37534836498412727 0.6131517254814041 0.1917216476180552
0.4128573083228848 0.6711596867248686 0.3243900909798785
0.4783694199831686 0.6032738132763227 0.2987554381943697
0.519416155820929 0.717371888743119 0.18493266665132588
0.5753483649841272 0.6131517254814041 0.1917216476180552
0.6128573083228849 0.6711596867248686 0.3243900909798785
0.6783694199831687 0.6032738132763227 0.2987554381943697
0.7194161558209291 0.717371888743119 0.18493266665132588
0.7753483649841273 0.6131517254814041 0.1917216476180552
0.8128573083228849 0.6711596867248686 0.3243900909798785
0.8783694199831686 0.6032738132763227 0.2987554381943697
0.9194161558209292 0.717371888743119 0.18493266665132588
-0.024651635015872753 0.8131517254814041 0.1917216476180552
0.012857308322884835 0.8711596867248685 0.3243900909798785
0.07836941998316857 0.8032738132763226 0.2987554381943697
0.11941615582092908 0.9173718887431189 0.18493266665132588
0.17534836498412726 0.8131517254814041 0.1917216476180552
0.21285730832288485 0.8711596867248685 0.3243900909798785
0.27836941998316855 0.8032738132763226 0.2987554381943697
0.3194161558209291 0.9173718887431189 0.18493266665132588
0.37534836498412727 0.8131517254814041 0.1917216476180552
0.4128573083228848 0.8711596867248685 0.3243900909798785
0.4783694199831686 0.8032738132763226 0.2987554381943697
0.519416155820929 0.9173718887431189 0.18493266665132588
0.5753483649841272 0.8131517254814041 0.1917216476180552
0.6128573083228849 0.8711596867248685 0.3243900909798785
0.6783694199831687 0.8032738132763226 0.2987554381943697
0.7194161558209291 0.9173718887431189 0.18493266665132588
0.7753483649841273 0.8131517254814041 0.1917216476180552
0.8128573083228849 0.8711596867248685 0.3243900909798785
0.8783694199831686 0.8032738132763226 0.2987554381943697
0.9194161558209292 0.9173718887431189 0.18493266665132588
-0.024651635015872753 0.013151725481404034 0.3917216476180552
0.012857308322884835 0.07115968672486854 0.5243900909798784
0.07836941998316857 0.003273813276322619 0.4987554381943697
0.11941615582092908 0.11737188874311894 0.38493266665132586
0.17534836498412726 0.013151725481404034 0.3917216476180552
0.21285730832288485 0.07115968672486854 0.5243900909798784
0.27836941998316855 0.003273813276322619 0.4987554381943697
0.3194161558209291 0.11737188874311894 0.38493266665132586
0.37534836498412727 0.013151725481404034 0.3917216476180552
0.4128573083228848 0.07115968672486854 0.5243900909798784
0.4783694199831686 0.003273813276322619 0.4987554381943697
0.519416155820929 0.11737188874311894 0.38493266665132586
0.5753483649841272 0.013151725481404034 0.3917216476180552
0.6128573083228849 0.07115968672486854 0.5243900909798784
0.6783694199831687 0.003273813276322619 0.4987554381943697
0.7194161558209291 0.11737188874311894 0.38493266665132586
0.7753483649841273 0.013151725481404034 0.3917216476180552
0.8128573083228849 0.07115968672486854 0.5243900909798784
0.8783694199831686 0.003273813276322619 0.4987554381943697
0.9194161558209292 0.11737188874311894 0.38493266665132586
-0.024651635015872753 0.21315172548140404 0.3917216476180552
0.012857308322884835 0.27115968672486856 0.5243900909798784
0.07836941998316857 0.20327381327632266 0.4987554381943697
0.11941615582092908 0.31737188874311895 0.38493266665132586
0.17534836498412726 0.21315172548140404 0.3917216476180552
0.21285730832288485 0.27115968672486856 0.5243900909798784
0.27836941998316855 0.20327381327632266 0.4987554381943697
0.3194161558209291 0.31737188874311895 0.38493266665132586
0.37534836498412727 0.21315172548140404 0.3917216476180552
0.4128573083228848 0.27115968672486856 0.5243900909798784
0.4783694199831686 0.20327381327632266 0.4987554381943697
0.519416155820929 0.31737188874311895 0.38493266665132586
0.5753483649841272 0.21315172548140404 0.3917216476180552
0.6128573083228849 0.27115968672486856 0.5243900909798784
0.6783694199831687 0.20327381327632266 0.4987554381943697
0.7194161558209291 0.31737188874311895 0.38493266665132586
0.7753483649841273 0.21315172548140404 0.3917216476180552
0.8128573083228849 0.27115968672486856 0.5243900909798784
0.8783694199831686 0.20327381327632266 0.4987554381943697
0.9194161558209292 0.31737188874311895 0.38493266665132586
-0.024651635015872753 0.4131517254814041 0.3917216476180552
0.012857308322884835 0.4711596867248686 0.5243900909798784
0.07836941998316857 0.40327381327632267 0.4987554381943697
0.11941615582092908 0.5173718887431189 0.38493266665132586
0.17534836498412726 0.4131517254814041 0.3917216476180552
0.21285730832288485 0.4711596867248686 0.5243900909798784
0.27836941998316855 0.40327381327632267 0.4987554381943697
0.3194161558209291 0.5173718887431189 0.38493266665132586
0.37534836498412727 0.4131517254814041 0.3917216476180552
0.4128573083228848 0.4711596867248686 0.5243900909798784
0.4783694199831686 0.40327381327632267 0.4987554381943697
0.519416155820929 0.5173718887431189 0.38493266665132586
0.5753483649841272 0.4131517254814041 0.3917216476180552
0.6128573083228849 0.4711596867248686 0.5243900909798784
0.6783694199831687 0.40327381327632267 0.4987554381943697
0.7194161558209291 0.5173718887431189 0.38493266665132586
0.7753483649841273 0.4131517254814041 0.3917216476180552
0.8128573083228849 0.4711596867248686 0.5243900909798784
0.8783694199831686 0.40327381327632267 0.4987554381943697
0.9194161558209292 0.5173718887431189 0.38493266665132586
-0.024651635015872753 0.6131517254814041 0.3917216476180552
0.012857308322884835 0.6711596867248686 0.5243900909798784
0.07836941998316857 0.6032738132763227 0.4987554381943697
0.11941615582092908 0.717371888743119 0.38493266665132586
0.17534836498412726 0.6131517254814041 0.3917216476180552
0.21285730832288485 0.6711596867248686 0.5243900909798784
0.27836941998316855 0.6032738132763227 0.4987554381943697
0.3194161558209291 0.717371888743119 0.38493266665132586
0.37534836498412727 0.6131517254814041 0.3917216476180552
0.4128573083228848 0.6711596867248686 0.5243900909798784
0.4783694199831686 0.6032738132763227 0.4987554381943697
0.519416155820929 0.717371888743119 0.38493266665132586
0.5753483649841272 0.6131517254814041 0.3917216476180552
0.6128573083228849 0.6711596867248686 0.5243900909798784
0.6783694199831687 0.6032738132763227 0.4987554381943697
0.7194161558209291 0.717371888743119 0.38493266665132586
0.7753483649841273 0.6131517254814041 0.3917216476180552
0.8128573083228849 0.6711596867248686 0.5243900909798784
0.8783694199831686 0.6032738132763227 0.4987554381943697
0.9194161558209292 0.717371888743119 0.38493266665132586
-0.024651635015872753 0.8131517254814041 0.3917216476180552
0.012857308322884835 0.8711596867248685 0.5243900909798784
0.07836941998316857 0.8032738132763226 0.4987554381943697
0.11941615582092908 0.9173718887431189 0.38493266665132586
0.17534836498412726 0.8131517254814041 0.3917216476180552
0.21285730832288485 0.8711596867248685 0.5243900909798784
0.27836941998316855 0.8032738132763226 0.4987554381943697
0.3194161558209291 0.9173718887431189 0.38493266665132586
0.37534836498412727 0.8131517254814041 0.3917216476180552
0.4128573083228848 0.8711596867248685 0.5243900909798784
0.4783694199831686 0.8032738132763226 0.4987554381943697
0.519416155820929 0.9173718887431189 0.38493266665132586
0.5753483649841272 0.8131517254814041 0.3917216476180552
0.6128573083228849 0.8711596867248685 0.5243900909798784
0.6783694199831687 0.8032738132763226 0.4987554381943697
0.7194161558209291 0.9173718887431189 0.38493266665132586
0.7753483649841273 0.8131517254814041 0.3917216476180552
0.8128573083228849 0.8711596867248685 0.5243900909798784
0.8783694199831686 0.8032738132763226 0.4987554381943697
0.9194161558209292 0.9173718887431189 0.38493266665132586
-0.024651635015872753 0.013151725481404034 0.5917216476180552
0.012857308322884835 0.07115968672486854 0.7243900909798784
0.07836941998316857 0.003273813276322619 0.6987554381943697
0.11941615582092908 0.11737188874311894 0.5849326666513258
0.17534836498412726 0.013151725481404034 0.5917216476180552
0.21285730832288485 0.07115968672486854 0.7243900909798784
0.27836941998316855 0.003273813276322619 0.6987554381943697
0.3194161558209291 0.11737188874311894 0.5849326666513258
0.37534836498412727 0.013151725481404034 0.5917216476180552
0.4128573083228848 0.07115968672486854 0.7243900909798784
0.4783694199831686 0.003273813276322619 0.6987554381943697
0.519416155820929 0.11737188874311894 0.5849326666513258
0.5753483649841272 0.013151725481404034 0.5917216476180552
0.6128573083228849 0.07115968672486854 0.7243900909798784
0.6783694199831687 0.003273813276322619 0.6987554381943697
0.7194161558209291 0.11737188874311894 0.5849326666513258
0.7753483649841273 0.013151725481404034 0.5917216476180552
0.8128573083228849 0.07115968672486854 0.7243900909798784
0.8783694199831686 0.003273813276322619 0.6987554381943697
0.9194161558209292 0.11737188874311894 0.5849326666513258
-0.024651635015872753 0.21315172548140404 0.5917216476180552
0.012857308322884835 0.27115968672486856 0.7243900909798784
0.07836941998316857 0.20327381327632266 0.6987554381943697
0.11941615582092908 0.31737188874311895 0.5849326666513258
0.17534836498412726 0.21315172548140404 0.5917216476180552
0.21285730832288485 0.27115968672486856 0.7243900909798784
0.27836941998316855 0.20327381327632266 0.6987554381943697
0.3194161558209291 0.31737188874311895 0.5849326666513258
0.37534836498412727 0.21315172548140404 0.5917216476180552
0.4128573083228848 0.27115968672486856 0.7243900909798784
0.4783694199831686 0.20327381327632266 0.6987554381943697
0.519416155820929 0.31737188874311895 0.5849326666513258
0.5753483649841272 0.21315172548140404 0.5917216476180552
0.6128573083228849 0.27115968672486856 0.7243900909798784
0.6783694199831687 0.20327381327632266 0.6987554381943697
0.7194161558209291 0.31737188874311895 0.5849326666513258
0.7753483649841273 0.21315172548140404 0.5917216476180552
0.8128573083228849 0.27115968672486856 0.7243900909798784
0.8783694199831686 0.20327381327632266 0.6987554381943697
0.9194161558209292 0.31737188874311895 0.5849326666513258
-0.024651635015872753 0.4131517254814041 0.5917216476180552
0.012857308322884835 0.4711596867248686 0.7243900909798784
0.07836941998316857 0.40327381327632267 0.6987554381943697
0.11941615582092908 0.5173718887431189 0.5849326666513258
0.17534836498412726 0.4131517254814041 0.5917216476180552
0.21285730832288485 0.4711596867248686 0.7243900909798784
0.27836941998316855 0.40327381327632267 0.6987554381943697
0.3194161558209291 0.5173718887431189 0.5849326666513258
0.37534836498412727 0.4131517254814041 0.5917216476180552
0.4128573083228848 0.4711596867248686 0.7243900909798784
0.4783694199831686 0.40327381327632267 0.6987554381943697
0.519416155820929 0.5173718887431189 0.5849326666513258
0.5753483649841272 0.4131517254814041 0.5917216476180552
0.6128573083228849 0.4711596867248686 0.7243900909798784
0.6783694199831687 0.40327381327632267 0.6987554381943697
0.7194161558209291 0.5173718887431189 0.5849326666513258
0.7753483649841273 0.4131517254814041 0.5917216476180552
0.8128573083228849 0.4711596867248686 0.7243900909798784
0.8783694199831686 0.40327381327632267 0.6987554381943697
0.9194161558209292 0.5173718887431189 0.5849326666513258
-0.024651635015872753 0.6131517254814041 0.5917216476180552
0.012857308322884835 0.6711596867248686 0.7243900909798784
0.07836941998316857 0.6032738132763227 0.6987554381943697
0.11941615582092908 0.717371888743119 0.5849326666513258
0.17534836498412726 0.6131517254814041 0.5917216476180552
0.21285730832288485 0.6711596867248686 0.7243900909798784
0.27836941998316855 0.6032738132763227 0.6987554381943697
0.3194161558209291 0.717371888743119 0.5849326666513258
0.37534836498412727 0.6131517254814041 0.5917216476180552
0.4128573083228848 0.6711596867248686 0.7243900909798784
0.4783694199831686 0.6032738132763227 0.6987554381943697
0.519416155820929 0.717371888743119 0.5849326666513258
0.5753483649841272 0.6131517254814041 0.5917216476180552
0.6128573083228849 0.6711596867248686 0.7243900909798784
0.6783694199831687 0.6032738132763227 0.6987554381943697
0.7194161558209291 0.717371888743119 0.5849326666513258
0.7753483649841273 0.6131517254814041 0.5917216476180552
0.8128573083228849 0.6711596867248686 0.7243900909798784
0.8783694199831686 0.6032738132763227 0.6987554381943697
0.9194161558209292 0.717371888743119 0.5849326666513258
-0.024651635015872753 0.8131517254814041 0.5917216476180552
0.012857308322884835 0.8711596867248685 0.7243900909798784
0.07836941998316857 0.8032738132763226 0.6987554381943697
0.11941615582092908 0.9173718887431189 0.5849326666513258
0.17534836498412726 0.8131517254814041 0.5917216476180552
0.21285730832288485 0.8711596867248685 0.7243900909798784
0.27836941998316855 0.8032738132763226 0.6987554381943697
0.3194161558209291 0.9173718887431189 0.5849326666513258
0.37534836498412727 0.8131517254814041 0.5917216476180552
0.4128573083228848 0.8711596867248685 0.7243900909798784
0.4783694199831686 0.8032738132763226 0.6987554381943697
0.519416155820929 0.9173718887431189 0.5849326666513258
0.5753483649841272 0.8131517254814041 0.5917216476180552
0.6128573083228849 0.8711596867248685 0.7243900909798784
0.6783694199831687 0.8032738132763226 0.6987554381943697
0.7194161558209291 0.9173718887431189 0.5849326666513258
0.7753483649841273 0.8131517254814041 0.5917216476180552
0.8128573083228849 0.8711596867248685 0.7243900909798784
0.8783694199831686 0.8032738132763226 0.6987554381943697
0.9194161558209292 0.9173718887431189 0.5849326666513258
-0.024651635015872753 0.013151725481404034 0.7917216476180552
0.012857308322884835 0.07115968672486854 0.9243900909798785
0.07836941998316857 0.003273813276322619 0.8987554381943698
0.11941615582092908 0.11737188874311894 0.7849326666513259
0.17534836498412726 0.013151725481404034 0.7917216476180552
0.21285730832288485 0.07115968672486854 0.9243900909798785
0.27836941998316855 0.003273813276322619 0.8987554381943698
0.3194161558209291 0.11737188874311894 0.7849326666513259
0.37534836498412727 0.013151725481404034 0.7917216476180552
0.4128573083228848 0.07115968672486854 0.9243900909798785
0.4783694199831686 0.003273813276322619 0.8987554381943698
0.519416155820929 0.11737188874311894 0.7849326666513259
0.5753483649841272 0.013151725481404034 0.7917216476180552
0.6128573083228849 0.07115968672486854 0.9243900909798785
0.6783694199831687 0.003273813276322619 0.8987554381943698
0.7194161558209291 0.11737188874311894 0.7849326666513259
0.7753483649841273 0.013151725481404034 0.7917216476180552
0.8128573083228849 0.07115968672486854 0.9243900909798785
0.8783694199831686 0.003273813276322619 0.8987554381943698
0.9194161558209292 0.11737188874311894 0.7849326666513259
-0.024651635015872753 0.21315172548140404 0.7917216476180552
0.012857308322884835 0.27115968672486856 0.9243900909798785
0.07836941998316857 0.20327381327632266 0.8987554381943698
0.11941615582092908 0.31737188874311895 0.7849326666513259
0.17534836498412726 0.21315172548140404 0.7917216476180552
0.21285730832288485 0.27115968672486856 0.9243900909798785
0.27836941998316855 0.20327381327632266 0.8987554381943698
0.3194161558209291 0.31737188874311895 0.7849326666513259
0.37534836498412727 0.21315172548140404 0.7917216476180552
0.4128573083228848 0.27115968672486856 0.9243900909798785
0.4783694199831686 0.20327381327632266 0.8987554381943698
0.519416155820929 0.31737188874311895 0.7849326666513259
0.5753483649841272 0.21315172548140404 0.7917216476180552
0.6128573083228849 0.27115968672486856 0.9243900909798785
0.6783694199831687 0.20327381327632266 0.8987554381943698
0.7194161558209291 0.31737188874311895 0.7849326666513259
0.7753483649841273 0.21315172548140404 0.7917216476180552
0.8128573083228849 0.27115968672486856 0.9243900909798785
0.8783694199831686 0.20327381327632266 0.8987554381943698
0.9194161558209292 0.31737188874311895 0.7849326666513259
-0.024651635015872753 0.4131517254814041 0.7917216476180552
0.012857308322884835 0.4711596867248686 0.9243900909798785
0.07836941998316857 0.40327381327632267 0.8987554381943698
0.11941615582092908 0.5173718887431189 0.7849326666513259
0.17534836498412726 0.4131517254814041 0.7917216476180552
0.21285730832288485 0.4711596867248686 0.9243900909798785
0.27836941998316855 0.40327381327632267 0.8987554381943698
0.3194161558209291 0.5173718887431189 0.7849326666513259
0.37534836498412727 0.4131517254814041 0.7917216476180552
0.4128573083228848 0.4711596867248686 0.9243900909798785
0.4783694199831686 0.40327381327632267 0.8987554381943698
0.519416155820929 0.5173718887431189 0.7849326666513259
0.5753483649841272 0.4131517254814041 0.7917216476180552
0.6128573083228849 0.4711596867248686 0.9243900909798785
0.6783694199831687 0.40327381327632267 0.8987554381943698
0.7194161558209291 0.5173718887431189 0.7849326666513259
0.7753483649841273 0.4131517254814041 0.7917216476180552
0.8128573083228849 0.4711596867248686 0.9243900909798785
0.8783694199831686 0.40327381327632267 0.8987554381943698
0.9194161558209292 0.5173718887431189 0.7849326666513259
-0.024651635015872753 0.6131517254814041 0.7917216476180552
0.012857308322884835 0.6711596867248686 0.9243900909798785
0.07836941998316857 0.6032738132763227 0.8987554381943698
0.11941615582092908 0.717371888743119 0.7849326666513259
0.17534836498412726 0.6131517254814041 0.7917216476180552
0.21285730832288485 0.6711596867248686 0.9243900909798785
0.27836941998316855 0.6032738132763227 0.8987554381943698
0.3194161558209291 0.717371888743119 0.7849326666513259
0.37534836498412727 0.6131517254814041 0.7917216476180552
0.4128573083228848 0.6711596867248686 0.9243900909798785
0.4783694199831686 0.6032738132763227 0.8987554381943698
0.519416155820929 0.717371888743119 0.7849326666513259
0.5753483649841272 0.6131517254814041 0.7917216476180552
0.6128573083228849 0.6711596867248686 0.9243900909798785
0.6783694199831687 0.6032738132763227 0.8987554381943698
0.7194161558209291 0.717371888743119 0.7849326666513259
0.7753483649841273 0.6131517254814041 0.7917216476180552
0.8128573083228849 0.6711596867248686 0.9243900909798785
0.8783694199831686 0.6032738132763227 0.8987554381943698
0.9194161558209292 0.717371888743119 0.7849326666513259
-0.024651635015872753 0.8131517254814041 0.7917216476180552
0.012857308322884835 0.8711596867248685 0.9243900909798785
0.07836941998316857 0.8032738132763226 0.8987554381943698
0.11941615582092908 0.9173718887431189 0.7849326666513259
0.17534836498412726 0.8131517254814041 0.7917216476180552
0.21285730832288485 0.8711596867248685 0.9243900909798785
0.27836941998316855 0.8032738132763226 0.8987554381943698
0.3194161558209291 0.9173718887431189 0.7849326666513259
0.37534836498412727 0.8131517254814041 0.7917216476180552
0.4128573083228848 0.8711596867248685 0.9243900909798785
0.4783694199831686 0.8032738132763226 0.8987554381943698
0.519416155820929 0.9173718887431189 0.7849326666513259
0.5753483649841272 0.8131517254814041 0.7917216476180552
0.6128573083228849 0.8711596867248685 0.9243900909798785
0.6783694199831687 0.8032738132763226 0.8987554381943698
0.7194161558209291 0.9173718887431189 0.7849326666513259
0.7753483649841273 0.8131517254814041 0.7917216476180552
0.8128573083228849 0.8711596867248685 0.9243900909798785
0.8783694199831686 0.8032738132763226 0.8987554381943698
0.9194161558209292 0.9173718887431189 0.7849326666513259
0.09605303530580228 0.011932185073454537 -0.02412671408555244
-0.015379748913649197 0.12172913479057663 -0.009208872309696315
0.01798647758571535 -0.008548904689005063 0.12303273001914901
0.12465173002534834 0.1138165996997945 0.12486578478233881
0.2960530353058023 0.011932185073454537 -0.02412671408555244
0.18462025108635083 0.12172913479057663 -0.009208872309696315
0.21798647758571535 -0.008548904689005063 0.12303273001914901
0.32465173002534836 0.1138165996997945 0.12486578478233881
0.49605303530580225 0.011932185073454537 -0.02412671408555244
0.3846202510863508 0.12172913479057663 -0.009208872309696315
0.4179864775857154 -0.008548904689005063 0.12303273001914901
0.5246517300253484 0.1138165996997945 0.12486578478233881
0.6960530353058023 0.011932185073454537 -0.02412671408555244
0.5846202510863509 0.12172913479057663 -0.009208872309696315
0.6179864775857155 -0.008548904689005063 0.12303273001914901
0.7246517300253483 0.1138165996997945 0.12486578478233881
0.8960530353058023 0.011932185073454537 -0.02412671408555244
0.7846202510863508 0.12172913479057663 -0.009208872309696315
0.8179864775857153 -0.008548904689005063 0.12303273001914901
0.9246517300253484 0.1138165996997945 0.12486578478233881
0.09605303530580228 0.21193218507345454 -0.02412671408555244
-0.015379748913649197 0.32172913479057663 -0.009208872309696315
0.01798647758571535 0.19145109531099494 0.12303273001914901
0.12465173002534834 0.31381659969979453 0.12486578478233881
0.2960530353058023 0.21193218507345454 -0.02412671408555244
0.18462025108635083 0.32172913479057663 -0.009208872309696315
0.21798647758571535 0.19145109531099494 0.12303273001914901
0.32465173002534836 0.31381659969979453 0.12486578478233881
0.49605303530580225 0.21193218507345454 -0.02412671408555244
0.3846202510863508 0.32172913479057663 -0.009208872309696315
0.4179864775857154 0.19145109531099494 0.12303273001914901
0.5246517300253484 0.31381659969979453 0.12486578478233881
0.6960530353058023 0.21193218507345454 -0.02412671408555244
0.5846202510863509 0.32172913479057663 -0.009208872309696315
0.6179864775857155 0.19145109531099494 0.12303273001914901
0.7246517300253483 0.31381659969979453 0.12486578478233881
0.8960530353058023 0.21193218507345454 -0.02412671408555244
0.7846202510863508 0.32172913479057663 -0.009208872309696315
0.8179864775857153 0.19145109531099494 0.12303273001914901
0.9246517300253484 0.31381659969979453 0.12486578478233881
0.09605303530580228 0.4119321850734545 -0.02412671408555244
-0.015379748913649197 0.5217291347905766 -0.009208872309696315
0.01798647758571535 0.391451095310995 0.12303273001914901
0.12465173002534834 0.5138165996997944 0.12486578478233881
0.2960530353058023 0.4119321850734545 -0.02412671408555244
0.18462025108635083 0.5217291347905766 -0.009208872309696315
0.21798647758571535 0.391451095310995 0.12303273001914901
0.32465173002534836 0.5138165996997944 0.12486578478233881
0.49605303530580225 0.4119321850734545 -0.02412671408555244
0.3846202510863508 0.5217291347905766 -0.009208872309696315
0.4179864775857154 0.391451095310995 0.12303273001914901
0.5246517300253484 0.5138165996997944 0.12486578478233881
0.6960530353058023 0.4119321850734545 -0.02412671408555244
0.5846202510863509 0.5217291347905766 -0.009208872309696315
0.6179864775857155 0.391451095310995 0.12303273001914901
0.7246517300253483 0.5138165996997944 0.12486578478233881
0.8960530353058023 0.4119321850734545 -0.02412671408555244
0.7846202510863508 0.5217291347905766 -0.009208872309696315
0.8179864775857153 0.391451095310995 0.12303273001914901
0.9246517300253484 0.5138165996997944 0.12486578478233881
0.09605303530580228 0.6119321850734546 -0.02412671408555244
-0.015379748913649197 0.7217291347905767 -0.009208872309696315
0.01798647758571535 0.5914510953109949 0.12303273001914901
0.12465173002534834 0.7138165996997945 0.12486578478233881
0.2960530353058023 0.6119321850734546 -0.02412671408555244
0.18462025108635083 0.7217291347905767 -0.009208872309696315
0.21798647758571535 0.5914510953109949 0.12303273001914901
0.32465173002534836 0.7138165996997945 0.12486578478233881
0.49605303530580225 0.6119321850734546 -0.02412671408555244
0.3846202510863508 0.7217291347905767 -0.009208872309696315
0.4179864775857154 0.5914510953109949 0.12303273001914901
0.5246517300253484 0.7138165996997945 0.12486578478233881
0.6960530353058023 0.6119321850734546 -0.02412671408555244
0.5846202510863509 0.7217291347905767 -0.009208872309696315
0.6179864775857155 0.5914510953109949 0.12303273001914901
0.7246517300253483 0.7138165996997945 0.12486578478233881
0.8960530353058023 0.6119321850734546 -0.02412671408555244
0.7846202510863508 0.7217291347905767 -0.009208872309696315
0.8179864775857153 0.5914510953109949 0.12303273001914901
0.9246517300253484 0.7138165996997945 0.12486578478233881
0.09605303530580228 0.8119321850734545 -0.02412671408555244
-0.015379748913649197 0.9217291347905766 -0.009208872309696315
0.01798647758571535 0.791451095310995 0.12303273001914901
0.12465173002534834 0.9138165996997945 0.12486578478233881
0.2960530353058023 0.8119321850734545 -0.02412671408555244
0.18462025108635083 0.9217291347905766 -0.009208872309696315
0.21798647758571535 0.791451095310995 0.12303273001914901
0.32465173002534836 0.9138165996997945 0.12486578478233881
0.49605303530580225 0.8119321850734545 -0.02412671408555244
0.3846202510863508 0.9217291347905766 -0.009208872309696315
0.4179864775857154 0.791451095310995 0.12303273001914901
0.5246517300253484 0.9138165996997945 0.12486578478233881
0.6960530353058023 0.8119321850734545 -0.02412671408555244
0.5846202510863509 0.9217291347905766 -0.009208872309696315
0.6179864775857155 0.791451095310995 0.12303273001914901
0.7246517300253483 0.9138165996997945 0.12486578478233881
0.8960530353058023 0.8119321850734545 -0.02412671408555244
0.7846202510863508 0.9217291347905766 -0.009208872309696315
0.8179864775857153 0.791451095310995 0.12303273001914901
0.9246517300253484 0.9138165996997945 0.12486578478233881
0.09605303530580228 0.011932185073454537 0.17587328591444756
-0.015379748913649197 0.12172913479057663 0.1907911276903037
0.01798647758571535 -0.008548904689005063 0.32303273001914906
0.12465173002534834 0.1138165996997945 0.32486578478233885
0.2960530353058023 0.011932185073454537 0.17587328591444756
0.18462025108635083 0.12172913479057663 0.1907911276903037
0.21798647758571535 -0.008548904689005063 0.32303273001914906
0.32465173002534836 0.1138165996997945 0.32486578478233885
0.49605303530580225 0.011932185073454537 0.17587328591444756
0.3846202510863508 0.12172913479057663 0.1907911276903037
0.4179864775857154 -0.008548904689005063 0.32303273001914906
0.5246517300253484 0.1138165996997945 0.32486578478233885
0.6960530353058023 0.011932185073454537 0.17587328591444756
0.5846202510863509 0.12172913479057663 0.1907911276903037
0.6179864775857155 -0.008548904689005063 0.32303273001914906
0.7246517300253483 0.1138165996997945 0.32486578478233885
0.8960530353058023 0.011932185073454537 0.17587328591444756
0.7846202510863508 0.12172913479057663 0.1907911276903037
0.8179864775857153 -0.008548904689005063 0.32303273001914906
0.9246517300253484 0.1138165996997945 0.32486578478233885
0.09605303530580228 0.21193218507345454 0.17587328591444756
-0.015379748913649197 0.32172913479057663 0.1907911276903037
0.01798647758571535 0.19145109531099494 0.32303273001914906
0.12465173002534834 0.31381659969979453 0.32486578478233885
0.2960530353058023 0.21193218507345454 0.17587328591444756
0.18462025108635083 0.32172913479057663 0.1907911276903037
0.21798647758571535 0.19145109531099494 0.32303273001914906
0.32465173002534836 0.31381659969979453 0.32486578478233885
0.49605303530580225 0.21193218507345454 0.17587328591444756
0.3846202510863508 0.32172913479057663 0.1907911276903037
0.4179864775857154 0.19145109531099494 0.32303273001914906
0.5246517300253484 0.31381659969979453 0.32486578478233885
0.6960530353058023 0.21193218507345454 0.17587328591444756
0.5846202510863509 0.32172913479057663 0.1907911276903037
0.6179864775857155 0.19145109531099494 0.32303273001914906
0.7246517300253483 0.31381659969979453 0.32486578478233885
0.8960530353058023 0.21193218507345454 0.17587328591444756
0.7846202510863508 0.32172913479057663 0.1907911276903037
0.8179864775857153 0.19145109531099494 0.32303273001914906
0.9246517300253484 0.31381659969979453 0.32486578478233885
0.09605303530580228 0.4119321850734545 0.17587328591444756
-0.015379748913649197 0.5217291347905766 0.1907911276903037
0.01798647758571535 0.391451095310995 0.32303273001914906
0.12465173002534834 0.5138165996997944 0.32486578478233885
0.2960530353058023 0.4119321850734545 0.17587328591444756
0.18462025108635083 0.5217291347905766 0.1907911276903037
0.21798647758571535 0.391451095310995 0.32303273001914906
0.32465173002534836 0.5138165996997944 0.32486578478233885
0.49605303530580225 0.4119321850734545 0.17587328591444756
0.3846202510863508 0.5217291347905766 0.1907911276903037
0.4179864775857154 0.391451095310995 0.32303273001914906
0.5246517300253484 0.5138165996997944 0.32486578478233885
0.6960530353058023 0.4119321850734545 0.17587328591444756
0.5846202510863509 0.5217291347905766 0.1907911276903037
0.6179864775857155 0.391451095310995 0.32303273001914906
0.7246517300253483 0.5138165996997944 0.32486578478233885
0.8960530353058023 0.4119321850734545 0.17587328591444756
0.7846202510863508 0.5217291347905766 0.1907911276903037
0.8179864775857153 0.391451095310995 0.32303273001914906
0.9246517300253484 0.5138165996997944 0.32486578478233885
0.09605303530580228 0.6119321850734546 0.17587328591444756
-0.015379748913649197 0.7217291347905767 0.1907911276903037
0.01798647758571535 0.5914510953109949 0.32303273001914906
0.12465173002534834 0.7138165996997945 0.32486578478233885
0.2960530353058023 0.6119321850734546 0.17587328591444756
0.18462025108635083 0.7217291347905767 0.1907911276903037
0.21798647758571535 0.5914510953109949 0.32303273001914906
0.32465173002534836 0.7138165996997945 0.32486578478233885
0.49605303530580225 0.6119321850734546 0.17587328591444756
0.3846202510863508 0.7217291347905767 0.1907911276903037
0.4179864775857154 0.5914510953109949 0.32303273001914906
0.5246517300253484 0.7138165996997945 0.32486578478233885
0.6960530353058023 0.6119321850734546 0.17587328591444756
0.5846202510863509 0.7217291347905767 0.1907911276903037
0.6179864775857155 0.5914510953109949 0.32303273001914906
0.7246517300253483 0.7138165996997945 0.32486578478233885
0.8960530353058023 0.6119321850734546 0.17587328591444756
0.7846202510863508 0.7217291347905767 0.1907911276903037
0.8179864775857153 0.5914510953109949 0.32303273001914906
0.9246517300253484 0.7138165996997945 0.32486578478233885
0.09605303530580228 0.8119321850734545 0.17587328591444756
-0.015379748913649197 0.9217291347905766 0.1907911276903037
0.01798647758571535 0.791451095310995 0.32303273001914906
0.12465173002534834 0.9138165996997945 0.32486578478233885
0.2960530353058023 0.8119321850734545 0.17587328591444756
0.18462025108635083 0.9217291347905766 0.1907911276903037
0.21798647758571535 0.791451095310995 0.32303273001914906
0.32465173002534836 0.9138165996997945 0.32486578478233885
0.49605303530580225 0.8119321850734545 0.17587328591444756
0.3846202510863508 0.9217291347905766 0.1907911276903037
0.4179864775857154 0.791451095310995 0.32303273001914906
0.5246517300253484 0.9138165996997945 0.32486578478233885
0.6960530353058023 0.8119321850734545 0.17587328591444756
0.5846202510863509 0.9217291347905766 0.1907911276903037
0.6179864775857155 0.791451095310995 0.32303273001914906
0.7246517300253483 0.9138165996997945 0.32486578478233885
0.8960530353058023 0.8119321850734545 0.17587328591444756
0.7846202510863508 0.9217291347905766 0.1907911276903037
0.8179864775857153 0.791451095310995 0.32303273001914906
0.9246517300253484 0.9138165996997945 0.32486578478233885
0.09605303530580228 0.011932185073454537 0.3758732859144476
-0.015379748913649197 0.12172913479057663 0.3907911276903037
0.01798647758571535 -0.008548904689005063 0.5230327300191491
0.12465173002534834 0.1138165996997945 0.5248657847823388
0.2960530353058023 0.011932185073454537 0.3758732859144476
0.18462025108635083 0.12172913479057663 0.3907911276903037
0.21798647758571535 -0.008548904689005063 0.5230327300191491
0.32465173002534836 0.1138165996997945 0.5248657847823388
0.49605303530580225 0.011932185073454537 0.3758732859144476
0.3846202510863508 0.12172913479057663 0.3907911276903037
0.4179864775857154 -0.008548904689005063 0.5230327300191491
0.5246517300253484 0.1138165996997945 0.5248657847823388
0.6960530353058023 0.011932185073454537 0.3758732859144476
0.5846202510863509 0.12172913479057663 0.3907911276903037
0.6179864775857155 -0.008548904689005063 0.5230327300191491
0.7246517300253483 0.1138165996997945 0.5248657847823388
0.8960530353058023 0.011932185073454537 0.3758732859144476
0.7846202510863508 0.12172913479057663 0.3907911276903037
0.8179864775857153 -0.008548904689005063 0.5230327300191491
0.9246517300253484 0.1138165996997945 0.5248657847823388
0.09605303530580228 0.21193218507345454 0.3758732859144476
-0.015379748913649197 0.32172913479057663 0.3907911276903037
0.01798647758571535 0.19145109531099494 0.5230327300191491
0.12465173002534834 0.31381659969979453 0.5248657847823388
0.2960530353058023 0.21193218507345454 0.3758732859144476
0.18462025108635083 0.32172913479057663 0.3907911276903037
0.21798647758571535 0.19145109531099494 0.5230327300191491
0.32465173002534836 0.31381659969979453 0.5248657847823388
0.49605303530580225 0.21193218507345454 0.3758732859144476
0.3846202510863508 0.32172913479057663 0.3907911276903037
0.4179864775857154 0.19145109531099494 0.5230327300191491
0.5246517300253484 0.31381659969979453 0.5248657847823388
0.6960530353058023 0.21193218507345454 0.3758732859144476
0.5846202510863509 0.32172913479057663 0.3907911276903037
0.6179864775857155 0.19145109531099494 0.5230327300191491
0.7246517300253483 0.31381659969979453 0.5248657847823388
0.8960530353058023 0.21193218507345454 0.3758732859144476
0.7846202510863508 0.32172913479057663 0.3907911276903037
0.8179864775857153 0.19145109531099494 0.5230327300191491
0.9246517300253484 0.31381659969979453 0.5248657847823388
0.09605303530580228 0.4119321850734545 0.3758732859144476
-0.015379748913649197 0.5217291347905766 0.3907911276903037
0.01798647758571535 0.391451095310995 0.5230327300191491
0.12465173002534834 0.5138165996997944 0.5248657847823388
0.2960530353058023 0.4119321850734545 0.3758732859144476
0.18462025108635083 0.5217291347905766 0.3907911276903037
0.21798647758571535 0.391451095310995 0.5230327300191491
0.32465173002534836 0.5138165996997944 0.5248657847823388
0.49605303530580225 0.4119321850734545 0.3758732859144476
0.3846202510863508 0.5217291347905766 0.3907911276903037
0.4179864775857154 0.391451095310995 0.5230327300191491
0.5246517300253484 0.5138165996997944 0.5248657847823388
0.6960530353058023 0.4119321850734545 0.3758732859144476
0.5846202510863509 0.5217291347905766 0.3907911276903037
0.6179864775857155 0.391451095310995 0.5230327300191491
0.7246517300253483 0.5138165996997944 0.5248657847823388
0.8960530353058023 0.4119321850734545 0.3758732859144476
0.7846202510863508 0.5217291347905766 0.3907911276903037
0.8179864775857153 0.391451095310995 0.5230327300191491
0.9246517300253484 0.5138165996997944 0.5248657847823388
0.09605303530580228 0.6119321850734546 0.3758732859144476
-0.015379748913649197 0.7217291347905767 0.3907911276903037
0.01798647758571535 0.5914510953109949 0.5230327300191491
0.12465173002534834 0.7138165996997945 0.5248657847823388
0.2960530353058023 0.6119321850734546 0.3758732859144476
0.18462025108635083 0.7217291347905767 0.3907911276903037
0.21798647758571535 0.5914510953109949 0.5230327300191491
0.32465173002534836 0.7138165996997945 0.5248657847823388
0.49605303530580225 0.6119321850734546 0.3758732859144476
0.3846202510863508 0.7217291347905767 0.3907911276903037
0.4179864775857154 0.5914510953109949 0.5230327300191491
0.5246517300253484 0.7138165996997945 0.5248657847823388
0.6960530353058023 0.6119321850734546 0.3758732859144476
0.5846202510863509 0.7217291347905767 0.3907911276903037
0.6179864775857155 0.5914510953109949 0.5230327300191491
0.7246517300253483 0.7138165996997945 0.5248657847823388
0.8960530353058023 0.6119321850734546 0.3758732859144476
0.7846202510863508 0.7217291347905767 0.3907911276903037
0.8179864775857153 0.5914510953109949 0.5230327300191491
0.9246517300253484 0.7138165996997945 0.5248657847823388
0.09605303530580228 0.8119321850734545 0.3758732859144476
-0.015379748913649197 0.9217291347905766 0.3907911276903037
0.01798647758571535 0.791451095310995 0.5230327300191491
0.12465173002534834 0.9138165996997945 0.5248657847823388
0.2960530353058023 0.8119321850734545 0.3758732859144476
0.18462025108635083 0.9217291347905766 0.3907911276903037
0.21798647758571535 0.791451095310995 0.5230327300191491
0.32465173002534836 0.9138165996997945 0.5248657847823388
0.49605303530580225 0.8119321850734545 0.3758732859144476
0.3846202510863508 0.9217291347905766 0.3907911276903037
0.4179864775857154 0.791451095310995 0.5230327300191491
0.5246517300253484 0.9138165996997945 0.5248657847823388
0.6960530353058023 0.8119321850734545 0.3758732859144476
0.5846202510863509 0.9217291347905766 0.3907911276903037
0.6179864775857155 0.791451095310995 0.5230327300191491
0.7246517300253483 0.9138165996997945 0.5248657847823388
0.8960530353058023 0.8119321850734545 0.3758732859144476
0.7846202510863508 0.9217291347905766 0.3907911276903037
0.8179864775857153 0.791451095310995 0.5230327300191491
0.9246517300253484 0.9138165996997945 0.5248657847823388
0.09605303530580228 0.011932185073454537 0.5758732859144476
-0.015379748913649197 0.12172913479057663 0.5907911276903037
0.01798647758571535 -0.008548904689005063 0.723032730019149
0.12465173002534834 0.1138165996997945 0.7248657847823389
0.2960530353058023 0.011932185073454537 0.5758732859144476
0.18462025108635083 0.12172913479057663 0.5907911276903037
0.21798647758571535 -0.008548904689005063 0.723032730019149
0.32465173002534836 0.1138165996997945 0.7248657847823389
0.49605303530580225 0.011932185073454537 0.5758732859144476
0.3846202510863508 0.12172913479057663 0.5907911276903037
0.4179864775857154 -0.008548904689005063 0.723032730019149
0.5246517300253484 0.1138165996997945 0.7248657847823389
0.6960530353058023 0.011932185073454537 0.5758732859144476
0.5846202510863509 0.12172913479057663 0.5907911276903037
0.6179864775857155 -0.008548904689005063 0.723032730019149
0.7246517300253483 0.1138165996997945 0.7248657847823389
0.8960530353058023 0.011932185073454537 0.5758732859144476
0.7846202510863508 0.12172913479057663 0.5907911276903037
0.8179864775857153 -0.008548904689005063 0.723032730019149
0.9246517300253484 0.1138165996997945 0.7248657847823389
0.09605303530580228 0.21193218507345454 0.5758732859144476
-0.015379748913649197 0.32172913479057663 0.5907911276903037
0.01798647758571535 0.19145109531099494 0.723032730019149
0.12465173002534834 0.31381659969979453 0.7248657847823389
0.2960530353058023 0.21193218507345454 0.5758732859144476
0.18462025108635083 0.32172913479057663 0.5907911276903037
0.21798647758571535 0.19145109531099494 0.723032730019149
0.32465173002534836 0.31381659969979453 0.7248657847823389
0.49605303530580225 0.21193218507345454 0.5758732859144476
0.3846202510863508 0.32172913479057663 0.5907911276903037
0.4179864775857154 0.19145109531099494 0.723032730019149
0.5246517300253484 0.31381659969979453 0.7248657847823389
0.6960530353058023 0.21193218507345454 0.5758732859144476
0.5846202510863509 0.32172913479057663 0.5907911276903037
0.6179864775857155 0.19145109531099494 0.723032730019149
0.7246517300253483 0.31381659969979453 0.7248657847823389
0.8960530353058023 0.21193218507345454 0.5758732859144476
0.7846202510863508 0.32172913479057663 0.5907911276903037
0.8179864775857153 0.19145109531099494 0.723032730019149
0.9246517300253484 0.31381659969979453 0.7248657847823389
0.09605303530580228 0.4119321850734545 0.5758732859144476
-0.015379748913649197 0.5217291347905766 0.5907911276903037
0.01798647758571535 0.391451095310995 0.723032730019149
0.12465173002534834 0.5138165996997944 0.7248657847823389
0.2960530353058023 0.4119321850734545 0.5758732859144476
0.18462025108635083 0.5217291347905766 0.5907911276903037
0.21798647758571535 0.391451095310995 0.723032730019149
0.32465173002534836 0.5138165996997944 0.7248657847823389
0.49605303530580225 0.4119321850734545 0.5758732859144476
0.3846202510863508 0.5217291347905766 0.5907911276903037
0.4179864775857154 0.391451095310995 0.723032730019149
0.5246517300253484 0.5138165996997944 0.7248657847823389
0.6960530353058023 0.4119321850734545 0.5758732859144476
0.5846202510863509 0.5217291347905766 0.5907911276903037
0.6179864775857155 0.391451095310995 0.723032730019149
0.7246517300253483 0.5138165996997944 0.7248657847823389
0.8960530353058023 0.4119321850734545 0.5758732859144476
0.7846202510863508 0.5217291347905766 0.5907911276903037
0.8179864775857153 0.391451095310995 0.723032730019149
0.9246517300253484 0.5138165996997944 0.7248657847823389
0.09605303530580228 0.6119321850734546 0.5758732859144476
-0.015379748913649197 0.7217291347905767 0.5907911276903037
0.01798647758571535 0.5914510953109949 0.723032730019149
0.12465173002534834 0.7138165996997945 0.7248657847823389
0.2960530353058023 0.6119321850734546 0.5758732859144476
0.18462025108635083 0.7217291347905767 0.5907911276903037
0.21798647758571535 0.5914510953109949 0.723032730019149
0.32465173002534836 0.7138165996997945 0.7248657847823389
0.49605303530580225 0.6119321850734546 0.5758732859144476
0.3846202510863508 0.7217291347905767 0.5907911276903037
0.4179864775857154 0.5914510953109949 0.723032730019149
0.5246517300253484 0.7138165996997945 0.7248657847823389
0.6960530353058023 0.6119321850734546 0.5758732859144476
0.5846202510863509 0.7217291347905767 0.5907911276903037
0.6179864775857155 0.5914510953109949 0.723032730019149
0.7246517300253483 0.7138165996997945 0.7248657847823389
0.8960530353058023 0.6119321850734546 0.5758732859144476
0.7846202510863508 0.7217291347905767 0.5907911276903037
0.8179864775857153 0.5914510953109949 0.723032730019149
0.9246517300253484 0.7138165996997945 0.7248657847823389
0.09605303530580228 0.8119321850734545 0.5758732859144476
-0.015379748913649197 0.9217291347905766 0.5907911276903037
0.01798647758571535 0.791451095310995 0.723032730019149
0.12465173002534834 0.9138165996997945 0.7248657847823389
0.2960530353058023 0.8119321850734545 0.5758732859144476
0.18462025108635083 0.9217291347905766 0.5907911276903037
0.21798647758571535 0.791451095310995 0.723032730019149
0.32465173002534836 0.9138165996997945 0.7248657847823389
0.49605303530580225 0.8119321850734545 0.5758732859144476
0.3846202510863508 0.9217291347905766 0.5907911276903037
0.4179864775857154 0.791451095310995 0.723032730019149
0.5246517300253484 0.9138165996997945 0.7248657847823389
0.6960530353058023 0.8119321850734545 0.5758732859144476
0.5846202510863509 0.9217291347905766 0.5907911276903037
0.6179864775857155 0.791451095310995 0.723032730019149
0.7246517300253483 0.9138165996997945 0.7248657847823389
0.8960530353058023 0.8119321850734545 0.5758732859144476
0.7846202510863508 0.9217291347905766 0.5907911276903037
0.8179864775857153 0.791451095310995 0.723032730019149
0.9246517300253484 0.9138165996997945 0.7248657847823389
0.09605303530580228 0.011932185073454537 0.7758732859144476
-0.015379748913649197 0.12172913479057663 0.7907911276903037
0.01798647758571535 -0.008548904689005063 0.9230327300191491
0.12465173002534834 0.1138165996997945 0.9248657847823388
0.2960530353058023 0.011932185073454537 0.7758732859144476
0.18462025108635083 0.12172913479057663 0.7907911276903037
0.21798647758571535 -0.008548904689005063 0.9230327300191491
0.32465173002534836 0.1138165996997945 0.9248657847823388
0.49605303530580225 0.011932185073454537 0.7758732859144476
0.3846202510863508 0.12172913479057663 0.7907911276903037
0.4179864775857154 -0.008548904689005063 0.9230327300191491
0.5246517300253484 0.1138165996997945 0.9248657847823388
0.6960530353058023 0.011932185073454537 0.7758732859144476
0.5846202510863509 0.12172913479057663 0.7907911276903037
0.6179864775857155 -0.008548904689005063 0.9230327300191491
0.7246517300253483 0.1138165996997945 0.9248657847823388
0.8960530353058023 0.011932185073454537 0.7758732859144476
0.7846202510863508 0.12172913479057663 0.7907911276903037
0.8179864775857153 -0.008548904689005063 0.9230327300191491
0.9246517300253484 0.1138165996997945 0.9248657847823388
0.09605303530580228 0.21193218507345454 0.7758732859144476
-0.015379748913649197 0.32172913479057663 0.7907911276903037
0.01798647758571535 0.19145109531099494 0.9230327300191491
0.12465173002534834 0.31381659969979453 0.9248657847823388
0.2960530353058023 0.21193218507345454 0.7758732859144476
0.18462025108635083 0.32172913479057663 0.7907911276903037
0.21798647758571535 0.19145109531099494 0.9230327300191491
0.32465173002534836 0.31381659969979453 0.9248657847823388
0.49605303530580225 0.21193218507345454 0.7758732859144476
0.3846202510863508 0.32172913479057663 0.7907911276903037
0.4179864775857154 0.19145109531099494 0.9230327300191491
0.5246517300253484 0.31381659969979453 0.9248657847823388
0.6960530353058023 0.21193218507345454 0.7758732859144476
0.5846202510863509 0.32172913479057663 0.7907911276903037
0.6179864775857155 0.19145109531099494 0.9230327300191491
0.7246517300253483 0.31381659969979453 0.9248657847823388
0.8960530353058023 0.21193218507345454 0.7758732859144476
0.7846202510863508 0.32172913479057663 0.7907911276903037
0.8179864775857153 0.19145109531099494 0.9230327300191491
0.9246517300253484 0.31381659969979453 0.9248657847823388
0.09605303530580228 0.4119321850734545 0.7758732859144476
-0.015379748913649197 0.5217291347905766 0.7907911276903037
0.01798647758571535 0.391451095310995 0.9230327300191491
0.12465173002534834 0.5138165996997944 0.9248657847823388
0.2960530353058023 0.4119321850734545 0.7758732859144476
0.18462025108635083 0.5217291347905766 0.7907911276903037
0.21798647758571535 0.391451095310995 0.9230327300191491
0.32465173002534836 0.5138165996997944 0.9248657847823388
0.49605303530580225 0.4119321850734545 0.7758732859144476
0.3846202510863508 0.5217291347905766 0.7907911276903037
0.4179864775857154 0.391451095310995 0.9230327300191491
0.5246517300253484 0.5138165996997944 0.9248657847823388
0.6960530353058023 0.4119321850734545 0.7758732859144476
0.5846202510863509 0.5217291347905766 0.7907911276903037
0.6179864775857155 0.391451095310995 0.9230327300191491
0.7246517300253483 0.5138165996997944 0.9248657847823388
0.8960530353058023 0.4119321850734545 0.7758732859144476
0.7846202510863508 0.5217291347905766 0.7907911276903037
0.8179864775857153 0.391451095310995 0.9230327300191491
0.9246517300253484 0.5138165996997944 0.9248657847823388
0.09605303530580228 0.6119321850734546 0.7758732859144476
-0.015379748913649197 0.7217291347905767 0.7907911276903037
0.01798647758571535 0.5914510953109949 0.9230327300191491
0.12465173002534834 0.7138165996997945 0.9248657847823388
0.2960530353058023 0.6119321850734546 0.7758732859144476
0.18462025108635083 0.7217291347905767 0.7907911276903037
0.21798647758571535 0.5914510953109949 0.9230327300191491
0.32465173002534836 0.7138165996997945 0.9248657847823388
0.49605303530580225 0.6119321850734546 0.7758732859144476
0.3846202510863508 0.7217291347905767 0.7907911276903037
0.4179864775857154 0.5914510953109949 0.9230327300191491
0.5246517300253484 0.7138165996997945 0.9248657847823388
0.6960530353058023 0.6119321850734546 0.7758732859144476
0.5846202510863509 0.7217291347905767 0.7907911276903037
0.6179864775857155 0.5914510953109949 0.9230327300191491
0.7246517300253483 0.7138165996997945 0.9248657847823388
0.8960530353058023 0.6119321850734546 0.7758732859144476
0.7846202510863508 0.7217291347905767 0.7907911276903037
0.8179864775857153 0.5914510953109949 0.9230327300191491
0.9246517300253484 0.7138165996997945 0.9248657847823388
0.09605303530580228 0.8119321850734545 0.7758732859144476
-0.015379748913649197 0.9217291347905766 0.7907911276903037
0.01798647758571535 0.791451095310995 0.9230327300191491
0.12465173002534834 0.9138165996997945 0.9248657847823388
0.2960530353058023 0.8119321850734545 0.7758732859144476
0.18462025108635083 0.9217291347905766 0.7907911276903037
0.21798647758571535 0.791451095310995 0.9230327300191491
0.32465173002534836 0.9138165996997945 0.9248657847823388
0.49605303530580225 0.8119321850734545 0.7758732859144476
0.3846202510863508 0.9217291347905766 0.7907911276903037
0.4179864775857154 0.791451095310995 0.9230327300191491
0.5246517300253484 0.9138165996997945 0.9248657847823388
0.6960530353058023 0.8119321850734545 0.7758732859144476
0.5846202510863509 0.9217291347905766 0.7907911276903037
0.6179864775857155 0.791451095310995 0.9230327300191491
0.7246517300253483 0.9138165996997945 0.9248657847823388
0.8960530353058023 0.8119321850734545 0.7758732859144476
0.7846202510863508 0.9217291347905766 0.7907911276903037
0.8179864775857153 0.791451095310995 0.9230327300191491
0.9246517300253484 0.9138165996997945 0.9248657847823388
