FCC BaO
3.971
5.0 0.0 0.0
0.0 5.0 0.0
0.0 0.0 5.0
Ba O 
500 500 
Direct
-0.02953109703861087 0.0166855718398314 -0.0209515526503741
0.014475711598194399 0.08926923389722781 0.08165905125030758
0.07203614141845531 0.00039355637745854157 0.10759169572462308
0.11795481234600771 0.10681825714607607 0.023206854599630837
0.17046890296138914 0.0166855718398314 -0.0209515526503741
0.2144757115981944 0.08926923389722781 0.08165905125030758
0.2720361414184553 0.00039355637745854157 0.10759169572462308
0.31795481234600775 0.10681825714607607 0.023206854599630837
0.3704689029613892 0.0166855718398314 -0.0209515526503741
0.41447571159819446 0.08926923389722781 0.08165905125030758
0.4720361414184553 0.00039355637745854157 0.10759169572462308
0.5179548123460077 0.10681825714607607 0.023206854599630837
0.5704689029613891 0.0166855718398314 -0.0209515526503741
0.6144757115981945 0.08926923389722781 0.08165905125030758
0.6720361414184554 0.00039355637745854157 0.10759169572462308
0.7179548123460078 0.10681825714607607 0.023206854599630837
0.7704689029613891 0.0166855718398314 -0.0209515526503741
0.8144757115981944 0.08926923389722781 0.08165905125030758
0.8720361414184554 0.00039355637745854157 0.10759169572462308
0.9179548123460077 0.10681825714607607 0.023206854599630837
-0.02953109703861087 0.21668557183983142 -0.0209515526503741
0.014475711598194399 0.2892692338972278 0.08165905125030758
0.07203614141845531 0.20039355637745856 0.10759169572462308
0.11795481234600771 0.3068182571460761 0.023206854599630837
0.17046890296138914 0.21668557183983142 -0.0209515526503741
0.2144757115981944 0.2892692338972278 0.08165905125030758
0.2720361414184553 0.20039355637745856 0.10759169572462308
0.31795481234600775 0.3068182571460761 0.023206854599630837
0.3704689029613892 0.21668557183983142 -0.0209515526503741
0.41447571159819446 0.2892692338972278 0.08165905125030758
0.4720361414184553 0.20039355637745856 0.10759169572462308
0.5179548123460077 0.3068182571460761 0.023206854599630837
0.5704689029613891 0.21668557183983142 -0.0209515526503741
0.6144757115981945 0.2892692338972278 0.08165905125030758
0.6720361414184554 0.20039355637745856 0.10759169572462308
0.7179548123460078 0.3068182571460761 0.023206854599630837
0.7704689029613891 0.21668557183983142 -0.0209515526503741
0.8144757115981944 0.2892692338972278 0.08165905125030758
0.8720361414184554 0.20039355637745856 0.10759169572462308
0.9179548123460077 0.3068182571460761 0.023206854599630837
-0.02953109703861087 0.41668557183983146 -0.0209515526503741
0.014475711598194399 0.4892692338972278 0.08165905125030758
0.07203614141845531 0.40039355637745855 0.10759169572462308
0.11795481234600771 0.5068182571460761 0.023206854599630837
0.17046890296138914 0.41668557183983146 -0.0209515526503741
0.2144757115981944 0.4892692338972278 0.08165905125030758
0.2720361414184553 0.40039355637745855 0.10759169572462308
0.31795481234600775 0.5068182571460761 0.023206854599630837
0.3704689029613892 0.41668557183983146 -0.0209515526503741
0.41447571159819446 0.4892692338972278 0.08165905125030758
0.4720361414184553 0.40039355637745855 0.10759169572462308
0.5179548123460077 0.5068182571460761 0.023206854599630837
0.5704689029613891 0.41668557183983146 -0.0209515526503741
0.6144757115981945 0.4892692338972278 0.08165905125030758
0.6720361414184554 0.40039355637745855 0.10759169572462308
0.7179548123460078 0.5068182571460761 0.023206854599630837
0.7704689029613891 0.41668557183983146 -0.0209515526503741
0.8144757115981944 0.4892692338972278 0.08165905125030758
0.8720361414184554 0.40039355637745855 0.10759169572462308
0.9179548123460077 0.5068182571460761 0.023206854599630837
-0.02953109703861087 0.6166855718398314 -0.0209515526503741
0.014475711598194399 0.6892692338972278 0.08165905125030758
0.07203614141845531 0.6003935563774586 0.10759169572462308
0.11795481234600771 0.7068182571460762 0.023206854599630837
0.17046890296138914 0.6166855718398314 -0.0209515526503741
0.2144757115981944 0.6892692338972278 0.08165905125030758
0.2720361414184553 0.6003935563774586 0.10759169572462308
0.31795481234600775 0.7068182571460762 0.023206854599630837
0.3704689029613892 0.6166855718398314 -0.0209515526503741
0.41447571159819446 0.6892692338972278 0.08165905125030758
0.4720361414184553 0.6003935563774586 0.10759169572462308
0.5179548123460077 0.7068182571460762 0.023206854599630837
0.5704689029613891 0.6166855718398314 -0.0209515526503741
0.6144757115981945 0.6892692338972278 0.08165905125030758
0.6720361414184554 0.6003935563774586 0.10759169572462308
0.7179548123460078 0.7068182571460762 0.023206854599630837
0.7704689029613891 0.6166855718398314 -0.0209515526503741
0.8144757115981944 0.6892692338972278 0.08165905125030758
0.8720361414184554 0.6003935563774586 0.10759169572462308
0.9179548123460077 0.7068182571460762 0.023206854599630837
-0.02953109703861087 0.8166855718398314 -0.0209515526503741
0.014475711598194399 0.8892692338972279 0.08165905125030758
0.07203614141845531 0.8003935563774585 0.10759169572462308
0.11795481234600771 0.906818257146076 0.023206854599630837
0.17046890296138914 0.8166855718398314 -0.0209515526503741
0.2144757115981944 0.8892692338972279 0.08165905125030758
0.2720361414184553 0.8003935563774585 0.10759169572462308
0.31795481234600775 0.906818257146076 0.023206854599630837
0.3704689029613892 0.8166855718398314 -0.0209515526503741
0.41447571159819446 0.8892692338972279 0.08165905125030758
0.4720361414184553 0.8003935563774585 0.10759169572462308
0.5179548123460077 0.906818257146076 0.023206854599630837
0.5704689029613891 0.8166855718398314 -0.0209515526503741
0.6144757115981945 0.8892692338972279 0.08165905125030758
0.6720361414184554 0.8003935563774585 0.10759169572462308
0.7179548123460078 0.906818257146076 0.023206854599630837
0.7704689029613891 0.8166855718398314 -0.0209515526503741
0.8144757115981944 0.8892692338972279 0.08165905125030758
0.8720361414184554 0.8003935563774585 0.10759169572462308
0.9179548123460077 0.906818257146076 0.023206854599630837
-0.02953109703861087 0.0166855718398314 0.1790484473496259
0.014475711598194399 0.08926923389722781 0.2816590512503076
0.07203614141845531 0.00039355637745854157 0.30759169572462314
0.11795481234600771 0.10681825714607607 0.22320685459963086
0.17046890296138914 0.0166855718398314 0.1790484473496259
0.2144757115981944 0.08926923389722781 0.2816590512503076
0.2720361414184553 0.00039355637745854157 0.30759169572462314
0.31795481234600775 0.10681825714607607 0.22320685459963086
0.3704689029613892 0.0166855718398314 0.1790484473496259
0.41447571159819446 0.08926923389722781 0.2816590512503076
0.4720361414184553 0.00039355637745854157 0.30759169572462314
0.5179548123460077 0.10681825714607607 0.22320685459963086
0.5704689029613891 0.0166855718398314 0.1790484473496259
0.6144757115981945 0.08926923389722781 0.2816590512503076
0.6720361414184554 0.00039355637745854157 0.30759169572462314
0.7179548123460078 0.10681825714607607 0.22320685459963086
0.7704689029613891 0.0166855718398314 0.1790484473496259
0.8144757115981944 0.08926923389722781 0.2816590512503076
0.8720361414184554 0.00039355637745854157 0.30759169572462314
0.9179548123460077 0.10681825714607607 0.22320685459963086
-0.02953109703861087 0.21668557183983142 0.1790484473496259
0.014475711598194399 0.2892692338972278 0.2816590512503076
0.07203614141845531 0.20039355637745856 0.30759169572462314
0.11795481234600771 0.3068182571460761 0.22320685459963086
0.17046890296138914 0.21668557183983142 0.1790484473496259
0.2144757115981944 0.2892692338972278 0.2816590512503076
0.2720361414184553 0.20039355637745856 0.30759169572462314
0.31795481234600775 0.3068182571460761 0.22320685459963086
0.3704689029613892 0.21668557183983142 0.1790484473496259
0.41447571159819446 0.2892692338972278 0.2816590512503076
0.4720361414184553 0.20039355637745856 0.30759169572462314
0.5179548123460077 0.3068182571460761 0.22320685459963086
0.5704689029613891 0.21668557183983142 0.1790484473496259
0.6144757115981945 0.2892692338972278 0.2816590512503076
0.6720361414184554 0.20039355637745856 0.30759169572462314
0.7179548123460078 0.3068182571460761 0.22320685459963086
0.7704689029613891 0.21668557183983142 0.1790484473496259
0.8144757115981944 0.2892692338972278 0.2816590512503076
0.8720361414184554 0.20039355637745856 0.30759169572462314
0.9179548123460077 0.3068182571460761 0.22320685459963086
-0.02953109703861087 0.41668557183983146 0.1790484473496259
0.014475711598194399 0.4892692338972278 0.2816590512503076
0.07203614141845531 0.40039355637745855 0.30759169572462314
0.11795481234600771 0.5068182571460761 0.22320685459963086
0.17046890296138914 0.41668557183983146 0.1790484473496259
0.2144757115981944 0.4892692338972278 0.2816590512503076
0.2720361414184553 0.40039355637745855 0.30759169572462314
0.31795481234600775 0.5068182571460761 0.22320685459963086
0.3704689029613892 0.41668557183983146 0.1790484473496259
0.41447571159819446 0.4892692338972278 0.2816590512503076
0.4720361414184553 0.40039355637745855 0.30759169572462314
0.5179548123460077 0.5068182571460761 0.22320685459963086
0.5704689029613891 0.41668557183983146 0.1790484473496259
0.6144757115981945 0.4892692338972278 0.2816590512503076
0.6720361414184554 0.40039355637745855 0.30759169572462314
0.7179548123460078 0.5068182571460761 0.22320685459963086
0.7704689029613891 0.41668557183983146 0.1790484473496259
0.8144757115981944 0.4892692338972278 0.2816590512503076
0.8720361414184554 0.40039355637745855 0.30759169572462314
0.9179548123460077 0.5068182571460761 0.22320685459963086
-0.02953109703861087 0.6166855718398314 0.1790484473496259
0.014475711598194399 0.6892692338972278 0.2816590512503076
0.07203614141845531 0.6003935563774586 0.30759169572462314
0.11795481234600771 0.7068182571460762 0.22320685459963086
0.17046890296138914 0.6166855718398314 0.1790484473496259
0.2144757115981944 0.6892692338972278 0.2816590512503076
0.2720361414184553 0.6003935563774586 0.30759169572462314
0.31795481234600775 0.7068182571460762 0.22320685459963086
0.3704689029613892 0.6166855718398314 0.1790484473496259
0.41447571159819446 0.6892692338972278 0.2816590512503076
0.4720361414184553 0.6003935563774586 0.30759169572462314
0.5179548123460077 0.7068182571460762 0.22320685459963086
0.5704689029613891 0.6166855718398314 0.1790484473496259
0.6144757115981945 0.6892692338972278 0.2816590512503076
0.6720361414184554 0.6003935563774586 0.30759169572462314
0.7179548123460078 0.7068182571460762 0.22320685459963086
0.7704689029613891 0.6166855718398314 0.1790484473496259
0.8144757115981944 0.6892692338972278 0.2816590512503076
0.8720361414184554 0.6003935563774586 0.30759169572462314
0.9179548123460077 0.7068182571460762 0.22320685459963086
-0.02953109703861087 0.8166855718398314 0.1790484473496259
0.014475711598194399 0.8892692338972279 0.2816590512503076
0.07203614141845531 0.8003935563774585 0.30759169572462314
0.11795481234600771 0.906818257146076 0.22320685459963086
0.17046890296138914 0.8166855718398314 0.1790484473496259
0.2144757115981944 0.8892692338972279 0.2816590512503076
0.2720361414184553 0.8003935563774585 0.30759169572462314
0.31795481234600775 0.906818257146076 0.22320685459963086
0.3704689029613892 0.8166855718398314 0.1790484473496259
0.41447571159819446 0.8892692338972279 0.2816590512503076
0.4720361414184553 0.8003935563774585 0.30759169572462314
0.5179548123460077 0.906818257146076 0.22320685459963086
0.5704689029613891 0.8166855718398314 0.1790484473496259
0.6144757115981945 0.8892692338972279 0.2816590512503076
0.6720361414184554 0.8003935563774585 0.30759169572462314
0.7179548123460078 0.906818257146076 0.22320685459963086
0.7704689029613891 0.8166855718398314 0.1790484473496259
0.8144757115981944 0.8892692338972279 0.2816590512503076
0.8720361414184554 0.8003935563774585 0.30759169572462314
0.9179548123460077 0.906818257146076 0.22320685459963086
-0.02953109703861087 0.0166855718398314 0.3790484473496259
0.014475711598194399 0.08926923389722781 0.4816590512503076
0.07203614141845531 0.00039355637745854157 0.5075916957246231
0.11795481234600771 0.10681825714607607 0.42320685459963087
0.17046890296138914 0.0166855718398314 0.3790484473496259
0.2144757115981944 0.08926923389722781 0.4816590512503076
0.2720361414184553 0.00039355637745854157 0.5075916957246231
0.31795481234600775 0.10681825714607607 0.42320685459963087
0.3704689029613892 0.0166855718398314 0.3790484473496259
0.41447571159819446 0.08926923389722781 0.4816590512503076
0.4720361414184553 0.00039355637745854157 0.5075916957246231
0.5179548123460077 0.10681825714607607 0.42320685459963087
0.5704689029613891 0.0166855718398314 0.3790484473496259
0.6144757115981945 0.08926923389722781 0.4816590512503076
0.6720361414184554 0.00039355637745854157 0.5075916957246231
0.7179548123460078 0.10681825714607607 0.42320685459963087
0.7704689029613891 0.0166855718398314 0.3790484473496259
0.8144757115981944 0.08926923389722781 0.4816590512503076
0.8720361414184554 0.00039355637745854157 0.5075916957246231
0.9179548123460077 0.10681825714607607 0.42320685459963087
-0.02953109703861087 0.21668557183983142 0.3790484473496259
0.014475711598194399 0.2892692338972278 0.4816590512503076
0.07203614141845531 0.20039355637745856 0.5075916957246231
0.11795481234600771 0.3068182571460761 0.42320685459963087
0.17046890296138914 0.21668557183983142 0.3790484473496259
0.2144757115981944 0.2892692338972278 0.4816590512503076
0.2720361414184553 0.20039355637745856 0.5075916957246231
0.31795481234600775 0.3068182571460761 0.42320685459963087
0.3704689029613892 0.21668557183983142 0.3790484473496259
0.41447571159819446 0.2892692338972278 0.4816590512503076
0.4720361414184553 0.20039355637745856 0.5075916957246231
0.5179548123460077 0.3068182571460761 0.42320685459963087
0.5704689029613891 0.21668557183983142 0.3790484473496259
0.6144757115981945 0.2892692338972278 0.4816590512503076
0.6720361414184554 0.20039355637745856 0.5075916957246231
0.7179548123460078 0.3068182571460761 0.42320685459963087
0.7704689029613891 0.21668557183983142 0.3790484473496259
0.8144757115981944 0.2892692338972278 0.4816590512503076
0.8720361414184554 0.20039355637745856 0.5075916957246231
0.9179548123460077 0.3068182571460761 0.42320685459963087
-0.02953109703861087 0.41668557183983146 0.3790484473496259
0.014475711598194399 0.4892692338972278 0.4816590512503076
0.07203614141845531 0.40039355637745855 0.5075916957246231
0.11795481234600771 0.5068182571460761 0.42320685459963087
0.17046890296138914 0.41668557183983146 0.3790484473496259
0.2144757115981944 0.4892692338972278 0.4816590512503076
0.2720361414184553 0.40039355637745855 0.5075916957246231
0.31795481234600775 0.5068182571460761 0.42320685459963087
0.3704689029613892 0.41668557183983146 0.3790484473496259
0.41447571159819446 0.4892692338972278 0.4816590512503076
0.4720361414184553 0.40039355637745855 0.5075916957246231
0.5179548123460077 0.5068182571460761 0.42320685459963087
0.5704689029613891 0.41668557183983146 0.3790484473496259
0.6144757115981945 0.4892692338972278 0.4816590512503076
0.6720361414184554 0.40039355637745855 0.5075916957246231
0.7179548123460078 0.5068182571460761 0.42320685459963087
0.7704689029613891 0.41668557183983146 0.3790484473496259
0.8144757115981944 0.4892692338972278 0.4816590512503076
0.8720361414184554 0.40039355637745855 0.5075916957246231
0.9179548123460077 0.5068182571460761 0.42320685459963087
-0.02953109703861087 0.6166855718398314 0.3790484473496259
0.014475711598194399 0.6892692338972278 0.4816590512503076
0.07203614141845531 0.6003935563774586 0.5075916957246231
0.11795481234600771 0.7068182571460762 0.42320685459963087
0.17046890296138914 0.6166855718398314 0.3790484473496259
0.2144757115981944 0.6892692338972278 0.4816590512503076
0.2720361414184553 0.6003935563774586 0.5075916957246231
0.31795481234600775 0.7068182571460762 0.42320685459963087
0.3704689029613892 0.6166855718398314 0.3790484473496259
0.41447571159819446 0.6892692338972278 0.4816590512503076
0.4720361414184553 0.6003935563774586 0.5075916957246231
0.5179548123460077 0.7068182571460762 0.42320685459963087
0.5704689029613891 0.6166855718398314 0.3790484473496259
0.6144757115981945 0.6892692338972278 0.4816590512503076
0.6720361414184554 0.6003935563774586 0.5075916957246231
0.7179548123460078 0.7068182571460762 0.42320685459963087
0.7704689029613891 0.6166855718398314 0.3790484473496259
0.8144757115981944 0.6892692338972278 0.4816590512503076
0.8720361414184554 0.6003935563774586 0.5075916957246231
0.9179548123460077 0.7068182571460762 0.42320685459963087
-0.02953109703861087 0.8166855718398314 0.3790484473496259
0.014475711598194399 0.8892692338972279 0.4816590512503076
0.07203614141845531 0.8003935563774585 0.5075916957246231
0.11795481234600771 0.906818257146076 0.42320685459963087
0.17046890296138914 0.8166855718398314 0.3790484473496259
0.2144757115981944 0.8892692338972279 0.4816590512503076
0.2720361414184553 0.8003935563774585 0.5075916957246231
0.31795481234600775 0.906818257146076 0.42320685459963087
0.3704689029613892 0.8166855718398314 0.3790484473496259
0.41447571159819446 0.8892692338972279 0.4816590512503076
0.4720361414184553 0.8003935563774585 0.5075916957246231
0.5179548123460077 0.906818257146076 0.42320685459963087
0.5704689029613891 0.8166855718398314 0.3790484473496259
0.6144757115981945 0.8892692338972279 0.4816590512503076
0.6720361414184554 0.8003935563774585 0.5075916957246231
0.7179548123460078 0.906818257146076 0.42320685459963087
0.7704689029613891 0.8166855718398314 0.3790484473496259
0.8144757115981944 0.8892692338972279 0.4816590512503076
0.8720361414184554 0.8003935563774585 0.5075916957246231
0.9179548123460077 0.906818257146076 0.42320685459963087
-0.02953109703861087 0.0166855718398314 0.5790484473496259
0.014475711598194399 0.08926923389722781 0.6816590512503077
0.07203614141845531 0.00039355637745854157 0.7075916957246231
0.11795481234600771 0.10681825714607607 0.6232068545996309
0.17046890296138914 0.0166855718398314 0.5790484473496259
0.2144757115981944 0.08926923389722781 0.6816590512503077
0.2720361414184553 0.00039355637745854157 0.7075916957246231
0.31795481234600775 0.10681825714607607 0.6232068545996309
0.3704689029613892 0.0166855718398314 0.5790484473496259
0.41447571159819446 0.08926923389722781 0.6816590512503077
0.4720361414184553 0.00039355637745854157 0.7075916957246231
0.5179548123460077 0.10681825714607607 0.6232068545996309
0.5704689029613891 0.0166855718398314 0.5790484473496259
0.6144757115981945 0.08926923389722781 0.6816590512503077
0.6720361414184554 0.00039355637745854157 0.7075916957246231
0.7179548123460078 0.10681825714607607 0.6232068545996309
0.7704689029613891 0.0166855718398314 0.5790484473496259
0.8144757115981944 0.08926923389722781 0.6816590512503077
0.8720361414184554 0.00039355637745854157 0.7075916957246231
0.9179548123460077 0.10681825714607607 0.6232068545996309
-0.02953109703861087 0.21668557183983142 0.5790484473496259
0.014475711598194399 0.2892692338972278 0.6816590512503077
0.07203614141845531 0.20039355637745856 0.7075916957246231
0.11795481234600771 0.3068182571460761 0.6232068545996309
0.17046890296138914 0.21668557183983142 0.5790484473496259
0.2144757115981944 0.2892692338972278 0.6816590512503077
0.2720361414184553 0.20039355637745856 0.7075916957246231
0.31795481234600775 0.3068182571460761 0.6232068545996309
0.3704689029613892 0.21668557183983142 0.5790484473496259
0.41447571159819446 0.2892692338972278 0.6816590512503077
0.4720361414184553 0.20039355637745856 0.7075916957246231
0.5179548123460077 0.3068182571460761 0.6232068545996309
0.5704689029613891 0.21668557183983142 0.5790484473496259
0.6144757115981945 0.2892692338972278 0.6816590512503077
0.6720361414184554 0.20039355637745856 0.7075916957246231
0.7179548123460078 0.3068182571460761 0.6232068545996309
0.7704689029613891 0.21668557183983142 0.5790484473496259
0.8144757115981944 0.2892692338972278 0.6816590512503077
0.8720361414184554 0.20039355637745856 0.7075916957246231
0.9179548123460077 0.3068182571460761 0.6232068545996309
-0.02953109703861087 0.41668557183983146 0.5790484473496259
0.014475711598194399 0.4892692338972278 0.6816590512503077
0.07203614141845531 0.40039355637745855 0.7075916957246231
0.11795481234600771 0.5068182571460761 0.6232068545996309
0.17046890296138914 0.41668557183983146 0.5790484473496259
0.2144757115981944 0.4892692338972278 0.6816590512503077
0.2720361414184553 0.40039355637745855 0.7075916957246231
0.31795481234600775 0.5068182571460761 0.6232068545996309
0.3704689029613892 0.41668557183983146 0.5790484473496259
0.41447571159819446 0.4892692338972278 0.6816590512503077
0.4720361414184553 0.40039355637745855 0.7075916957246231
0.5179548123460077 0.5068182571460761 0.6232068545996309
0.5704689029613891 0.41668557183983146 0.5790484473496259
0.6144757115981945 0.4892692338972278 0.6816590512503077
0.6720361414184554 0.40039355637745855 0.7075916957246231
0.7179548123460078 0.5068182571460761 0.6232068545996309
0.7704689029613891 0.41668557183983146 0.5790484473496259
0.8144757115981944 0.4892692338972278 0.6816590512503077
0.8720361414184554 0.40039355637745855 0.7075916957246231
0.9179548123460077 0.5068182571460761 0.6232068545996309
-0.02953109703861087 0.6166855718398314 0.5790484473496259
0.014475711598194399 0.6892692338972278 0.6816590512503077
0.07203614141845531 0.6003935563774586 0.7075916957246231
0.11795481234600771 0.7068182571460762 0.6232068545996309
0.17046890296138914 0.6166855718398314 0.5790484473496259
0.2144757115981944 0.6892692338972278 0.6816590512503077
0.2720361414184553 0.6003935563774586 0.7075916957246231
0.31795481234600775 0.7068182571460762 0.6232068545996309
0.3704689029613892 0.6166855718398314 0.5790484473496259
0.41447571159819446 0.6892692338972278 0.6816590512503077
0.4720361414184553 0.6003935563774586 0.7075916957246231
0.5179548123460077 0.7068182571460762 0.6232068545996309
0.5704689029613891 0.6166855718398314 0.5790484473496259
0.6144757115981945 0.6892692338972278 0.6816590512503077
0.6720361414184554 0.6003935563774586 0.7075916957246231
0.7179548123460078 0.7068182571460762 0.6232068545996309
0.7704689029613891 0.6166855718398314 0.5790484473496259
0.8144757115981944 0.6892692338972278 0.6816590512503077
0.8720361414184554 0.6003935563774586 0.7075916957246231
0.9179548123460077 0.7068182571460762 0.6232068545996309
-0.02953109703861087 0.8166855718398314 0.5790484473496259
0.014475711598194399 0.8892692338972279 0.6816590512503077
0.07203614141845531 0.8003935563774585 0.7075916957246231
0.11795481234600771 0.906818257146076 0.6232068545996309
0.17046890296138914 0.8166855718398314 0.5790484473496259
0.2144757115981944 0.8892692338972279 0.6816590512503077
0.2720361414184553 0.8003935563774585 0.7075916957246231
0.31795481234600775 0.906818257146076 0.6232068545996309
0.3704689029613892 0.8166855718398314 0.5790484473496259
0.41447571159819446 0.8892692338972279 0.6816590512503077
0.4720361414184553 0.8003935563774585 0.7075916957246231
0.5179548123460077 0.906818257146076 0.6232068545996309
0.5704689029613891 0.8166855718398314 0.5790484473496259
0.6144757115981945 0.8892692338972279 0.6816590512503077
0.6720361414184554 0.8003935563774585 0.7075916957246231
0.7179548123460078 0.906818257146076 0.6232068545996309
0.7704689029613891 0.8166855718398314 0.5790484473496259
0.8144757115981944 0.8892692338972279 0.6816590512503077
0.8720361414184554 0.8003935563774585 0.7075916957246231
0.9179548123460077 0.906818257146076 0.6232068545996309
-0.02953109703861087 0.0166855718398314 0.779048447349626
0.014475711598194399 0.08926923389722781 0.8816590512503076
0.07203614141845531 0.00039355637745854157 0.9075916957246231
0.11795481234600771 0.10681825714607607 0.8232068545996308
0.17046890296138914 0.0166855718398314 0.779048447349626
0.2144757115981944 0.08926923389722781 0.8816590512503076
0.2720361414184553 0.00039355637745854157 0.9075916957246231
0.31795481234600775 0.10681825714607607 0.8232068545996308
0.3704689029613892 0.0166855718398314 0.779048447349626
0.41447571159819446 0.08926923389722781 0.8816590512503076
0.4720361414184553 0.00039355637745854157 0.9075916957246231
0.5179548123460077 0.10681825714607607 0.8232068545996308
0.5704689029613891 0.0166855718398314 0.779048447349626
0.6144757115981945 0.08926923389722781 0.8816590512503076
0.6720361414184554 0.00039355637745854157 0.9075916957246231
0.7179548123460078 0.10681825714607607 0.8232068545996308
0.7704689029613891 0.0166855718398314 0.779048447349626
0.8144757115981944 0.08926923389722781 0.8816590512503076
0.8720361414184554 0.00039355637745854157 0.9075916957246231
0.9179548123460077 0.10681825714607607 0.8232068545996308
-0.02953109703861087 0.21668557183983142 0.779048447349626
0.014475711598194399 0.2892692338972278 0.8816590512503076
0.07203614141845531 0.20039355637745856 0.9075916957246231
0.11795481234600771 0.3068182571460761 0.8232068545996308
0.17046890296138914 0.21668557183983142 0.779048447349626
0.2144757115981944 0.2892692338972278 0.8816590512503076
0.2720361414184553 0.20039355637745856 0.9075916957246231
0.31795481234600775 0.3068182571460761 0.8232068545996308
0.3704689029613892 0.21668557183983142 0.779048447349626
0.41447571159819446 0.2892692338972278 0.8816590512503076
0.4720361414184553 0.20039355637745856 0.9075916957246231
0.5179548123460077 0.3068182571460761 0.8232068545996308
0.5704689029613891 0.21668557183983142 0.779048447349626
0.6144757115981945 0.2892692338972278 0.8816590512503076
0.6720361414184554 0.20039355637745856 0.9075916957246231
0.7179548123460078 0.3068182571460761 0.8232068545996308
0.7704689029613891 0.21668557183983142 0.779048447349626
0.8144757115981944 0.2892692338972278 0.8816590512503076
0.8720361414184554 0.20039355637745856 0.9075916957246231
0.9179548123460077 0.3068182571460761 0.8232068545996308
-0.02953109703861087 0.41668557183983146 0.779048447349626
0.014475711598194399 0.4892692338972278 0.8816590512503076
0.07203614141845531 0.40039355637745855 0.9075916957246231
0.11795481234600771 0.5068182571460761 0.8232068545996308
0.17046890296138914 0.41668557183983146 0.779048447349626
0.2144757115981944 0.4892692338972278 0.8816590512503076
0.2720361414184553 0.40039355637745855 0.9075916957246231
0.31795481234600775 0.5068182571460761 0.8232068545996308
0.3704689029613892 0.41668557183983146 0.779048447349626
0.41447571159819446 0.4892692338972278 0.8816590512503076
0.4720361414184553 0.40039355637745855 0.9075916957246231
0.5179548123460077 0.5068182571460761 0.8232068545996308
0.5704689029613891 0.41668557183983146 0.779048447349626
0.6144757115981945 0.4892692338972278 0.8816590512503076
0.6720361414184554 0.40039355637745855 0.9075916957246231
0.7179548123460078 0.5068182571460761 0.8232068545996308
0.7704689029613891 0.41668557183983146 0.779048447349626
0.8144757115981944 0.4892692338972278 0.8816590512503076
0.8720361414184554 0.40039355637745855 0.9075916957246231
0.9179548123460077 0.5068182571460761 0.8232068545996308
-0.02953109703861087 0.6166855718398314 0.779048447349626
0.014475711598194399 0.6892692338972278 0.8816590512503076
0.07203614141845531 0.6003935563774586 0.9075916957246231
0.11795481234600771 0.7068182571460762 0.8232068545996308
0.17046890296138914 0.6166855718398314 0.779048447349626
0.2144757115981944 0.6892692338972278 0.8816590512503076
0.2720361414184553 0.6003935563774586 0.9075916957246231
0.31795481234600775 0.7068182571460762 0.8232068545996308
0.3704689029613892 0.6166855718398314 0.779048447349626
0.41447571159819446 0.6892692338972278 0.8816590512503076
0.4720361414184553 0.6003935563774586 0.9075916957246231
0.5179548123460077 0.7068182571460762 0.8232068545996308
0.5704689029613891 0.6166855718398314 0.779048447349626
0.6144757115981945 0.6892692338972278 0.8816590512503076
0.6720361414184554 0.6003935563774586 0.9075916957246231
0.7179548123460078 0.7068182571460762 0.8232068545996308
0.7704689029613891 0.6166855718398314 0.779048447349626
0.8144757115981944 0.6892692338972278 0.8816590512503076
0.8720361414184554 0.6003935563774586 0.9075916957246231
0.9179548123460077 0.7068182571460762 0.8232068545996308
-0.02953109703861087 0.8166855718398314 0.779048447349626
0.014475711598194399 0.8892692338972279 0.8816590512503076
0.07203614141845531 0.8003935563774585 0.9075916957246231
0.11795481234600771 0.906818257146076 0.8232068545996308
0.17046890296138914 0.8166855718398314 0.779048447349626
0.2144757115981944 0.8892692338972279 0.8816590512503076
0.2720361414184553 0.8003935563774585 0.9075916957246231
0.31795481234600775 0.906818257146076 0.8232068545996308
0.3704689029613892 0.8166855718398314 0.779048447349626
0.41447571159819446 0.8892692338972279 0.8816590512503076
0.4720361414184553 0.8003935563774585 0.9075916957246231
0.5179548123460077 0.906818257146076 0.8232068545996308
0.5704689029613891 0.8166855718398314 0.779048447349626
0.6144757115981945 0.8892692338972279 0.8816590512503076
0.6720361414184554 0.8003935563774585 0.9075916957246231
0.7179548123460078 0.906818257146076 0.8232068545996308
0.7704689029613891 0.8166855718398314 0.779048447349626
0.8144757115981944 0.8892692338972279 0.8816590512503076
0.8720361414184554 0.8003935563774585 0.9075916957246231
0.9179548123460077 0.906818257146076 0.8232068545996308
0.08503538713396686 -0.020238830030239685 0.013478496310550724
-0.015819973122458857 0.11213781648813184 -0.0035027939769235582
0.026059721863903342 -0.024150306859304416 0.0741107006585202
0.12359639296628587 0.08178570933473944 0.08767634747527803
0.28503538713396687 -0.020238830030239685 0.013478496310550724
0.18418002687754115 0.11213781648813184 -0.0035027939769235582
0.22605972186390333 -0.024150306859304416 0.0741107006585202
0.3235963929662859 0.08178570933473944 0.08767634747527803
0.48503538713396693 -0.020238830030239685 0.013478496310550724
0.38418002687754116 0.11213781648813184 -0.0035027939769235582
0.4260597218639034 -0.024150306859304416 0.0741107006585202
0.5235963929662859 0.08178570933473944 0.08767634747527803
0.6850353871339669 -0.020238830030239685 0.013478496310550724
0.5841800268775412 0.11213781648813184 -0.0035027939769235582
0.6260597218639035 -0.024150306859304416 0.0741107006585202
0.7235963929662859 0.08178570933473944 0.08767634747527803
0.8850353871339669 -0.020238830030239685 0.013478496310550724
0.7841800268775412 0.11213781648813184 -0.0035027939769235582
0.8260597218639033 -0.024150306859304416 0.0741107006585202
0.9235963929662859 0.08178570933473944 0.08767634747527803
0.08503538713396686 0.17976116996976033 0.013478496310550724
-0.015819973122458857 0.3121378164881319 -0.0035027939769235582
0.026059721863903342 0.1758496931406956 0.0741107006585202
0.12359639296628587 0.28178570933473945 0.08767634747527803
0.28503538713396687 0.17976116996976033 0.013478496310550724
0.18418002687754115 0.3121378164881319 -0.0035027939769235582
0.22605972186390333 0.1758496931406956 0.0741107006585202
0.3235963929662859 0.28178570933473945 0.08767634747527803
0.48503538713396693 0.17976116996976033 0.013478496310550724
0.38418002687754116 0.3121378164881319 -0.0035027939769235582
0.4260597218639034 0.1758496931406956 0.0741107006585202
0.5235963929662859 0.28178570933473945 0.08767634747527803
0.6850353871339669 0.17976116996976033 0.013478496310550724
0.5841800268775412 0.3121378164881319 -0.0035027939769235582
0.6260597218639035 0.1758496931406956 0.0741107006585202
0.7235963929662859 0.28178570933473945 0.08767634747527803
0.8850353871339669 0.17976116996976033 0.013478496310550724
0.7841800268775412 0.3121378164881319 -0.0035027939769235582
0.8260597218639033 0.1758496931406956 0.0741107006585202
0.9235963929662859 0.28178570933473945 0.08767634747527803
0.08503538713396686 0.37976116996976034 0.013478496310550724
-0.015819973122458857 0.5121378164881318 -0.0035027939769235582
0.026059721863903342 0.3758496931406956 0.0741107006585202
0.12359639296628587 0.4817857093347395 0.08767634747527803
0.28503538713396687 0.37976116996976034 0.013478496310550724
0.18418002687754115 0.5121378164881318 -0.0035027939769235582
0.22605972186390333 0.3758496931406956 0.0741107006585202
0.3235963929662859 0.4817857093347395 0.08767634747527803
0.48503538713396693 0.37976116996976034 0.013478496310550724
0.38418002687754116 0.5121378164881318 -0.0035027939769235582
0.4260597218639034 0.3758496931406956 0.0741107006585202
0.5235963929662859 0.4817857093347395 0.08767634747527803
0.6850353871339669 0.37976116996976034 0.013478496310550724
0.5841800268775412 0.5121378164881318 -0.0035027939769235582
0.6260597218639035 0.3758496931406956 0.0741107006585202
0.7235963929662859 0.4817857093347395 0.08767634747527803
0.8850353871339669 0.37976116996976034 0.013478496310550724
0.7841800268775412 0.5121378164881318 -0.0035027939769235582
0.8260597218639033 0.3758496931406956 0.0741107006585202
0.9235963929662859 0.4817857093347395 0.08767634747527803
0.08503538713396686 0.5797611699697603 0.013478496310550724
-0.015819973122458857 0.7121378164881319 -0.0035027939769235582
0.026059721863903342 0.5758496931406957 0.0741107006585202
0.12359639296628587 0.6817857093347395 0.08767634747527803
0.28503538713396687 0.5797611699697603 0.013478496310550724
0.18418002687754115 0.7121378164881319 -0.0035027939769235582
0.22605972186390333 0.5758496931406957 0.0741107006585202
0.3235963929662859 0.6817857093347395 0.08767634747527803
0.48503538713396693 0.5797611699697603 0.013478496310550724
0.38418002687754116 0.7121378164881319 -0.0035027939769235582
0.4260597218639034 0.5758496931406957 0.0741107006585202
0.5235963929662859 0.6817857093347395 0.08767634747527803
0.6850353871339669 0.5797611699697603 0.013478496310550724
0.5841800268775412 0.7121378164881319 -0.0035027939769235582
0.6260597218639035 0.5758496931406957 0.0741107006585202
0.7235963929662859 0.6817857093347395 0.08767634747527803
0.8850353871339669 0.5797611699697603 0.013478496310550724
0.7841800268775412 0.7121378164881319 -0.0035027939769235582
0.8260597218639033 0.5758496931406957 0.0741107006585202
0.9235963929662859 0.6817857093347395 0.08767634747527803
0.08503538713396686 0.7797611699697603 0.013478496310550724
-0.015819973122458857 0.9121378164881317 -0.0035027939769235582
0.026059721863903342 0.7758496931406956 0.0741107006585202
0.12359639296628587 0.8817857093347394 0.08767634747527803
0.28503538713396687 0.7797611699697603 0.013478496310550724
0.18418002687754115 0.9121378164881317 -0.0035027939769235582
0.22605972186390333 0.7758496931406956 0.0741107006585202
0.3235963929662859 0.8817857093347394 0.08767634747527803
0.48503538713396693 0.7797611699697603 0.013478496310550724
0.38418002687754116 0.9121378164881317 -0.0035027939769235582
0.4260597218639034 0.7758496931406956 0.0741107006585202
0.5235963929662859 0.8817857093347394 0.08767634747527803
0.6850353871339669 0.7797611699697603 0.013478496310550724
0.5841800268775412 0.9121378164881317 -0.0035027939769235582
0.6260597218639035 0.7758496931406956 0.0741107006585202
0.7235963929662859 0.8817857093347394 0.08767634747527803
0.8850353871339669 0.7797611699697603 0.013478496310550724
0.7841800268775412 0.9121378164881317 -0.0035027939769235582
0.8260597218639033 0.7758496931406956 0.0741107006585202
0.9235963929662859 0.8817857093347394 0.08767634747527803
0.08503538713396686 -0.020238830030239685 0.2134784963105507
-0.015819973122458857 0.11213781648813184 0.19649720602307644
0.026059721863903342 -0.024150306859304416 0.2741107006585202
0.12359639296628587 0.08178570933473944 0.28767634747527804
0.28503538713396687 -0.020238830030239685 0.2134784963105507
0.18418002687754115 0.11213781648813184 0.19649720602307644
0.22605972186390333 -0.024150306859304416 0.2741107006585202
0.3235963929662859 0.08178570933473944 0.28767634747527804
0.48503538713396693 -0.020238830030239685 0.2134784963105507
0.38418002687754116 0.11213781648813184 0.19649720602307644
0.4260597218639034 -0.024150306859304416 0.2741107006585202
0.5235963929662859 0.08178570933473944 0.28767634747527804
0.6850353871339669 -0.020238830030239685 0.2134784963105507
0.5841800268775412 0.11213781648813184 0.19649720602307644
0.6260597218639035 -0.024150306859304416 0.2741107006585202
0.7235963929662859 0.08178570933473944 0.28767634747527804
0.8850353871339669 -0.020238830030239685 0.2134784963105507
0.7841800268775412 0.11213781648813184 0.19649720602307644
0.8260597218639033 -0.024150306859304416 0.2741107006585202
0.9235963929662859 0.08178570933473944 0.28767634747527804
0.08503538713396686 0.17976116996976033 0.2134784963105507
-0.015819973122458857 0.3121378164881319 0.19649720602307644
0.026059721863903342 0.1758496931406956 0.2741107006585202
0.12359639296628587 0.28178570933473945 0.28767634747527804
0.28503538713396687 0.17976116996976033 0.2134784963105507
0.18418002687754115 0.3121378164881319 0.19649720602307644
0.22605972186390333 0.1758496931406956 0.2741107006585202
0.3235963929662859 0.28178570933473945 0.28767634747527804
0.48503538713396693 0.17976116996976033 0.2134784963105507
0.38418002687754116 0.3121378164881319 0.19649720602307644
0.4260597218639034 0.1758496931406956 0.2741107006585202
0.5235963929662859 0.28178570933473945 0.28767634747527804
0.6850353871339669 0.17976116996976033 0.2134784963105507
0.5841800268775412 0.3121378164881319 0.19649720602307644
0.6260597218639035 0.1758496931406956 0.2741107006585202
0.7235963929662859 0.28178570933473945 0.28767634747527804
0.8850353871339669 0.17976116996976033 0.2134784963105507
0.7841800268775412 0.3121378164881319 0.19649720602307644
0.8260597218639033 0.1758496931406956 0.2741107006585202
0.9235963929662859 0.28178570933473945 0.28767634747527804
0.08503538713396686 0.37976116996976034 0.2134784963105507
-0.015819973122458857 0.5121378164881318 0.19649720602307644
0.026059721863903342 0.3758496931406956 0.2741107006585202
0.12359639296628587 0.4817857093347395 0.28767634747527804
0.28503538713396687 0.37976116996976034 0.2134784963105507
0.18418002687754115 0.5121378164881318 0.19649720602307644
0.22605972186390333 0.3758496931406956 0.2741107006585202
0.3235963929662859 0.4817857093347395 0.28767634747527804
0.48503538713396693 0.37976116996976034 0.2134784963105507
0.38418002687754116 0.5121378164881318 0.19649720602307644
0.4260597218639034 0.3758496931406956 0.2741107006585202
0.5235963929662859 0.4817857093347395 0.28767634747527804
0.6850353871339669 0.37976116996976034 0.2134784963105507
0.5841800268775412 0.5121378164881318 0.19649720602307644
0.6260597218639035 0.3758496931406956 0.2741107006585202
0.7235963929662859 0.4817857093347395 0.28767634747527804
0.8850353871339669 0.37976116996976034 0.2134784963105507
0.7841800268775412 0.5121378164881318 0.19649720602307644
0.8260597218639033 0.3758496931406956 0.2741107006585202
0.9235963929662859 0.4817857093347395 0.28767634747527804
0.08503538713396686 0.5797611699697603 0.2134784963105507
-0.015819973122458857 0.7121378164881319 0.19649720602307644
0.026059721863903342 0.5758496931406957 0.2741107006585202
0.12359639296628587 0.6817857093347395 0.28767634747527804
0.28503538713396687 0.5797611699697603 0.2134784963105507
0.18418002687754115 0.7121378164881319 0.19649720602307644
0.22605972186390333 0.5758496931406957 0.2741107006585202
0.3235963929662859 0.6817857093347395 0.28767634747527804
0.48503538713396693 0.5797611699697603 0.2134784963105507
0.38418002687754116 0.7121378164881319 0.19649720602307644
0.4260597218639034 0.5758496931406957 0.2741107006585202
0.5235963929662859 0.6817857093347395 0.28767634747527804
0.6850353871339669 0.5797611699697603 0.2134784963105507
0.5841800268775412 0.7121378164881319 0.19649720602307644
0.6260597218639035 0.5758496931406957 0.2741107006585202
0.7235963929662859 0.6817857093347395 0.28767634747527804
0.8850353871339669 0.5797611699697603 0.2134784963105507
0.7841800268775412 0.7121378164881319 0.19649720602307644
0.8260597218639033 0.5758496931406957 0.2741107006585202
0.9235963929662859 0.6817857093347395 0.28767634747527804
0.08503538713396686 0.7797611699697603 0.2134784963105507
-0.015819973122458857 0.9121378164881317 0.19649720602307644
0.026059721863903342 0.7758496931406956 0.2741107006585202
0.12359639296628587 0.8817857093347394 0.28767634747527804
0.28503538713396687 0.7797611699697603 0.2134784963105507
0.18418002687754115 0.9121378164881317 0.19649720602307644
0.22605972186390333 0.7758496931406956 0.2741107006585202
0.3235963929662859 0.8817857093347394 0.28767634747527804
0.48503538713396693 0.7797611699697603 0.2134784963105507
0.38418002687754116 0.9121378164881317 0.19649720602307644
0.4260597218639034 0.7758496931406956 0.2741107006585202
0.5235963929662859 0.8817857093347394 0.28767634747527804
0.6850353871339669 0.7797611699697603 0.2134784963105507
0.5841800268775412 0.9121378164881317 0.19649720602307644
0.6260597218639035 0.7758496931406956 0.2741107006585202
0.7235963929662859 0.8817857093347394 0.28767634747527804
0.8850353871339669 0.7797611699697603 0.2134784963105507
0.7841800268775412 0.9121378164881317 0.19649720602307644
0.8260597218639033 0.7758496931406956 0.2741107006585202
0.9235963929662859 0.8817857093347394 0.28767634747527804
0.08503538713396686 -0.020238830030239685 0.4134784963105507
-0.015819973122458857 0.11213781648813184 0.3964972060230765
0.026059721863903342 -0.024150306859304416 0.47411070065852023
0.12359639296628587 0.08178570933473944 0.487676347475278
0.28503538713396687 -0.020238830030239685 0.4134784963105507
0.18418002687754115 0.11213781648813184 0.3964972060230765
0.22605972186390333 -0.024150306859304416 0.47411070065852023
0.3235963929662859 0.08178570933473944 0.487676347475278
0.48503538713396693 -0.020238830030239685 0.4134784963105507
0.38418002687754116 0.11213781648813184 0.3964972060230765
0.4260597218639034 -0.024150306859304416 0.47411070065852023
0.5235963929662859 0.08178570933473944 0.487676347475278
0.6850353871339669 -0.020238830030239685 0.4134784963105507
0.5841800268775412 0.11213781648813184 0.3964972060230765
0.6260597218639035 -0.024150306859304416 0.47411070065852023
0.7235963929662859 0.08178570933473944 0.487676347475278
0.8850353871339669 -0.020238830030239685 0.4134784963105507
0.7841800268775412 0.11213781648813184 0.3964972060230765
0.8260597218639033 -0.024150306859304416 0.47411070065852023
0.9235963929662859 0.08178570933473944 0.487676347475278
0.08503538713396686 0.17976116996976033 0.4134784963105507
-0.015819973122458857 0.3121378164881319 0.3964972060230765
0.026059721863903342 0.1758496931406956 0.47411070065852023
0.12359639296628587 0.28178570933473945 0.487676347475278
0.28503538713396687 0.17976116996976033 0.4134784963105507
0.18418002687754115 0.3121378164881319 0.3964972060230765
0.22605972186390333 0.1758496931406956 0.47411070065852023
0.3235963929662859 0.28178570933473945 0.487676347475278
0.48503538713396693 0.17976116996976033 0.4134784963105507
0.38418002687754116 0.3121378164881319 0.3964972060230765
0.4260597218639034 0.1758496931406956 0.47411070065852023
0.5235963929662859 0.28178570933473945 0.487676347475278
0.6850353871339669 0.17976116996976033 0.4134784963105507
0.5841800268775412 0.3121378164881319 0.3964972060230765
0.6260597218639035 0.1758496931406956 0.47411070065852023
0.7235963929662859 0.28178570933473945 0.487676347475278
0.8850353871339669 0.17976116996976033 0.4134784963105507
0.7841800268775412 0.3121378164881319 0.3964972060230765
0.8260597218639033 0.1758496931406956 0.47411070065852023
0.9235963929662859 0.28178570933473945 0.487676347475278
0.08503538713396686 0.37976116996976034 0.4134784963105507
-0.015819973122458857 0.5121378164881318 0.3964972060230765
0.026059721863903342 0.3758496931406956 0.47411070065852023
0.12359639296628587 0.4817857093347395 0.487676347475278
0.28503538713396687 0.37976116996976034 0.4134784963105507
0.18418002687754115 0.5121378164881318 0.3964972060230765
0.22605972186390333 0.3758496931406956 0.47411070065852023
0.3235963929662859 0.4817857093347395 0.487676347475278
0.48503538713396693 0.37976116996976034 0.4134784963105507
0.38418002687754116 0.5121378164881318 0.3964972060230765
0.4260597218639034 0.3758496931406956 0.47411070065852023
0.5235963929662859 0.4817857093347395 0.487676347475278
0.6850353871339669 0.37976116996976034 0.4134784963105507
0.5841800268775412 0.5121378164881318 0.3964972060230765
0.6260597218639035 0.3758496931406956 0.47411070065852023
0.7235963929662859 0.4817857093347395 0.487676347475278
0.8850353871339669 0.37976116996976034 0.4134784963105507
0.7841800268775412 0.5121378164881318 0.3964972060230765
0.8260597218639033 0.3758496931406956 0.47411070065852023
0.9235963929662859 0.4817857093347395 0.487676347475278
0.08503538713396686 0.5797611699697603 0.4134784963105507
-0.015819973122458857 0.7121378164881319 0.3964972060230765
0.026059721863903342 0.5758496931406957 0.47411070065852023
0.12359639296628587 0.6817857093347395 0.487676347475278
0.28503538713396687 0.5797611699697603 0.4134784963105507
0.18418002687754115 0.7121378164881319 0.3964972060230765
0.22605972186390333 0.5758496931406957 0.47411070065852023
0.3235963929662859 0.6817857093347395 0.487676347475278
0.48503538713396693 0.5797611699697603 0.4134784963105507
0.38418002687754116 0.7121378164881319 0.3964972060230765
0.4260597218639034 0.5758496931406957 0.47411070065852023
0.5235963929662859 0.6817857093347395 0.487676347475278
0.6850353871339669 0.5797611699697603 0.4134784963105507
0.5841800268775412 0.7121378164881319 0.3964972060230765
0.6260597218639035 0.5758496931406957 0.47411070065852023
0.7235963929662859 0.6817857093347395 0.487676347475278
0.8850353871339669 0.5797611699697603 0.4134784963105507
0.7841800268775412 0.7121378164881319 0.3964972060230765
0.8260597218639033 0.5758496931406957 0.47411070065852023
0.9235963929662859 0.6817857093347395 0.487676347475278
0.08503538713396686 0.7797611699697603 0.4134784963105507
-0.015819973122458857 0.9121378164881317 0.3964972060230765
0.026059721863903342 0.7758496931406956 0.47411070065852023
0.12359639296628587 0.8817857093347394 0.487676347475278
0.28503538713396687 0.7797611699697603 0.4134784963105507
0.18418002687754115 0.9121378164881317 0.3964972060230765
0.22605972186390333 0.7758496931406956 0.47411070065852023
0.3235963929662859 0.8817857093347394 0.487676347475278
0.48503538713396693 0.7797611699697603 0.4134784963105507
0.38418002687754116 0.9121378164881317 0.3964972060230765
0.4260597218639034 0.7758496931406956 0.47411070065852023
0.5235963929662859 0.8817857093347394 0.487676347475278
0.6850353871339669 0.7797611699697603 0.4134784963105507
0.5841800268775412 0.9121378164881317 0.3964972060230765
0.6260597218639035 0.7758496931406956 0.47411070065852023
0.7235963929662859 0.8817857093347394 0.487676347475278
0.8850353871339669 0.7797611699697603 0.4134784963105507
0.7841800268775412 0.9121378164881317 0.3964972060230765
0.8260597218639033 0.7758496931406956 0.47411070065852023
0.9235963929662859 0.8817857093347394 0.487676347475278
0.08503538713396686 -0.020238830030239685 0.6134784963105507
-0.015819973122458857 0.11213781648813184 0.5964972060230765
0.026059721863903342 -0.024150306859304416 0.6741107006585203
0.12359639296628587 0.08178570933473944 0.6876763474752781
0.28503538713396687 -0.020238830030239685 0.6134784963105507
0.18418002687754115 0.11213781648813184 0.5964972060230765
0.22605972186390333 -0.024150306859304416 0.6741107006585203
0.3235963929662859 0.08178570933473944 0.6876763474752781
0.48503538713396693 -0.020238830030239685 0.6134784963105507
0.38418002687754116 0.11213781648813184 0.5964972060230765
0.4260597218639034 -0.024150306859304416 0.6741107006585203
0.5235963929662859 0.08178570933473944 0.6876763474752781
0.6850353871339669 -0.020238830030239685 0.6134784963105507
0.5841800268775412 0.11213781648813184 0.5964972060230765
0.6260597218639035 -0.024150306859304416 0.6741107006585203
0.7235963929662859 0.08178570933473944 0.6876763474752781
0.8850353871339669 -0.020238830030239685 0.6134784963105507
0.7841800268775412 0.11213781648813184 0.5964972060230765
0.8260597218639033 -0.024150306859304416 0.6741107006585203
0.9235963929662859 0.08178570933473944 0.6876763474752781
0.08503538713396686 0.17976116996976033 0.6134784963105507
-0.015819973122458857 0.3121378164881319 0.5964972060230765
0.026059721863903342 0.1758496931406956 0.6741107006585203
0.12359639296628587 0.28178570933473945 0.6876763474752781
0.28503538713396687 0.17976116996976033 0.6134784963105507
0.18418002687754115 0.3121378164881319 0.5964972060230765
0.22605972186390333 0.1758496931406956 0.6741107006585203
0.3235963929662859 0.28178570933473945 0.6876763474752781
0.48503538713396693 0.17976116996976033 0.6134784963105507
0.38418002687754116 0.3121378164881319 0.5964972060230765
0.4260597218639034 0.1758496931406956 0.6741107006585203
0.5235963929662859 0.28178570933473945 0.6876763474752781
0.6850353871339669 0.17976116996976033 0.6134784963105507
0.5841800268775412 0.3121378164881319 0.5964972060230765
0.6260597218639035 0.1758496931406956 0.6741107006585203
0.7235963929662859 0.28178570933473945 0.6876763474752781
0.8850353871339669 0.17976116996976033 0.6134784963105507
0.7841800268775412 0.3121378164881319 0.5964972060230765
0.8260597218639033 0.1758496931406956 0.6741107006585203
0.9235963929662859 0.28178570933473945 0.6876763474752781
0.08503538713396686 0.37976116996976034 0.6134784963105507
-0.015819973122458857 0.5121378164881318 0.5964972060230765
0.026059721863903342 0.3758496931406956 0.6741107006585203
0.12359639296628587 0.4817857093347395 0.6876763474752781
0.28503538713396687 0.37976116996976034 0.6134784963105507
0.18418002687754115 0.5121378164881318 0.5964972060230765
0.22605972186390333 0.3758496931406956 0.6741107006585203
0.3235963929662859 0.4817857093347395 0.6876763474752781
0.48503538713396693 0.37976116996976034 0.6134784963105507
0.38418002687754116 0.5121378164881318 0.5964972060230765
0.4260597218639034 0.3758496931406956 0.6741107006585203
0.5235963929662859 0.4817857093347395 0.6876763474752781
0.6850353871339669 0.37976116996976034 0.6134784963105507
0.5841800268775412 0.5121378164881318 0.5964972060230765
0.6260597218639035 0.3758496931406956 0.6741107006585203
0.7235963929662859 0.4817857093347395 0.6876763474752781
0.8850353871339669 0.37976116996976034 0.6134784963105507
0.7841800268775412 0.5121378164881318 0.5964972060230765
0.8260597218639033 0.3758496931406956 0.6741107006585203
0.9235963929662859 0.4817857093347395 0.6876763474752781
0.08503538713396686 0.5797611699697603 0.6134784963105507
-0.015819973122458857 0.7121378164881319 0.5964972060230765
0.026059721863903342 0.5758496931406957 0.6741107006585203
0.12359639296628587 0.6817857093347395 0.6876763474752781
0.28503538713396687 0.5797611699697603 0.6134784963105507
0.18418002687754115 0.7121378164881319 0.5964972060230765
0.22605972186390333 0.5758496931406957 0.6741107006585203
0.3235963929662859 0.6817857093347395 0.6876763474752781
0.48503538713396693 0.5797611699697603 0.6134784963105507
0.38418002687754116 0.7121378164881319 0.5964972060230765
0.4260597218639034 0.5758496931406957 0.6741107006585203
0.5235963929662859 0.6817857093347395 0.6876763474752781
0.6850353871339669 0.5797611699697603 0.6134784963105507
0.5841800268775412 0.7121378164881319 0.5964972060230765
0.6260597218639035 0.5758496931406957 0.6741107006585203
0.7235963929662859 0.6817857093347395 0.6876763474752781
0.8850353871339669 0.5797611699697603 0.6134784963105507
0.7841800268775412 0.7121378164881319 0.5964972060230765
0.8260597218639033 0.5758496931406957 0.6741107006585203
0.9235963929662859 0.6817857093347395 0.6876763474752781
0.08503538713396686 0.7797611699697603 0.6134784963105507
-0.015819973122458857 0.9121378164881317 0.5964972060230765
0.026059721863903342 0.7758496931406956 0.6741107006585203
0.12359639296628587 0.8817857093347394 0.6876763474752781
0.28503538713396687 0.7797611699697603 0.6134784963105507
0.18418002687754115 0.9121378164881317 0.5964972060230765
0.22605972186390333 0.7758496931406956 0.6741107006585203
0.3235963929662859 0.8817857093347394 0.6876763474752781
0.48503538713396693 0.7797611699697603 0.6134784963105507
0.38418002687754116 0.9121378164881317 0.5964972060230765
0.4260597218639034 0.7758496931406956 0.6741107006585203
0.5235963929662859 0.8817857093347394 0.6876763474752781
0.6850353871339669 0.7797611699697603 0.6134784963105507
0.5841800268775412 0.9121378164881317 0.5964972060230765
0.6260597218639035 0.7758496931406956 0.6741107006585203
0.7235963929662859 0.8817857093347394 0.6876763474752781
0.8850353871339669 0.7797611699697603 0.6134784963105507
0.7841800268775412 0.9121378164881317 0.5964972060230765
0.8260597218639033 0.7758496931406956 0.6741107006585203
0.9235963929662859 0.8817857093347394 0.6876763474752781
0.08503538713396686 -0.020238830030239685 0.8134784963105508
-0.015819973122458857 0.11213781648813184 0.7964972060230765
0.026059721863903342 -0.024150306859304416 0.8741107006585201
0.12359639296628587 0.08178570933473944 0.887676347475278
0.28503538713396687 -0.020238830030239685 0.8134784963105508
0.18418002687754115 0.11213781648813184 0.7964972060230765
0.22605972186390333 -0.024150306859304416 0.8741107006585201
0.3235963929662859 0.08178570933473944 0.887676347475278
0.48503538713396693 -0.020238830030239685 0.8134784963105508
0.38418002687754116 0.11213781648813184 0.7964972060230765
0.4260597218639034 -0.024150306859304416 0.8741107006585201
0.5235963929662859 0.08178570933473944 0.887676347475278
0.6850353871339669 -0.020238830030239685 0.8134784963105508
0.5841800268775412 0.11213781648813184 0.7964972060230765
0.6260597218639035 -0.024150306859304416 0.8741107006585201
0.7235963929662859 0.08178570933473944 0.887676347475278
0.8850353871339669 -0.020238830030239685 0.8134784963105508
0.7841800268775412 0.11213781648813184 0.7964972060230765
0.8260597218639033 -0.024150306859304416 0.8741107006585201
0.9235963929662859 0.08178570933473944 0.887676347475278
0.08503538713396686 0.17976116996976033 0.8134784963105508
-0.015819973122458857 0.3121378164881319 0.7964972060230765
0.026059721863903342 0.1758496931406956 0.8741107006585201
0.12359639296628587 0.28178570933473945 0.887676347475278
0.28503538713396687 0.17976116996976033 0.8134784963105508
0.18418002687754115 0.3121378164881319 0.7964972060230765
0.22605972186390333 0.1758496931406956 0.8741107006585201
0.3235963929662859 0.28178570933473945 0.887676347475278
0.48503538713396693 0.17976116996976033 0.8134784963105508
0.38418002687754116 0.3121378164881319 0.7964972060230765
0.4260597218639034 0.1758496931406956 0.8741107006585201
0.5235963929662859 0.28178570933473945 0.887676347475278
0.6850353871339669 0.17976116996976033 0.8134784963105508
0.5841800268775412 0.3121378164881319 0.7964972060230765
0.6260597218639035 0.1758496931406956 0.8741107006585201
0.7235963929662859 0.28178570933473945 0.887676347475278
0.8850353871339669 0.17976116996976033 0.8134784963105508
0.7841800268775412 0.3121378164881319 0.7964972060230765
0.8260597218639033 0.1758496931406956 0.8741107006585201
0.9235963929662859 0.28178570933473945 0.887676347475278
0.08503538713396686 0.37976116996976034 0.8134784963105508
-0.015819973122458857 0.5121378164881318 0.7964972060230765
0.026059721863903342 0.3758496931406956 0.8741107006585201
0.12359639296628587 0.4817857093347395 0.887676347475278
0.28503538713396687 0.37976116996976034 0.8134784963105508
0.18418002687754115 0.5121378164881318 0.7964972060230765
0.22605972186390333 0.3758496931406956 0.8741107006585201
0.3235963929662859 0.4817857093347395 0.887676347475278
0.48503538713396693 0.37976116996976034 0.8134784963105508
0.38418002687754116 0.5121378164881318 0.7964972060230765
0.4260597218639034 0.3758496931406956 0.8741107006585201
0.5235963929662859 0.4817857093347395 0.887676347475278
0.6850353871339669 0.37976116996976034 0.8134784963105508
0.5841800268775412 0.5121378164881318 0.7964972060230765
0.6260597218639035 0.3758496931406956 0.8741107006585201
0.7235963929662859 0.4817857093347395 0.887676347475278
0.8850353871339669 0.37976116996976034 0.8134784963105508
0.7841800268775412 0.5121378164881318 0.7964972060230765
0.8260597218639033 0.3758496931406956 0.8741107006585201
0.9235963929662859 0.4817857093347395 0.887676347475278
0.08503538713396686 0.5797611699697603 0.8134784963105508
-0.015819973122458857 0.7121378164881319 0.7964972060230765
0.026059721863903342 0.5758496931406957 0.8741107006585201
0.12359639296628587 0.6817857093347395 0.887676347475278
0.28503538713396687 0.5797611699697603 0.8134784963105508
0.18418002687754115 0.7121378164881319 0.7964972060230765
0.22605972186390333 0.5758496931406957 0.8741107006585201
0.3235963929662859 0.6817857093347395 0.887676347475278
0.48503538713396693 0.5797611699697603 0.8134784963105508
0.38418002687754116 0.7121378164881319 0.7964972060230765
0.4260597218639034 0.5758496931406957 0.8741107006585201
0.5235963929662859 0.6817857093347395 0.887676347475278
0.6850353871339669 0.5797611699697603 0.8134784963105508
0.5841800268775412 0.7121378164881319 0.7964972060230765
0.6260597218639035 0.5758496931406957 0.8741107006585201
0.7235963929662859 0.6817857093347395 0.887676347475278
0.8850353871339669 0.5797611699697603 0.8134784963105508
0.7841800268775412 0.7121378164881319 0.7964972060230765
0.8260597218639033 0.5758496931406957 0.8741107006585201
0.9235963929662859 0.6817857093347395 0.887676347475278
0.08503538713396686 0.7797611699697603 0.8134784963105508
-0.015819973122458857 0.9121378164881317 0.7964972060230765
0.026059721863903342 0.7758496931406956 0.8741107006585201
0.12359639296628587 0.8817857093347394 0.887676347475278
0.28503538713396687 0.7797611699697603 0.8134784963105508
0.18418002687754115 0.9121378164881317 0.7964972060230765
0.22605972186390333 0.7758496931406956 0.8741107006585201
0.3235963929662859 0.8817857093347394 0.887676347475278
0.48503538713396693 0.7797611699697603 0.8134784963105508
0.38418002687754116 0.9121378164881317 0.7964972060230765
0.4260597218639034 0.7758496931406956 0.8741107006585201
0.5235963929662859 0.8817857093347394 0.887676347475278
0.6850353871339669 0.7797611699697603 0.8134784963105508
0.5841800268775412 0.9121378164881317 0.7964972060230765
0.6260597218639035 0.7758496931406956 0.8741107006585201
0.7235963929662859 0.8817857093347394 0.887676347475278
0.8850353871339669 0.7797611699697603 0.8134784963105508
0.7841800268775412 0.9121378164881317 0.7964972060230765
0.8260597218639033 0.7758496931406956 0.8741107006585201
0.9235963929662859 0.8817857093347394 0.887676347475278
