FCC BaO
5.61604
3.0 0.0 0.0
0.0 3.0 0.0
0.0 0.0 3.0
Ba O 
108 108 
Direct
-0.08210966483203287 0.08372958601364033 0.08472047333113722
0.06655001082561265 0.1856458203770841 0.2153676760993204
0.015787076023821817 0.09714082078943942 0.19027520072533366
0.19849463020355795 0.13337581399180237 -0.044692194585769285
0.2512236685013004 0.08372958601364033 0.08472047333113722
0.399883344158946 0.1856458203770841 0.2153676760993204
0.34912040935715516 0.09714082078943942 0.19027520072533366
0.5318279635368912 0.13337581399180237 -0.044692194585769285
0.5845570018346338 0.08372958601364033 0.08472047333113722
0.7332166774922794 0.1856458203770841 0.2153676760993204
0.6824537426904884 0.09714082078943942 0.19027520072533366
0.8651612968702246 0.13337581399180237 -0.044692194585769285
-0.08210966483203287 0.4170629193469737 0.08472047333113722
0.06655001082561265 0.5189791537104174 0.2153676760993204
0.015787076023821817 0.4304741541227727 0.19027520072533366
0.19849463020355795 0.46670914732513574 -0.044692194585769285
0.2512236685013004 0.4170629193469737 0.08472047333113722
0.399883344158946 0.5189791537104174 0.2153676760993204
0.34912040935715516 0.4304741541227727 0.19027520072533366
0.5318279635368912 0.46670914732513574 -0.044692194585769285
0.5845570018346338 0.4170629193469737 0.08472047333113722
0.7332166774922794 0.5189791537104174 0.2153676760993204
0.6824537426904884 0.4304741541227727 0.19027520072533366
0.8651612968702246 0.46670914732513574 -0.044692194585769285
-0.08210966483203287 0.750396252680307 0.08472047333113722
0.06655001082561265 0.8523124870437507 0.2153676760993204
0.015787076023821817 0.763807487456106 0.19027520072533366
0.19849463020355795 0.8000424806584691 -0.044692194585769285
0.2512236685013004 0.750396252680307 0.08472047333113722
0.399883344158946 0.8523124870437507 0.2153676760993204
0.34912040935715516 0.763807487456106 0.19027520072533366
0.5318279635368912 0.8000424806584691 -0.044692194585769285
0.5845570018346338 0.750396252680307 0.08472047333113722
0.7332166774922794 0.8523124870437507 0.2153676760993204
0.6824537426904884 0.763807487456106 0.19027520072533366
0.8651612968702246 0.8000424806584691 -0.044692194585769285
-0.08210966483203287 0.08372958601364033 0.41805380666447056
0.06655001082561265 0.1856458203770841 0.5487010094326537
0.015787076023821817 0.09714082078943942 0.5236085340586669
0.19849463020355795 0.13337581399180237 0.28864113874756403
0.2512236685013004 0.08372958601364033 0.41805380666447056
0.399883344158946 0.1856458203770841 0.5487010094326537
0.34912040935715516 0.09714082078943942 0.5236085340586669
0.5318279635368912 0.13337581399180237 0.28864113874756403
0.5845570018346338 0.08372958601364033 0.41805380666447056
0.7332166774922794 0.1856458203770841 0.5487010094326537
0.6824537426904884 0.09714082078943942 0.5236085340586669
0.8651612968702246 0.13337581399180237 0.28864113874756403
-0.08210966483203287 0.4170629193469737 0.41805380666447056
0.06655001082561265 0.5189791537104174 0.5487010094326537
0.015787076023821817 0.4304741541227727 0.5236085340586669
0.19849463020355795 0.46670914732513574 0.28864113874756403
0.2512236685013004 0.4170629193469737 0.41805380666447056
0.399883344158946 0.5189791537104174 0.5487010094326537
0.34912040935715516 0.4304741541227727 0.5236085340586669
0.5318279635368912 0.46670914732513574 0.28864113874756403
0.5845570018346338 0.4170629193469737 0.41805380666447056
0.7332166774922794 0.5189791537104174 0.5487010094326537
0.6824537426904884 0.4304741541227727 0.5236085340586669
0.8651612968702246 0.46670914732513574 0.28864113874756403
-0.08210966483203287 0.750396252680307 0.41805380666447056
0.06655001082561265 0.8523124870437507 0.5487010094326537
0.015787076023821817 0.763807487456106 0.5236085340586669
0.19849463020355795 0.8000424806584691 0.28864113874756403
0.2512236685013004 0.750396252680307 0.41805380666447056
0.399883344158946 0.8523124870437507 0.5487010094326537
0.34912040935715516 0.763807487456106 0.5236085340586669
0.5318279635368912 0.8000424806584691 0.28864113874756403
0.5845570018346338 0.750396252680307 0.41805380666447056
0.7332166774922794 0.8523124870437507 0.5487010094326537
0.6824537426904884 0.763807487456106 0.5236085340586669
0.8651612968702246 0.8000424806584691 0.28864113874756403
-0.08210966483203287 0.08372958601364033 0.7513871399978038
0.06655001082561265 0.1856458203770841 0.8820343427659871
0.015787076023821817 0.09714082078943942 0.8569418673920002
0.19849463020355795 0.13337581399180237 0.6219744720808973
0.2512236685013004 0.08372958601364033 0.7513871399978038
0.399883344158946 0.1856458203770841 0.8820343427659871
0.34912040935715516 0.09714082078943942 0.8569418673920002
0.5318279635368912 0.13337581399180237 0.6219744720808973
0.5845570018346338 0.08372958601364033 0.7513871399978038
0.7332166774922794 0.1856458203770841 0.8820343427659871
0.6824537426904884 0.09714082078943942 0.8569418673920002
0.8651612968702246 0.13337581399180237 0.6219744720808973
-0.08210966483203287 0.4170629193469737 0.7513871399978038
0.06655001082561265 0.5189791537104174 0.8820343427659871
0.015787076023821817 0.4304741541227727 0.8569418673920002
0.19849463020355795 0.46670914732513574 0.6219744720808973
0.2512236685013004 0.4170629193469737 0.7513871399978038
0.399883344158946 0.5189791537104174 0.8820343427659871
0.34912040935715516 0.4304741541227727 0.8569418673920002
0.5318279635368912 0.46670914732513574 0.6219744720808973
0.5845570018346338 0.4170629193469737 0.7513871399978038
0.7332166774922794 0.5189791537104174 0.8820343427659871
0.6824537426904884 0.4304741541227727 0.8569418673920002
0.8651612968702246 0.46670914732513574 0.6219744720808973
-0.08210966483203287 0.750396252680307 0.7513871399978038
0.06655001082561265 0.8523124870437507 0.8820343427659871
0.015787076023821817 0.763807487456106 0.8569418673920002
0.19849463020355795 0.8000424806584691 0.6219744720808973
0.2512236685013004 0.750396252680307 0.7513871399978038
0.399883344158946 0.8523124870437507 0.8820343427659871
0.34912040935715516 0.763807487456106 0.8569418673920002
0.5318279635368912 0.8000424806584691 0.6219744720808973
0.5845570018346338 0.750396252680307 0.7513871399978038
0.7332166774922794 0.8523124870437507 0.8820343427659871
0.6824537426904884 0.763807487456106 0.8569418673920002
0.8651612968702246 0.8000424806584691 0.6219744720808973
0.24384955708261305 0.030514001239919958 -0.04940821643259688
0.012893682733397725 0.15741831576512924 -0.006510985074946016
0.002063492126954838 0.025319531468936042 0.3524684954704214
0.1331876668630812 0.10491040081763667 0.2573786086343008
0.5771828904159464 0.030514001239919958 -0.04940821643259688
0.346227016066731 0.15741831576512924 -0.006510985074946016
0.33539682546028815 0.025319531468936042 0.3524684954704214
0.4665210001964145 0.10491040081763667 0.2573786086343008
0.9105162237492797 0.030514001239919958 -0.04940821643259688
0.6795603494000644 0.15741831576512924 -0.006510985074946016
0.6687301587936215 0.025319531468936042 0.3524684954704214
0.7998543335297479 0.10491040081763667 0.2573786086343008
0.24384955708261305 0.36384733457325324 -0.04940821643259688
0.012893682733397725 0.4907516490984626 -0.006510985074946016
0.002063492126954838 0.3586528648022694 0.3524684954704214
0.1331876668630812 0.43824373415097 0.2573786086343008
0.5771828904159464 0.36384733457325324 -0.04940821643259688
0.346227016066731 0.4907516490984626 -0.006510985074946016
0.33539682546028815 0.3586528648022694 0.3524684954704214
0.4665210001964145 0.43824373415097 0.2573786086343008
0.9105162237492797 0.36384733457325324 -0.04940821643259688
0.6795603494000644 0.4907516490984626 -0.006510985074946016
0.6687301587936215 0.3586528648022694 0.3524684954704214
0.7998543335297479 0.43824373415097 0.2573786086343008
0.24384955708261305 0.6971806679065866 -0.04940821643259688
0.012893682733397725 0.824084982431796 -0.006510985074946016
0.002063492126954838 0.6919861981356027 0.3524684954704214
0.1331876668630812 0.7715770674843033 0.2573786086343008
0.5771828904159464 0.6971806679065866 -0.04940821643259688
0.346227016066731 0.824084982431796 -0.006510985074946016
0.33539682546028815 0.6919861981356027 0.3524684954704214
0.4665210001964145 0.7715770674843033 0.2573786086343008
0.9105162237492797 0.6971806679065866 -0.04940821643259688
0.6795603494000644 0.824084982431796 -0.006510985074946016
0.6687301587936215 0.6919861981356027 0.3524684954704214
0.7998543335297479 0.7715770674843033 0.2573786086343008
0.24384955708261305 0.030514001239919958 0.2839251169007364
0.012893682733397725 0.15741831576512924 0.3268223482583873
0.002063492126954838 0.025319531468936042 0.6858018288037547
0.1331876668630812 0.10491040081763667 0.5907119419676341
0.5771828904159464 0.030514001239919958 0.2839251169007364
0.346227016066731 0.15741831576512924 0.3268223482583873
0.33539682546028815 0.025319531468936042 0.6858018288037547
0.4665210001964145 0.10491040081763667 0.5907119419676341
0.9105162237492797 0.030514001239919958 0.2839251169007364
0.6795603494000644 0.15741831576512924 0.3268223482583873
0.6687301587936215 0.025319531468936042 0.6858018288037547
0.7998543335297479 0.10491040081763667 0.5907119419676341
0.24384955708261305 0.36384733457325324 0.2839251169007364
0.012893682733397725 0.4907516490984626 0.3268223482583873
0.002063492126954838 0.3586528648022694 0.6858018288037547
0.1331876668630812 0.43824373415097 0.5907119419676341
0.5771828904159464 0.36384733457325324 0.2839251169007364
0.346227016066731 0.4907516490984626 0.3268223482583873
0.33539682546028815 0.3586528648022694 0.6858018288037547
0.4665210001964145 0.43824373415097 0.5907119419676341
0.9105162237492797 0.36384733457325324 0.2839251169007364
0.6795603494000644 0.4907516490984626 0.3268223482583873
0.6687301587936215 0.3586528648022694 0.6858018288037547
0.7998543335297479 0.43824373415097 0.5907119419676341
0.24384955708261305 0.6971806679065866 0.2839251169007364
0.012893682733397725 0.824084982431796 0.3268223482583873
0.002063492126954838 0.6919861981356027 0.6858018288037547
0.1331876668630812 0.7715770674843033 0.5907119419676341
0.5771828904159464 0.6971806679065866 0.2839251169007364
0.346227016066731 0.824084982431796 0.3268223482583873
0.33539682546028815 0.6919861981356027 0.6858018288037547
0.4665210001964145 0.7715770674843033 0.5907119419676341
0.9105162237492797 0.6971806679065866 0.2839251169007364
0.6795603494000644 0.824084982431796 0.3268223482583873
0.6687301587936215 0.6919861981356027 0.6858018288037547
0.7998543335297479 0.7715770674843033 0.5907119419676341
0.24384955708261305 0.030514001239919958 0.6172584502340698
0.012893682733397725 0.15741831576512924 0.6601556815917207
0.002063492126954838 0.025319531468936042 1.019135162137088
0.1331876668630812 0.10491040081763667 0.9240452753009675
0.5771828904159464 0.030514001239919958 0.6172584502340698
0.346227016066731 0.15741831576512924 0.6601556815917207
0.33539682546028815 0.025319531468936042 1.019135162137088
0.4665210001964145 0.10491040081763667 0.9240452753009675
0.9105162237492797 0.030514001239919958 0.6172584502340698
0.6795603494000644 0.15741831576512924 0.6601556815917207
0.6687301587936215 0.025319531468936042 1.019135162137088
0.7998543335297479 0.10491040081763667 0.9240452753009675
0.24384955708261305 0.36384733457325324 0.6172584502340698
0.012893682733397725 0.4907516490984626 0.6601556815917207
0.002063492126954838 0.3586528648022694 1.019135162137088
0.1331876668630812 0.43824373415097 0.9240452753009675
0.5771828904159464 0.36384733457325324 0.6172584502340698
0.346227016066731 0.4907516490984626 0.6601556815917207
0.33539682546028815 0.3586528648022694 1.019135162137088
0.4665210001964145 0.43824373415097 0.9240452753009675
0.9105162237492797 0.36384733457325324 0.6172584502340698
0.6795603494000644 0.4907516490984626 0.6601556815917207
0.6687301587936215 0.3586528648022694 1.019135162137088
0.7998543335297479 0.43824373415097 0.9240452753009675
0.24384955708261305 0.6971806679065866 0.6172584502340698
0.012893682733397725 0.824084982431796 0.6601556815917207
0.002063492126954838 0.6919861981356027 1.019135162137088
0.1331876668630812 0.7715770674843033 0.9240452753009675
0.5771828904159464 0.6971806679065866 0.6172584502340698
0.346227016066731 0.824084982431796 0.6601556815917207
0.33539682546028815 0.6919861981356027 1.019135162137088
0.4665210001964145 0.7715770674843033 0.9240452753009675
0.9105162237492797 0.6971806679065866 0.6172584502340698
0.6795603494000644 0.824084982431796 0.6601556815917207
0.6687301587936215 0.6919861981356027 1.019135162137088
0.7998543335297479 0.7715770674843033 0.9240452753009675
