FCC BaO
3.971
5.0 0.0 0.0
0.0 5.0 0.0
0.0 0.0 5.0
Ba O 
500 500 
Direct
0.013985492317688445 -0.023975243193466184 -0.019071410821877886
-0.02146023521862924 0.07516040376432401 0.07009970086707296
0.11067217517258938 0.00829259837732876 0.0920447184551978
0.11731467717235795 0.11329746969108889 0.023052344103906018
0.21398549231768846 -0.023975243193466184 -0.019071410821877886
0.1785397647813708 0.07516040376432401 0.07009970086707296
0.3106721751725894 0.00829259837732876 0.0920447184551978
0.31731467717235795 0.11329746969108889 0.023052344103906018
0.4139854923176885 -0.023975243193466184 -0.019071410821877886
0.3785397647813708 0.07516040376432401 0.07009970086707296
0.5106721751725894 0.00829259837732876 0.0920447184551978
0.5173146771723579 0.11329746969108889 0.023052344103906018
0.6139854923176885 -0.023975243193466184 -0.019071410821877886
0.5785397647813707 0.07516040376432401 0.07009970086707296
0.7106721751725895 0.00829259837732876 0.0920447184551978
0.717314677172358 0.11329746969108889 0.023052344103906018
0.8139854923176885 -0.023975243193466184 -0.019071410821877886
0.7785397647813708 0.07516040376432401 0.07009970086707296
0.9106721751725895 0.00829259837732876 0.0920447184551978
0.917314677172358 0.11329746969108889 0.023052344103906018
0.013985492317688445 0.17602475680653384 -0.019071410821877886
-0.02146023521862924 0.275160403764324 0.07009970086707296
0.11067217517258938 0.20829259837732877 0.0920447184551978
0.11731467717235795 0.3132974696910889 0.023052344103906018
0.21398549231768846 0.17602475680653384 -0.019071410821877886
0.1785397647813708 0.275160403764324 0.07009970086707296
0.3106721751725894 0.20829259837732877 0.0920447184551978
0.31731467717235795 0.3132974696910889 0.023052344103906018
0.4139854923176885 0.17602475680653384 -0.019071410821877886
0.3785397647813708 0.275160403764324 0.07009970086707296
0.5106721751725894 0.20829259837732877 0.0920447184551978
0.5173146771723579 0.3132974696910889 0.023052344103906018
0.6139854923176885 0.17602475680653384 -0.019071410821877886
0.5785397647813707 0.275160403764324 0.07009970086707296
0.7106721751725895 0.20829259837732877 0.0920447184551978
0.717314677172358 0.3132974696910889 0.023052344103906018
0.8139854923176885 0.17602475680653384 -0.019071410821877886
0.7785397647813708 0.275160403764324 0.07009970086707296
0.9106721751725895 0.20829259837732877 0.0920447184551978
0.917314677172358 0.3132974696910889 0.023052344103906018
0.013985492317688445 0.3760247568065338 -0.019071410821877886
-0.02146023521862924 0.475160403764324 0.07009970086707296
0.11067217517258938 0.40829259837732873 0.0920447184551978
0.11731467717235795 0.5132974696910889 0.023052344103906018
0.21398549231768846 0.3760247568065338 -0.019071410821877886
0.1785397647813708 0.475160403764324 0.07009970086707296
0.3106721751725894 0.40829259837732873 0.0920447184551978
0.31731467717235795 0.5132974696910889 0.023052344103906018
0.4139854923176885 0.3760247568065338 -0.019071410821877886
0.3785397647813708 0.475160403764324 0.07009970086707296
0.5106721751725894 0.40829259837732873 0.0920447184551978
0.5173146771723579 0.5132974696910889 0.023052344103906018
0.6139854923176885 0.3760247568065338 -0.019071410821877886
0.5785397647813707 0.475160403764324 0.07009970086707296
0.7106721751725895 0.40829259837732873 0.0920447184551978
0.717314677172358 0.5132974696910889 0.023052344103906018
0.8139854923176885 0.3760247568065338 -0.019071410821877886
0.7785397647813708 0.475160403764324 0.07009970086707296
0.9106721751725895 0.40829259837732873 0.0920447184551978
0.917314677172358 0.5132974696910889 0.023052344103906018
0.013985492317688445 0.5760247568065339 -0.019071410821877886
-0.02146023521862924 0.6751604037643241 0.07009970086707296
0.11067217517258938 0.6082925983773287 0.0920447184551978
0.11731467717235795 0.713297469691089 0.023052344103906018
0.21398549231768846 0.5760247568065339 -0.019071410821877886
0.1785397647813708 0.6751604037643241 0.07009970086707296
0.3106721751725894 0.6082925983773287 0.0920447184551978
0.31731467717235795 0.713297469691089 0.023052344103906018
0.4139854923176885 0.5760247568065339 -0.019071410821877886
0.3785397647813708 0.6751604037643241 0.07009970086707296
0.5106721751725894 0.6082925983773287 0.0920447184551978
0.5173146771723579 0.713297469691089 0.023052344103906018
0.6139854923176885 0.5760247568065339 -0.019071410821877886
0.5785397647813707 0.6751604037643241 0.07009970086707296
0.7106721751725895 0.6082925983773287 0.0920447184551978
0.717314677172358 0.713297469691089 0.023052344103906018
0.8139854923176885 0.5760247568065339 -0.019071410821877886
0.7785397647813708 0.6751604037643241 0.07009970086707296
0.9106721751725895 0.6082925983773287 0.0920447184551978
0.917314677172358 0.713297469691089 0.023052344103906018
0.013985492317688445 0.7760247568065339 -0.019071410821877886
-0.02146023521862924 0.875160403764324 0.07009970086707296
0.11067217517258938 0.8082925983773288 0.0920447184551978
0.11731467717235795 0.9132974696910889 0.023052344103906018
0.21398549231768846 0.7760247568065339 -0.019071410821877886
0.1785397647813708 0.875160403764324 0.07009970086707296
0.3106721751725894 0.8082925983773288 0.0920447184551978
0.31731467717235795 0.9132974696910889 0.023052344103906018
0.4139854923176885 0.7760247568065339 -0.019071410821877886
0.3785397647813708 0.875160403764324 0.07009970086707296
0.5106721751725894 0.8082925983773288 0.0920447184551978
0.5173146771723579 0.9132974696910889 0.023052344103906018
0.6139854923176885 0.7760247568065339 -0.019071410821877886
0.5785397647813707 0.875160403764324 0.07009970086707296
0.7106721751725895 0.8082925983773288 0.0920447184551978
0.717314677172358 0.9132974696910889 0.023052344103906018
0.8139854923176885 0.7760247568065339 -0.019071410821877886
0.7785397647813708 0.875160403764324 0.07009970086707296
0.9106721751725895 0.8082925983773288 0.0920447184551978
0.917314677172358 0.9132974696910889 0.023052344103906018
0.013985492317688445 -0.023975243193466184 0.18092858917812213
-0.02146023521862924 0.07516040376432401 0.27009970086707297
0.11067217517258938 0.00829259837732876 0.2920447184551978
0.11731467717235795 0.11329746969108889 0.22305234410390604
0.21398549231768846 -0.023975243193466184 0.18092858917812213
0.1785397647813708 0.07516040376432401 0.27009970086707297
0.3106721751725894 0.00829259837732876 0.2920447184551978
0.31731467717235795 0.11329746969108889 0.22305234410390604
0.4139854923176885 -0.023975243193466184 0.18092858917812213
0.3785397647813708 0.07516040376432401 0.27009970086707297
0.5106721751725894 0.00829259837732876 0.2920447184551978
0.5173146771723579 0.11329746969108889 0.22305234410390604
0.6139854923176885 -0.023975243193466184 0.18092858917812213
0.5785397647813707 0.07516040376432401 0.27009970086707297
0.7106721751725895 0.00829259837732876 0.2920447184551978
0.717314677172358 0.11329746969108889 0.22305234410390604
0.8139854923176885 -0.023975243193466184 0.18092858917812213
0.7785397647813708 0.07516040376432401 0.27009970086707297
0.9106721751725895 0.00829259837732876 0.2920447184551978
0.917314677172358 0.11329746969108889 0.22305234410390604
0.013985492317688445 0.17602475680653384 0.18092858917812213
-0.02146023521862924 0.275160403764324 0.27009970086707297
0.11067217517258938 0.20829259837732877 0.2920447184551978
0.11731467717235795 0.3132974696910889 0.22305234410390604
0.21398549231768846 0.17602475680653384 0.18092858917812213
0.1785397647813708 0.275160403764324 0.27009970086707297
0.3106721751725894 0.20829259837732877 0.2920447184551978
0.31731467717235795 0.3132974696910889 0.22305234410390604
0.4139854923176885 0.17602475680653384 0.18092858917812213
0.3785397647813708 0.275160403764324 0.27009970086707297
0.5106721751725894 0.20829259837732877 0.2920447184551978
0.5173146771723579 0.3132974696910889 0.22305234410390604
0.6139854923176885 0.17602475680653384 0.18092858917812213
0.5785397647813707 0.275160403764324 0.27009970086707297
0.7106721751725895 0.20829259837732877 0.2920447184551978
0.717314677172358 0.3132974696910889 0.22305234410390604
0.8139854923176885 0.17602475680653384 0.18092858917812213
0.7785397647813708 0.275160403764324 0.27009970086707297
0.9106721751725895 0.20829259837732877 0.2920447184551978
0.917314677172358 0.3132974696910889 0.22305234410390604
0.013985492317688445 0.3760247568065338 0.18092858917812213
-0.02146023521862924 0.475160403764324 0.27009970086707297
0.11067217517258938 0.40829259837732873 0.2920447184551978
0.11731467717235795 0.5132974696910889 0.22305234410390604
0.21398549231768846 0.3760247568065338 0.18092858917812213
0.1785397647813708 0.475160403764324 0.27009970086707297
0.3106721751725894 0.40829259837732873 0.2920447184551978
0.31731467717235795 0.5132974696910889 0.22305234410390604
0.4139854923176885 0.3760247568065338 0.18092858917812213
0.3785397647813708 0.475160403764324 0.27009970086707297
0.5106721751725894 0.40829259837732873 0.2920447184551978
0.5173146771723579 0.5132974696910889 0.22305234410390604
0.6139854923176885 0.3760247568065338 0.18092858917812213
0.5785397647813707 0.475160403764324 0.27009970086707297
0.7106721751725895 0.40829259837732873 0.2920447184551978
0.717314677172358 0.5132974696910889 0.22305234410390604
0.8139854923176885 0.3760247568065338 0.18092858917812213
0.7785397647813708 0.475160403764324 0.27009970086707297
0.9106721751725895 0.40829259837732873 0.2920447184551978
0.917314677172358 0.5132974696910889 0.22305234410390604
0.013985492317688445 0.5760247568065339 0.18092858917812213
-0.02146023521862924 0.6751604037643241 0.27009970086707297
0.11067217517258938 0.6082925983773287 0.2920447184551978
0.11731467717235795 0.713297469691089 0.22305234410390604
0.21398549231768846 0.5760247568065339 0.18092858917812213
0.1785397647813708 0.6751604037643241 0.27009970086707297
0.3106721751725894 0.6082925983773287 0.2920447184551978
0.31731467717235795 0.713297469691089 0.22305234410390604
0.4139854923176885 0.5760247568065339 0.18092858917812213
0.3785397647813708 0.6751604037643241 0.27009970086707297
0.5106721751725894 0.6082925983773287 0.2920447184551978
0.5173146771723579 0.713297469691089 0.22305234410390604
0.6139854923176885 0.5760247568065339 0.18092858917812213
0.5785397647813707 0.6751604037643241 0.27009970086707297
0.7106721751725895 0.6082925983773287 0.2920447184551978
0.717314677172358 0.713297469691089 0.22305234410390604
0.8139854923176885 0.5760247568065339 0.18092858917812213
0.7785397647813708 0.6751604037643241 0.27009970086707297
0.9106721751725895 0.6082925983773287 0.2920447184551978
0.917314677172358 0.713297469691089 0.22305234410390604
0.013985492317688445 0.7760247568065339 0.18092858917812213
-0.02146023521862924 0.875160403764324 0.27009970086707297
0.11067217517258938 0.8082925983773288 0.2920447184551978
0.11731467717235795 0.9132974696910889 0.22305234410390604
0.21398549231768846 0.7760247568065339 0.18092858917812213
0.1785397647813708 0.875160403764324 0.27009970086707297
0.3106721751725894 0.8082925983773288 0.2920447184551978
0.31731467717235795 0.9132974696910889 0.22305234410390604
0.4139854923176885 0.7760247568065339 0.18092858917812213
0.3785397647813708 0.875160403764324 0.27009970086707297
0.5106721751725894 0.8082925983773288 0.2920447184551978
0.5173146771723579 0.9132974696910889 0.22305234410390604
0.6139854923176885 0.7760247568065339 0.18092858917812213
0.5785397647813707 0.875160403764324 0.27009970086707297
0.7106721751725895 0.8082925983773288 0.2920447184551978
0.717314677172358 0.9132974696910889 0.22305234410390604
0.8139854923176885 0.7760247568065339 0.18092858917812213
0.7785397647813708 0.875160403764324 0.27009970086707297
0.9106721751725895 0.8082925983773288 0.2920447184551978
0.917314677172358 0.9132974696910889 0.22305234410390604
0.013985492317688445 -0.023975243193466184 0.38092858917812217
-0.02146023521862924 0.07516040376432401 0.4700997008670729
0.11067217517258938 0.00829259837732876 0.49204471845519776
0.11731467717235795 0.11329746969108889 0.423052344103906
0.21398549231768846 -0.023975243193466184 0.38092858917812217
0.1785397647813708 0.07516040376432401 0.4700997008670729
0.3106721751725894 0.00829259837732876 0.49204471845519776
0.31731467717235795 0.11329746969108889 0.423052344103906
0.4139854923176885 -0.023975243193466184 0.38092858917812217
0.3785397647813708 0.07516040376432401 0.4700997008670729
0.5106721751725894 0.00829259837732876 0.49204471845519776
0.5173146771723579 0.11329746969108889 0.423052344103906
0.6139854923176885 -0.023975243193466184 0.38092858917812217
0.5785397647813707 0.07516040376432401 0.4700997008670729
0.7106721751725895 0.00829259837732876 0.49204471845519776
0.717314677172358 0.11329746969108889 0.423052344103906
0.8139854923176885 -0.023975243193466184 0.38092858917812217
0.7785397647813708 0.07516040376432401 0.4700997008670729
0.9106721751725895 0.00829259837732876 0.49204471845519776
0.917314677172358 0.11329746969108889 0.423052344103906
0.013985492317688445 0.17602475680653384 0.38092858917812217
-0.02146023521862924 0.275160403764324 0.4700997008670729
0.11067217517258938 0.20829259837732877 0.49204471845519776
0.11731467717235795 0.3132974696910889 0.423052344103906
0.21398549231768846 0.17602475680653384 0.38092858917812217
0.1785397647813708 0.275160403764324 0.4700997008670729
0.3106721751725894 0.20829259837732877 0.49204471845519776
0.31731467717235795 0.3132974696910889 0.423052344103906
0.4139854923176885 0.17602475680653384 0.38092858917812217
0.3785397647813708 0.275160403764324 0.4700997008670729
0.5106721751725894 0.20829259837732877 0.49204471845519776
0.5173146771723579 0.3132974696910889 0.423052344103906
0.6139854923176885 0.17602475680653384 0.38092858917812217
0.5785397647813707 0.275160403764324 0.4700997008670729
0.7106721751725895 0.20829259837732877 0.49204471845519776
0.717314677172358 0.3132974696910889 0.423052344103906
0.8139854923176885 0.17602475680653384 0.38092858917812217
0.7785397647813708 0.275160403764324 0.4700997008670729
0.9106721751725895 0.20829259837732877 0.49204471845519776
0.917314677172358 0.3132974696910889 0.423052344103906
0.013985492317688445 0.3760247568065338 0.38092858917812217
-0.02146023521862924 0.475160403764324 0.4700997008670729
0.11067217517258938 0.40829259837732873 0.49204471845519776
0.11731467717235795 0.5132974696910889 0.423052344103906
0.21398549231768846 0.3760247568065338 0.38092858917812217
0.1785397647813708 0.475160403764324 0.4700997008670729
0.3106721751725894 0.40829259837732873 0.49204471845519776
0.31731467717235795 0.5132974696910889 0.423052344103906
0.4139854923176885 0.3760247568065338 0.38092858917812217
0.3785397647813708 0.475160403764324 0.4700997008670729
0.5106721751725894 0.40829259837732873 0.49204471845519776
0.5173146771723579 0.5132974696910889 0.423052344103906
0.6139854923176885 0.3760247568065338 0.38092858917812217
0.5785397647813707 0.475160403764324 0.4700997008670729
0.7106721751725895 0.40829259837732873 0.49204471845519776
0.717314677172358 0.5132974696910889 0.423052344103906
0.8139854923176885 0.3760247568065338 0.38092858917812217
0.7785397647813708 0.475160403764324 0.4700997008670729
0.9106721751725895 0.40829259837732873 0.49204471845519776
0.917314677172358 0.5132974696910889 0.423052344103906
0.013985492317688445 0.5760247568065339 0.38092858917812217
-0.02146023521862924 0.6751604037643241 0.4700997008670729
0.11067217517258938 0.6082925983773287 0.49204471845519776
0.11731467717235795 0.713297469691089 0.423052344103906
0.21398549231768846 0.5760247568065339 0.38092858917812217
0.1785397647813708 0.6751604037643241 0.4700997008670729
0.3106721751725894 0.6082925983773287 0.49204471845519776
0.31731467717235795 0.713297469691089 0.423052344103906
0.4139854923176885 0.5760247568065339 0.38092858917812217
0.3785397647813708 0.6751604037643241 0.4700997008670729
0.5106721751725894 0.6082925983773287 0.49204471845519776
0.5173146771723579 0.713297469691089 0.423052344103906
0.6139854923176885 0.5760247568065339 0.38092858917812217
0.5785397647813707 0.6751604037643241 0.4700997008670729
0.7106721751725895 0.6082925983773287 0.49204471845519776
0.717314677172358 0.713297469691089 0.423052344103906
0.8139854923176885 0.5760247568065339 0.38092858917812217
0.7785397647813708 0.6751604037643241 0.4700997008670729
0.9106721751725895 0.6082925983773287 0.49204471845519776
0.917314677172358 0.713297469691089 0.423052344103906
0.013985492317688445 0.7760247568065339 0.38092858917812217
-0.02146023521862924 0.875160403764324 0.4700997008670729
0.11067217517258938 0.8082925983773288 0.49204471845519776
0.11731467717235795 0.9132974696910889 0.423052344103906
0.21398549231768846 0.7760247568065339 0.38092858917812217
0.1785397647813708 0.875160403764324 0.4700997008670729
0.3106721751725894 0.8082925983773288 0.49204471845519776
0.31731467717235795 0.9132974696910889 0.423052344103906
0.4139854923176885 0.7760247568065339 0.38092858917812217
0.3785397647813708 0.875160403764324 0.4700997008670729
0.5106721751725894 0.8082925983773288 0.49204471845519776
0.5173146771723579 0.9132974696910889 0.423052344103906
0.6139854923176885 0.7760247568065339 0.38092858917812217
0.5785397647813707 0.875160403764324 0.4700997008670729
0.7106721751725895 0.8082925983773288 0.49204471845519776
0.717314677172358 0.9132974696910889 0.423052344103906
0.8139854923176885 0.7760247568065339 0.38092858917812217
0.7785397647813708 0.875160403764324 0.4700997008670729
0.9106721751725895 0.8082925983773288 0.49204471845519776
0.917314677172358 0.9132974696910889 0.423052344103906
0.013985492317688445 -0.023975243193466184 0.5809285891781222
-0.02146023521862924 0.07516040376432401 0.6700997008670729
0.11067217517258938 0.00829259837732876 0.6920447184551978
0.11731467717235795 0.11329746969108889 0.6230523441039061
0.21398549231768846 -0.023975243193466184 0.5809285891781222
0.1785397647813708 0.07516040376432401 0.6700997008670729
0.3106721751725894 0.00829259837732876 0.6920447184551978
0.31731467717235795 0.11329746969108889 0.6230523441039061
0.4139854923176885 -0.023975243193466184 0.5809285891781222
0.3785397647813708 0.07516040376432401 0.6700997008670729
0.5106721751725894 0.00829259837732876 0.6920447184551978
0.5173146771723579 0.11329746969108889 0.6230523441039061
0.6139854923176885 -0.023975243193466184 0.5809285891781222
0.5785397647813707 0.07516040376432401 0.6700997008670729
0.7106721751725895 0.00829259837732876 0.6920447184551978
0.717314677172358 0.11329746969108889 0.6230523441039061
0.8139854923176885 -0.023975243193466184 0.5809285891781222
0.7785397647813708 0.07516040376432401 0.6700997008670729
0.9106721751725895 0.00829259837732876 0.6920447184551978
0.917314677172358 0.11329746969108889 0.6230523441039061
0.013985492317688445 0.17602475680653384 0.5809285891781222
-0.02146023521862924 0.275160403764324 0.6700997008670729
0.11067217517258938 0.20829259837732877 0.6920447184551978
0.11731467717235795 0.3132974696910889 0.6230523441039061
0.21398549231768846 0.17602475680653384 0.5809285891781222
0.1785397647813708 0.275160403764324 0.6700997008670729
0.3106721751725894 0.20829259837732877 0.6920447184551978
0.31731467717235795 0.3132974696910889 0.6230523441039061
0.4139854923176885 0.17602475680653384 0.5809285891781222
0.3785397647813708 0.275160403764324 0.6700997008670729
0.5106721751725894 0.20829259837732877 0.6920447184551978
0.5173146771723579 0.3132974696910889 0.6230523441039061
0.6139854923176885 0.17602475680653384 0.5809285891781222
0.5785397647813707 0.275160403764324 0.6700997008670729
0.7106721751725895 0.20829259837732877 0.6920447184551978
0.717314677172358 0.3132974696910889 0.6230523441039061
0.8139854923176885 0.17602475680653384 0.5809285891781222
0.7785397647813708 0.275160403764324 0.6700997008670729
0.9106721751725895 0.20829259837732877 0.6920447184551978
0.917314677172358 0.3132974696910889 0.6230523441039061
0.013985492317688445 0.3760247568065338 0.5809285891781222
-0.02146023521862924 0.475160403764324 0.6700997008670729
0.11067217517258938 0.40829259837732873 0.6920447184551978
0.11731467717235795 0.5132974696910889 0.6230523441039061
0.21398549231768846 0.3760247568065338 0.5809285891781222
0.1785397647813708 0.475160403764324 0.6700997008670729
0.3106721751725894 0.40829259837732873 0.6920447184551978
0.31731467717235795 0.5132974696910889 0.6230523441039061
0.4139854923176885 0.3760247568065338 0.5809285891781222
0.3785397647813708 0.475160403764324 0.6700997008670729
0.5106721751725894 0.40829259837732873 0.6920447184551978
0.5173146771723579 0.5132974696910889 0.6230523441039061
0.6139854923176885 0.3760247568065338 0.5809285891781222
0.5785397647813707 0.475160403764324 0.6700997008670729
0.7106721751725895 0.40829259837732873 0.6920447184551978
0.717314677172358 0.5132974696910889 0.6230523441039061
0.8139854923176885 0.3760247568065338 0.5809285891781222
0.7785397647813708 0.475160403764324 0.6700997008670729
0.9106721751725895 0.40829259837732873 0.6920447184551978
0.917314677172358 0.5132974696910889 0.6230523441039061
0.013985492317688445 0.5760247568065339 0.5809285891781222
-0.02146023521862924 0.6751604037643241 0.6700997008670729
0.11067217517258938 0.6082925983773287 0.6920447184551978
0.11731467717235795 0.713297469691089 0.6230523441039061
0.21398549231768846 0.5760247568065339 0.5809285891781222
0.1785397647813708 0.6751604037643241 0.6700997008670729
0.3106721751725894 0.6082925983773287 0.6920447184551978
0.31731467717235795 0.713297469691089 0.6230523441039061
0.4139854923176885 0.5760247568065339 0.5809285891781222
0.3785397647813708 0.6751604037643241 0.6700997008670729
0.5106721751725894 0.6082925983773287 0.6920447184551978
0.5173146771723579 0.713297469691089 0.6230523441039061
0.6139854923176885 0.5760247568065339 0.5809285891781222
0.5785397647813707 0.6751604037643241 0.6700997008670729
0.7106721751725895 0.6082925983773287 0.6920447184551978
0.717314677172358 0.713297469691089 0.6230523441039061
0.8139854923176885 0.5760247568065339 0.5809285891781222
0.7785397647813708 0.6751604037643241 0.6700997008670729
0.9106721751725895 0.6082925983773287 0.6920447184551978
0.917314677172358 0.713297469691089 0.6230523441039061
0.013985492317688445 0.7760247568065339 0.5809285891781222
-0.02146023521862924 0.875160403764324 0.6700997008670729
0.11067217517258938 0.8082925983773288 0.6920447184551978
0.11731467717235795 0.9132974696910889 0.6230523441039061
0.21398549231768846 0.7760247568065339 0.5809285891781222
0.1785397647813708 0.875160403764324 0.6700997008670729
0.3106721751725894 0.8082925983773288 0.6920447184551978
0.31731467717235795 0.9132974696910889 0.6230523441039061
0.4139854923176885 0.7760247568065339 0.5809285891781222
0.3785397647813708 0.875160403764324 0.6700997008670729
0.5106721751725894 0.8082925983773288 0.6920447184551978
0.5173146771723579 0.9132974696910889 0.6230523441039061
0.6139854923176885 0.7760247568065339 0.5809285891781222
0.5785397647813707 0.875160403764324 0.6700997008670729
0.7106721751725895 0.8082925983773288 0.6920447184551978
0.717314677172358 0.9132974696910889 0.6230523441039061
0.8139854923176885 0.7760247568065339 0.5809285891781222
0.7785397647813708 0.875160403764324 0.6700997008670729
0.9106721751725895 0.8082925983773288 0.6920447184551978
0.917314677172358 0.9132974696910889 0.6230523441039061
0.013985492317688445 -0.023975243193466184 0.7809285891781221
-0.02146023521862924 0.07516040376432401 0.870099700867073
0.11067217517258938 0.00829259837732876 0.8920447184551978
0.11731467717235795 0.11329746969108889 0.8230523441039059
0.21398549231768846 -0.023975243193466184 0.7809285891781221
0.1785397647813708 0.07516040376432401 0.870099700867073
0.3106721751725894 0.00829259837732876 0.8920447184551978
0.31731467717235795 0.11329746969108889 0.8230523441039059
0.4139854923176885 -0.023975243193466184 0.7809285891781221
0.3785397647813708 0.07516040376432401 0.870099700867073
0.5106721751725894 0.00829259837732876 0.8920447184551978
0.5173146771723579 0.11329746969108889 0.8230523441039059
0.6139854923176885 -0.023975243193466184 0.7809285891781221
0.5785397647813707 0.07516040376432401 0.870099700867073
0.7106721751725895 0.00829259837732876 0.8920447184551978
0.717314677172358 0.11329746969108889 0.8230523441039059
0.8139854923176885 -0.023975243193466184 0.7809285891781221
0.7785397647813708 0.07516040376432401 0.870099700867073
0.9106721751725895 0.00829259837732876 0.8920447184551978
0.917314677172358 0.11329746969108889 0.8230523441039059
0.013985492317688445 0.17602475680653384 0.7809285891781221
-0.02146023521862924 0.275160403764324 0.870099700867073
0.11067217517258938 0.20829259837732877 0.8920447184551978
0.11731467717235795 0.3132974696910889 0.8230523441039059
0.21398549231768846 0.17602475680653384 0.7809285891781221
0.1785397647813708 0.275160403764324 0.870099700867073
0.3106721751725894 0.20829259837732877 0.8920447184551978
0.31731467717235795 0.3132974696910889 0.8230523441039059
0.4139854923176885 0.17602475680653384 0.7809285891781221
0.3785397647813708 0.275160403764324 0.870099700867073
0.5106721751725894 0.20829259837732877 0.8920447184551978
0.5173146771723579 0.3132974696910889 0.8230523441039059
0.6139854923176885 0.17602475680653384 0.7809285891781221
0.5785397647813707 0.275160403764324 0.870099700867073
0.7106721751725895 0.20829259837732877 0.8920447184551978
0.717314677172358 0.3132974696910889 0.8230523441039059
0.8139854923176885 0.17602475680653384 0.7809285891781221
0.7785397647813708 0.275160403764324 0.870099700867073
0.9106721751725895 0.20829259837732877 0.8920447184551978
0.917314677172358 0.3132974696910889 0.8230523441039059
0.013985492317688445 0.3760247568065338 0.7809285891781221
-0.02146023521862924 0.475160403764324 0.870099700867073
0.11067217517258938 0.40829259837732873 0.8920447184551978
0.11731467717235795 0.5132974696910889 0.8230523441039059
0.21398549231768846 0.3760247568065338 0.7809285891781221
0.1785397647813708 0.475160403764324 0.870099700867073
0.3106721751725894 0.40829259837732873 0.8920447184551978
0.31731467717235795 0.5132974696910889 0.8230523441039059
0.4139854923176885 0.3760247568065338 0.7809285891781221
0.3785397647813708 0.475160403764324 0.870099700867073
0.5106721751725894 0.40829259837732873 0.8920447184551978
0.5173146771723579 0.5132974696910889 0.8230523441039059
0.6139854923176885 0.3760247568065338 0.7809285891781221
0.5785397647813707 0.475160403764324 0.870099700867073
0.7106721751725895 0.40829259837732873 0.8920447184551978
0.717314677172358 0.5132974696910889 0.8230523441039059
0.8139854923176885 0.3760247568065338 0.7809285891781221
0.7785397647813708 0.475160403764324 0.870099700867073
0.9106721751725895 0.40829259837732873 0.8920447184551978
0.917314677172358 0.5132974696910889 0.8230523441039059
0.013985492317688445 0.5760247568065339 0.7809285891781221
-0.02146023521862924 0.6751604037643241 0.870099700867073
0.11067217517258938 0.6082925983773287 0.8920447184551978
0.11731467717235795 0.713297469691089 0.8230523441039059
0.21398549231768846 0.5760247568065339 0.7809285891781221
0.1785397647813708 0.6751604037643241 0.870099700867073
0.3106721751725894 0.6082925983773287 0.8920447184551978
0.31731467717235795 0.713297469691089 0.8230523441039059
0.4139854923176885 0.5760247568065339 0.7809285891781221
0.3785397647813708 0.6751604037643241 0.870099700867073
0.5106721751725894 0.6082925983773287 0.8920447184551978
0.5173146771723579 0.713297469691089 0.8230523441039059
0.6139854923176885 0.5760247568065339 0.7809285891781221
0.5785397647813707 0.6751604037643241 0.870099700867073
0.7106721751725895 0.6082925983773287 0.8920447184551978
0.717314677172358 0.713297469691089 0.8230523441039059
0.8139854923176885 0.5760247568065339 0.7809285891781221
0.7785397647813708 0.6751604037643241 0.870099700867073
0.9106721751725895 0.6082925983773287 0.8920447184551978
0.917314677172358 0.713297469691089 0.8230523441039059
0.013985492317688445 0.7760247568065339 0.7809285891781221
-0.02146023521862924 0.875160403764324 0.870099700867073
0.11067217517258938 0.8082925983773288 0.8920447184551978
0.11731467717235795 0.9132974696910889 0.8230523441039059
0.21398549231768846 0.7760247568065339 0.7809285891781221
0.1785397647813708 0.875160403764324 0.870099700867073
0.3106721751725894 0.8082925983773288 0.8920447184551978
0.31731467717235795 0.9132974696910889 0.8230523441039059
0.4139854923176885 0.7760247568065339 0.7809285891781221
0.3785397647813708 0.875160403764324 0.870099700867073
0.5106721751725894 0.8082925983773288 0.8920447184551978
0.5173146771723579 0.9132974696910889 0.8230523441039059
0.6139854923176885 0.7760247568065339 0.7809285891781221
0.5785397647813707 0.875160403764324 0.870099700867073
0.7106721751725895 0.8082925983773288 0.8920447184551978
0.717314677172358 0.9132974696910889 0.8230523441039059
0.8139854923176885 0.7760247568065339 0.7809285891781221
0.7785397647813708 0.875160403764324 0.870099700867073
0.9106721751725895 0.8082925983773288 0.8920447184551978
0.917314677172358 0.9132974696910889 0.8230523441039059
0.08634602558915128 0.022700413312146728 0.018036610134561943
-0.02652115623260512 0.09716630909631134 -0.02457823929289385
-0.01457977339392258 0.01308391090190827 0.07650912675056577
0.08276509158994767 0.1217881502685197 0.08097516318323708
0.2863460255891513 0.022700413312146728 0.018036610134561943
0.1734788437673949 0.09716630909631134 -0.02457823929289385
0.18542022660607743 0.01308391090190827 0.07650912675056577
0.28276509158994767 0.1217881502685197 0.08097516318323708
0.48634602558915124 0.022700413312146728 0.018036610134561943
0.3734788437673949 0.09716630909631134 -0.02457823929289385
0.38542022660607744 0.01308391090190827 0.07650912675056577
0.4827650915899477 0.1217881502685197 0.08097516318323708
0.6863460255891513 0.022700413312146728 0.018036610134561943
0.5734788437673949 0.09716630909631134 -0.02457823929289385
0.5854202266060774 0.01308391090190827 0.07650912675056577
0.6827650915899477 0.1217881502685197 0.08097516318323708
0.8863460255891513 0.022700413312146728 0.018036610134561943
0.773478843767395 0.09716630909631134 -0.02457823929289385
0.7854202266060775 0.01308391090190827 0.07650912675056577
0.8827650915899478 0.1217881502685197 0.08097516318323708
0.08634602558915128 0.22270041331214674 0.018036610134561943
-0.02652115623260512 0.29716630909631137 -0.02457823929289385
-0.01457977339392258 0.21308391090190826 0.07650912675056577
0.08276509158994767 0.3217881502685197 0.08097516318323708
0.2863460255891513 0.22270041331214674 0.018036610134561943
0.1734788437673949 0.29716630909631137 -0.02457823929289385
0.18542022660607743 0.21308391090190826 0.07650912675056577
0.28276509158994767 0.3217881502685197 0.08097516318323708
0.48634602558915124 0.22270041331214674 0.018036610134561943
0.3734788437673949 0.29716630909631137 -0.02457823929289385
0.38542022660607744 0.21308391090190826 0.07650912675056577
0.4827650915899477 0.3217881502685197 0.08097516318323708
0.6863460255891513 0.22270041331214674 0.018036610134561943
0.5734788437673949 0.29716630909631137 -0.02457823929289385
0.5854202266060774 0.21308391090190826 0.07650912675056577
0.6827650915899477 0.3217881502685197 0.08097516318323708
0.8863460255891513 0.22270041331214674 0.018036610134561943
0.773478843767395 0.29716630909631137 -0.02457823929289385
0.7854202266060775 0.21308391090190826 0.07650912675056577
0.8827650915899478 0.3217881502685197 0.08097516318323708
0.08634602558915128 0.4227004133121468 0.018036610134561943
-0.02652115623260512 0.4971663090963113 -0.02457823929289385
-0.01457977339392258 0.41308391090190827 0.07650912675056577
0.08276509158994767 0.5217881502685197 0.08097516318323708
0.2863460255891513 0.4227004133121468 0.018036610134561943
0.1734788437673949 0.4971663090963113 -0.02457823929289385
0.18542022660607743 0.41308391090190827 0.07650912675056577
0.28276509158994767 0.5217881502685197 0.08097516318323708
0.48634602558915124 0.4227004133121468 0.018036610134561943
0.3734788437673949 0.4971663090963113 -0.02457823929289385
0.38542022660607744 0.41308391090190827 0.07650912675056577
0.4827650915899477 0.5217881502685197 0.08097516318323708
0.6863460255891513 0.4227004133121468 0.018036610134561943
0.5734788437673949 0.4971663090963113 -0.02457823929289385
0.5854202266060774 0.41308391090190827 0.07650912675056577
0.6827650915899477 0.5217881502685197 0.08097516318323708
0.8863460255891513 0.4227004133121468 0.018036610134561943
0.773478843767395 0.4971663090963113 -0.02457823929289385
0.7854202266060775 0.41308391090190827 0.07650912675056577
0.8827650915899478 0.5217881502685197 0.08097516318323708
0.08634602558915128 0.6227004133121468 0.018036610134561943
-0.02652115623260512 0.6971663090963114 -0.02457823929289385
-0.01457977339392258 0.6130839109019083 0.07650912675056577
0.08276509158994767 0.7217881502685197 0.08097516318323708
0.2863460255891513 0.6227004133121468 0.018036610134561943
0.1734788437673949 0.6971663090963114 -0.02457823929289385
0.18542022660607743 0.6130839109019083 0.07650912675056577
0.28276509158994767 0.7217881502685197 0.08097516318323708
0.48634602558915124 0.6227004133121468 0.018036610134561943
0.3734788437673949 0.6971663090963114 -0.02457823929289385
0.38542022660607744 0.6130839109019083 0.07650912675056577
0.4827650915899477 0.7217881502685197 0.08097516318323708
0.6863460255891513 0.6227004133121468 0.018036610134561943
0.5734788437673949 0.6971663090963114 -0.02457823929289385
0.5854202266060774 0.6130839109019083 0.07650912675056577
0.6827650915899477 0.7217881502685197 0.08097516318323708
0.8863460255891513 0.6227004133121468 0.018036610134561943
0.773478843767395 0.6971663090963114 -0.02457823929289385
0.7854202266060775 0.6130839109019083 0.07650912675056577
0.8827650915899478 0.7217881502685197 0.08097516318323708
0.08634602558915128 0.8227004133121467 0.018036610134561943
-0.02652115623260512 0.8971663090963115 -0.02457823929289385
-0.01457977339392258 0.8130839109019083 0.07650912675056577
0.08276509158994767 0.9217881502685197 0.08097516318323708
0.2863460255891513 0.8227004133121467 0.018036610134561943
0.1734788437673949 0.8971663090963115 -0.02457823929289385
0.18542022660607743 0.8130839109019083 0.07650912675056577
0.28276509158994767 0.9217881502685197 0.08097516318323708
0.48634602558915124 0.8227004133121467 0.018036610134561943
0.3734788437673949 0.8971663090963115 -0.02457823929289385
0.38542022660607744 0.8130839109019083 0.07650912675056577
0.4827650915899477 0.9217881502685197 0.08097516318323708
0.6863460255891513 0.8227004133121467 0.018036610134561943
0.5734788437673949 0.8971663090963115 -0.02457823929289385
0.5854202266060774 0.8130839109019083 0.07650912675056577
0.6827650915899477 0.9217881502685197 0.08097516318323708
0.8863460255891513 0.8227004133121467 0.018036610134561943
0.773478843767395 0.8971663090963115 -0.02457823929289385
0.7854202266060775 0.8130839109019083 0.07650912675056577
0.8827650915899478 0.9217881502685197 0.08097516318323708
0.08634602558915128 0.022700413312146728 0.21803661013456194
-0.02652115623260512 0.09716630909631134 0.17542176070710616
-0.01457977339392258 0.01308391090190827 0.27650912675056577
0.08276509158994767 0.1217881502685197 0.28097516318323706
0.2863460255891513 0.022700413312146728 0.21803661013456194
0.1734788437673949 0.09716630909631134 0.17542176070710616
0.18542022660607743 0.01308391090190827 0.27650912675056577
0.28276509158994767 0.1217881502685197 0.28097516318323706
0.48634602558915124 0.022700413312146728 0.21803661013456194
0.3734788437673949 0.09716630909631134 0.17542176070710616
0.38542022660607744 0.01308391090190827 0.27650912675056577
0.4827650915899477 0.1217881502685197 0.28097516318323706
0.6863460255891513 0.022700413312146728 0.21803661013456194
0.5734788437673949 0.09716630909631134 0.17542176070710616
0.5854202266060774 0.01308391090190827 0.27650912675056577
0.6827650915899477 0.1217881502685197 0.28097516318323706
0.8863460255891513 0.022700413312146728 0.21803661013456194
0.773478843767395 0.09716630909631134 0.17542176070710616
0.7854202266060775 0.01308391090190827 0.27650912675056577
0.8827650915899478 0.1217881502685197 0.28097516318323706
0.08634602558915128 0.22270041331214674 0.21803661013456194
-0.02652115623260512 0.29716630909631137 0.17542176070710616
-0.01457977339392258 0.21308391090190826 0.27650912675056577
0.08276509158994767 0.3217881502685197 0.28097516318323706
0.2863460255891513 0.22270041331214674 0.21803661013456194
0.1734788437673949 0.29716630909631137 0.17542176070710616
0.18542022660607743 0.21308391090190826 0.27650912675056577
0.28276509158994767 0.3217881502685197 0.28097516318323706
0.48634602558915124 0.22270041331214674 0.21803661013456194
0.3734788437673949 0.29716630909631137 0.17542176070710616
0.38542022660607744 0.21308391090190826 0.27650912675056577
0.4827650915899477 0.3217881502685197 0.28097516318323706
0.6863460255891513 0.22270041331214674 0.21803661013456194
0.5734788437673949 0.29716630909631137 0.17542176070710616
0.5854202266060774 0.21308391090190826 0.27650912675056577
0.6827650915899477 0.3217881502685197 0.28097516318323706
0.8863460255891513 0.22270041331214674 0.21803661013456194
0.773478843767395 0.29716630909631137 0.17542176070710616
0.7854202266060775 0.21308391090190826 0.27650912675056577
0.8827650915899478 0.3217881502685197 0.28097516318323706
0.08634602558915128 0.4227004133121468 0.21803661013456194
-0.02652115623260512 0.4971663090963113 0.17542176070710616
-0.01457977339392258 0.41308391090190827 0.27650912675056577
0.08276509158994767 0.5217881502685197 0.28097516318323706
0.2863460255891513 0.4227004133121468 0.21803661013456194
0.1734788437673949 0.4971663090963113 0.17542176070710616
0.18542022660607743 0.41308391090190827 0.27650912675056577
0.28276509158994767 0.5217881502685197 0.28097516318323706
0.48634602558915124 0.4227004133121468 0.21803661013456194
0.3734788437673949 0.4971663090963113 0.17542176070710616
0.38542022660607744 0.41308391090190827 0.27650912675056577
0.4827650915899477 0.5217881502685197 0.28097516318323706
0.6863460255891513 0.4227004133121468 0.21803661013456194
0.5734788437673949 0.4971663090963113 0.17542176070710616
0.5854202266060774 0.41308391090190827 0.27650912675056577
0.6827650915899477 0.5217881502685197 0.28097516318323706
0.8863460255891513 0.4227004133121468 0.21803661013456194
0.773478843767395 0.4971663090963113 0.17542176070710616
0.7854202266060775 0.41308391090190827 0.27650912675056577
0.8827650915899478 0.5217881502685197 0.28097516318323706
0.08634602558915128 0.6227004133121468 0.21803661013456194
-0.02652115623260512 0.6971663090963114 0.17542176070710616
-0.01457977339392258 0.6130839109019083 0.27650912675056577
0.08276509158994767 0.7217881502685197 0.28097516318323706
0.2863460255891513 0.6227004133121468 0.21803661013456194
0.1734788437673949 0.6971663090963114 0.17542176070710616
0.18542022660607743 0.6130839109019083 0.27650912675056577
0.28276509158994767 0.7217881502685197 0.28097516318323706
0.48634602558915124 0.6227004133121468 0.21803661013456194
0.3734788437673949 0.6971663090963114 0.17542176070710616
0.38542022660607744 0.6130839109019083 0.27650912675056577
0.4827650915899477 0.7217881502685197 0.28097516318323706
0.6863460255891513 0.6227004133121468 0.21803661013456194
0.5734788437673949 0.6971663090963114 0.17542176070710616
0.5854202266060774 0.6130839109019083 0.27650912675056577
0.6827650915899477 0.7217881502685197 0.28097516318323706
0.8863460255891513 0.6227004133121468 0.21803661013456194
0.773478843767395 0.6971663090963114 0.17542176070710616
0.7854202266060775 0.6130839109019083 0.27650912675056577
0.8827650915899478 0.7217881502685197 0.28097516318323706
0.08634602558915128 0.8227004133121467 0.21803661013456194
-0.02652115623260512 0.8971663090963115 0.17542176070710616
-0.01457977339392258 0.8130839109019083 0.27650912675056577
0.08276509158994767 0.9217881502685197 0.28097516318323706
0.2863460255891513 0.8227004133121467 0.21803661013456194
0.1734788437673949 0.8971663090963115 0.17542176070710616
0.18542022660607743 0.8130839109019083 0.27650912675056577
0.28276509158994767 0.9217881502685197 0.28097516318323706
0.48634602558915124 0.8227004133121467 0.21803661013456194
0.3734788437673949 0.8971663090963115 0.17542176070710616
0.38542022660607744 0.8130839109019083 0.27650912675056577
0.4827650915899477 0.9217881502685197 0.28097516318323706
0.6863460255891513 0.8227004133121467 0.21803661013456194
0.5734788437673949 0.8971663090963115 0.17542176070710616
0.5854202266060774 0.8130839109019083 0.27650912675056577
0.6827650915899477 0.9217881502685197 0.28097516318323706
0.8863460255891513 0.8227004133121467 0.21803661013456194
0.773478843767395 0.8971663090963115 0.17542176070710616
0.7854202266060775 0.8130839109019083 0.27650912675056577
0.8827650915899478 0.9217881502685197 0.28097516318323706
0.08634602558915128 0.022700413312146728 0.41803661013456195
-0.02652115623260512 0.09716630909631134 0.3754217607071062
-0.01457977339392258 0.01308391090190827 0.4765091267505658
0.08276509158994767 0.1217881502685197 0.4809751631832371
0.2863460255891513 0.022700413312146728 0.41803661013456195
0.1734788437673949 0.09716630909631134 0.3754217607071062
0.18542022660607743 0.01308391090190827 0.4765091267505658
0.28276509158994767 0.1217881502685197 0.4809751631832371
0.48634602558915124 0.022700413312146728 0.41803661013456195
0.3734788437673949 0.09716630909631134 0.3754217607071062
0.38542022660607744 0.01308391090190827 0.4765091267505658
0.4827650915899477 0.1217881502685197 0.4809751631832371
0.6863460255891513 0.022700413312146728 0.41803661013456195
0.5734788437673949 0.09716630909631134 0.3754217607071062
0.5854202266060774 0.01308391090190827 0.4765091267505658
0.6827650915899477 0.1217881502685197 0.4809751631832371
0.8863460255891513 0.022700413312146728 0.41803661013456195
0.773478843767395 0.09716630909631134 0.3754217607071062
0.7854202266060775 0.01308391090190827 0.4765091267505658
0.8827650915899478 0.1217881502685197 0.4809751631832371
0.08634602558915128 0.22270041331214674 0.41803661013456195
-0.02652115623260512 0.29716630909631137 0.3754217607071062
-0.01457977339392258 0.21308391090190826 0.4765091267505658
0.08276509158994767 0.3217881502685197 0.4809751631832371
0.2863460255891513 0.22270041331214674 0.41803661013456195
0.1734788437673949 0.29716630909631137 0.3754217607071062
0.18542022660607743 0.21308391090190826 0.4765091267505658
0.28276509158994767 0.3217881502685197 0.4809751631832371
0.48634602558915124 0.22270041331214674 0.41803661013456195
0.3734788437673949 0.29716630909631137 0.3754217607071062
0.38542022660607744 0.21308391090190826 0.4765091267505658
0.4827650915899477 0.3217881502685197 0.4809751631832371
0.6863460255891513 0.22270041331214674 0.41803661013456195
0.5734788437673949 0.29716630909631137 0.3754217607071062
0.5854202266060774 0.21308391090190826 0.4765091267505658
0.6827650915899477 0.3217881502685197 0.4809751631832371
0.8863460255891513 0.22270041331214674 0.41803661013456195
0.773478843767395 0.29716630909631137 0.3754217607071062
0.7854202266060775 0.21308391090190826 0.4765091267505658
0.8827650915899478 0.3217881502685197 0.4809751631832371
0.08634602558915128 0.4227004133121468 0.41803661013456195
-0.02652115623260512 0.4971663090963113 0.3754217607071062
-0.01457977339392258 0.41308391090190827 0.4765091267505658
0.08276509158994767 0.5217881502685197 0.4809751631832371
0.2863460255891513 0.4227004133121468 0.41803661013456195
0.1734788437673949 0.4971663090963113 0.3754217607071062
0.18542022660607743 0.41308391090190827 0.4765091267505658
0.28276509158994767 0.5217881502685197 0.4809751631832371
0.48634602558915124 0.4227004133121468 0.41803661013456195
0.3734788437673949 0.4971663090963113 0.3754217607071062
0.38542022660607744 0.41308391090190827 0.4765091267505658
0.4827650915899477 0.5217881502685197 0.4809751631832371
0.6863460255891513 0.4227004133121468 0.41803661013456195
0.5734788437673949 0.4971663090963113 0.3754217607071062
0.5854202266060774 0.41308391090190827 0.4765091267505658
0.6827650915899477 0.5217881502685197 0.4809751631832371
0.8863460255891513 0.4227004133121468 0.41803661013456195
0.773478843767395 0.4971663090963113 0.3754217607071062
0.7854202266060775 0.41308391090190827 0.4765091267505658
0.8827650915899478 0.5217881502685197 0.4809751631832371
0.08634602558915128 0.6227004133121468 0.41803661013456195
-0.02652115623260512 0.6971663090963114 0.3754217607071062
-0.01457977339392258 0.6130839109019083 0.4765091267505658
0.08276509158994767 0.7217881502685197 0.4809751631832371
0.2863460255891513 0.6227004133121468 0.41803661013456195
0.1734788437673949 0.6971663090963114 0.3754217607071062
0.18542022660607743 0.6130839109019083 0.4765091267505658
0.28276509158994767 0.7217881502685197 0.4809751631832371
0.48634602558915124 0.6227004133121468 0.41803661013456195
0.3734788437673949 0.6971663090963114 0.3754217607071062
0.38542022660607744 0.6130839109019083 0.4765091267505658
0.4827650915899477 0.7217881502685197 0.4809751631832371
0.6863460255891513 0.6227004133121468 0.41803661013456195
0.5734788437673949 0.6971663090963114 0.3754217607071062
0.5854202266060774 0.6130839109019083 0.4765091267505658
0.6827650915899477 0.7217881502685197 0.4809751631832371
0.8863460255891513 0.6227004133121468 0.41803661013456195
0.773478843767395 0.6971663090963114 0.3754217607071062
0.7854202266060775 0.6130839109019083 0.4765091267505658
0.8827650915899478 0.7217881502685197 0.4809751631832371
0.08634602558915128 0.8227004133121467 0.41803661013456195
-0.02652115623260512 0.8971663090963115 0.3754217607071062
-0.01457977339392258 0.8130839109019083 0.4765091267505658
0.08276509158994767 0.9217881502685197 0.4809751631832371
0.2863460255891513 0.8227004133121467 0.41803661013456195
0.1734788437673949 0.8971663090963115 0.3754217607071062
0.18542022660607743 0.8130839109019083 0.4765091267505658
0.28276509158994767 0.9217881502685197 0.4809751631832371
0.48634602558915124 0.8227004133121467 0.41803661013456195
0.3734788437673949 0.8971663090963115 0.3754217607071062
0.38542022660607744 0.8130839109019083 0.4765091267505658
0.4827650915899477 0.9217881502685197 0.4809751631832371
0.6863460255891513 0.8227004133121467 0.41803661013456195
0.5734788437673949 0.8971663090963115 0.3754217607071062
0.5854202266060774 0.8130839109019083 0.4765091267505658
0.6827650915899477 0.9217881502685197 0.4809751631832371
0.8863460255891513 0.8227004133121467 0.41803661013456195
0.773478843767395 0.8971663090963115 0.3754217607071062
0.7854202266060775 0.8130839109019083 0.4765091267505658
0.8827650915899478 0.9217881502685197 0.4809751631832371
0.08634602558915128 0.022700413312146728 0.618036610134562
-0.02652115623260512 0.09716630909631134 0.5754217607071062
-0.01457977339392258 0.01308391090190827 0.6765091267505658
0.08276509158994767 0.1217881502685197 0.6809751631832371
0.2863460255891513 0.022700413312146728 0.618036610134562
0.1734788437673949 0.09716630909631134 0.5754217607071062
0.18542022660607743 0.01308391090190827 0.6765091267505658
0.28276509158994767 0.1217881502685197 0.6809751631832371
0.48634602558915124 0.022700413312146728 0.618036610134562
0.3734788437673949 0.09716630909631134 0.5754217607071062
0.38542022660607744 0.01308391090190827 0.6765091267505658
0.4827650915899477 0.1217881502685197 0.6809751631832371
0.6863460255891513 0.022700413312146728 0.618036610134562
0.5734788437673949 0.09716630909631134 0.5754217607071062
0.5854202266060774 0.01308391090190827 0.6765091267505658
0.6827650915899477 0.1217881502685197 0.6809751631832371
0.8863460255891513 0.022700413312146728 0.618036610134562
0.773478843767395 0.09716630909631134 0.5754217607071062
0.7854202266060775 0.01308391090190827 0.6765091267505658
0.8827650915899478 0.1217881502685197 0.6809751631832371
0.08634602558915128 0.22270041331214674 0.618036610134562
-0.02652115623260512 0.29716630909631137 0.5754217607071062
-0.01457977339392258 0.21308391090190826 0.6765091267505658
0.08276509158994767 0.3217881502685197 0.6809751631832371
0.2863460255891513 0.22270041331214674 0.618036610134562
0.1734788437673949 0.29716630909631137 0.5754217607071062
0.18542022660607743 0.21308391090190826 0.6765091267505658
0.28276509158994767 0.3217881502685197 0.6809751631832371
0.48634602558915124 0.22270041331214674 0.618036610134562
0.3734788437673949 0.29716630909631137 0.5754217607071062
0.38542022660607744 0.21308391090190826 0.6765091267505658
0.4827650915899477 0.3217881502685197 0.6809751631832371
0.6863460255891513 0.22270041331214674 0.618036610134562
0.5734788437673949 0.29716630909631137 0.5754217607071062
0.5854202266060774 0.21308391090190826 0.6765091267505658
0.6827650915899477 0.3217881502685197 0.6809751631832371
0.8863460255891513 0.22270041331214674 0.618036610134562
0.773478843767395 0.29716630909631137 0.5754217607071062
0.7854202266060775 0.21308391090190826 0.6765091267505658
0.8827650915899478 0.3217881502685197 0.6809751631832371
0.08634602558915128 0.4227004133121468 0.618036610134562
-0.02652115623260512 0.4971663090963113 0.5754217607071062
-0.01457977339392258 0.41308391090190827 0.6765091267505658
0.08276509158994767 0.5217881502685197 0.6809751631832371
0.2863460255891513 0.4227004133121468 0.618036610134562
0.1734788437673949 0.4971663090963113 0.5754217607071062
0.18542022660607743 0.41308391090190827 0.6765091267505658
0.28276509158994767 0.5217881502685197 0.6809751631832371
0.48634602558915124 0.4227004133121468 0.618036610134562
0.3734788437673949 0.4971663090963113 0.5754217607071062
0.38542022660607744 0.41308391090190827 0.6765091267505658
0.4827650915899477 0.5217881502685197 0.6809751631832371
0.6863460255891513 0.4227004133121468 0.618036610134562
0.5734788437673949 0.4971663090963113 0.5754217607071062
0.5854202266060774 0.41308391090190827 0.6765091267505658
0.6827650915899477 0.5217881502685197 0.6809751631832371
0.8863460255891513 0.4227004133121468 0.618036610134562
0.773478843767395 0.4971663090963113 0.5754217607071062
0.7854202266060775 0.41308391090190827 0.6765091267505658
0.8827650915899478 0.5217881502685197 0.6809751631832371
0.08634602558915128 0.6227004133121468 0.618036610134562
-0.02652115623260512 0.6971663090963114 0.5754217607071062
-0.01457977339392258 0.6130839109019083 0.6765091267505658
0.08276509158994767 0.7217881502685197 0.6809751631832371
0.2863460255891513 0.6227004133121468 0.618036610134562
0.1734788437673949 0.6971663090963114 0.5754217607071062
0.18542022660607743 0.6130839109019083 0.6765091267505658
0.28276509158994767 0.7217881502685197 0.6809751631832371
0.48634602558915124 0.6227004133121468 0.618036610134562
0.3734788437673949 0.6971663090963114 0.5754217607071062
0.38542022660607744 0.6130839109019083 0.6765091267505658
0.4827650915899477 0.7217881502685197 0.6809751631832371
0.6863460255891513 0.6227004133121468 0.618036610134562
0.5734788437673949 0.6971663090963114 0.5754217607071062
0.5854202266060774 0.6130839109019083 0.6765091267505658
0.6827650915899477 0.7217881502685197 0.6809751631832371
0.8863460255891513 0.6227004133121468 0.618036610134562
0.773478843767395 0.6971663090963114 0.5754217607071062
0.7854202266060775 0.6130839109019083 0.6765091267505658
0.8827650915899478 0.7217881502685197 0.6809751631832371
0.08634602558915128 0.8227004133121467 0.618036610134562
-0.02652115623260512 0.8971663090963115 0.5754217607071062
-0.01457977339392258 0.8130839109019083 0.6765091267505658
0.08276509158994767 0.9217881502685197 0.6809751631832371
0.2863460255891513 0.8227004133121467 0.618036610134562
0.1734788437673949 0.8971663090963115 0.5754217607071062
0.18542022660607743 0.8130839109019083 0.6765091267505658
0.28276509158994767 0.9217881502685197 0.6809751631832371
0.48634602558915124 0.8227004133121467 0.618036610134562
0.3734788437673949 0.8971663090963115 0.5754217607071062
0.38542022660607744 0.8130839109019083 0.6765091267505658
0.4827650915899477 0.9217881502685197 0.6809751631832371
0.6863460255891513 0.8227004133121467 0.618036610134562
0.5734788437673949 0.8971663090963115 0.5754217607071062
0.5854202266060774 0.8130839109019083 0.6765091267505658
0.6827650915899477 0.9217881502685197 0.6809751631832371
0.8863460255891513 0.8227004133121467 0.618036610134562
0.773478843767395 0.8971663090963115 0.5754217607071062
0.7854202266060775 0.8130839109019083 0.6765091267505658
0.8827650915899478 0.9217881502685197 0.6809751631832371
0.08634602558915128 0.022700413312146728 0.818036610134562
-0.02652115623260512 0.09716630909631134 0.7754217607071062
-0.01457977339392258 0.01308391090190827 0.8765091267505659
0.08276509158994767 0.1217881502685197 0.880975163183237
0.2863460255891513 0.022700413312146728 0.818036610134562
0.1734788437673949 0.09716630909631134 0.7754217607071062
0.18542022660607743 0.01308391090190827 0.8765091267505659
0.28276509158994767 0.1217881502685197 0.880975163183237
0.48634602558915124 0.022700413312146728 0.818036610134562
0.3734788437673949 0.09716630909631134 0.7754217607071062
0.38542022660607744 0.01308391090190827 0.8765091267505659
0.4827650915899477 0.1217881502685197 0.880975163183237
0.6863460255891513 0.022700413312146728 0.818036610134562
0.5734788437673949 0.09716630909631134 0.7754217607071062
0.5854202266060774 0.01308391090190827 0.8765091267505659
0.6827650915899477 0.1217881502685197 0.880975163183237
0.8863460255891513 0.022700413312146728 0.818036610134562
0.773478843767395 0.09716630909631134 0.7754217607071062
0.7854202266060775 0.01308391090190827 0.8765091267505659
0.8827650915899478 0.1217881502685197 0.880975163183237
0.08634602558915128 0.22270041331214674 0.818036610134562
-0.02652115623260512 0.29716630909631137 0.7754217607071062
-0.01457977339392258 0.21308391090190826 0.8765091267505659
0.08276509158994767 0.3217881502685197 0.880975163183237
0.2863460255891513 0.22270041331214674 0.818036610134562
0.1734788437673949 0.29716630909631137 0.7754217607071062
0.18542022660607743 0.21308391090190826 0.8765091267505659
0.28276509158994767 0.3217881502685197 0.880975163183237
0.48634602558915124 0.22270041331214674 0.818036610134562
0.3734788437673949 0.29716630909631137 0.7754217607071062
0.38542022660607744 0.21308391090190826 0.8765091267505659
0.4827650915899477 0.3217881502685197 0.880975163183237
0.6863460255891513 0.22270041331214674 0.818036610134562
0.5734788437673949 0.29716630909631137 0.7754217607071062
0.5854202266060774 0.21308391090190826 0.8765091267505659
0.6827650915899477 0.3217881502685197 0.880975163183237
0.8863460255891513 0.22270041331214674 0.818036610134562
0.773478843767395 0.29716630909631137 0.7754217607071062
0.7854202266060775 0.21308391090190826 0.8765091267505659
0.8827650915899478 0.3217881502685197 0.880975163183237
0.08634602558915128 0.4227004133121468 0.818036610134562
-0.02652115623260512 0.4971663090963113 0.7754217607071062
-0.01457977339392258 0.41308391090190827 0.8765091267505659
0.08276509158994767 0.5217881502685197 0.880975163183237
0.2863460255891513 0.4227004133121468 0.818036610134562
0.1734788437673949 0.4971663090963113 0.7754217607071062
0.18542022660607743 0.41308391090190827 0.8765091267505659
0.28276509158994767 0.5217881502685197 0.880975163183237
0.48634602558915124 0.4227004133121468 0.818036610134562
0.3734788437673949 0.4971663090963113 0.7754217607071062
0.38542022660607744 0.41308391090190827 0.8765091267505659
0.4827650915899477 0.5217881502685197 0.880975163183237
0.6863460255891513 0.4227004133121468 0.818036610134562
0.5734788437673949 0.4971663090963113 0.7754217607071062
0.5854202266060774 0.41308391090190827 0.8765091267505659
0.6827650915899477 0.5217881502685197 0.880975163183237
0.8863460255891513 0.4227004133121468 0.818036610134562
0.773478843767395 0.4971663090963113 0.7754217607071062
0.7854202266060775 0.41308391090190827 0.8765091267505659
0.8827650915899478 0.5217881502685197 0.880975163183237
0.08634602558915128 0.6227004133121468 0.818036610134562
-0.02652115623260512 0.6971663090963114 0.7754217607071062
-0.01457977339392258 0.6130839109019083 0.8765091267505659
0.08276509158994767 0.7217881502685197 0.880975163183237
0.2863460255891513 0.6227004133121468 0.818036610134562
0.1734788437673949 0.6971663090963114 0.7754217607071062
0.18542022660607743 0.6130839109019083 0.8765091267505659
0.28276509158994767 0.7217881502685197 0.880975163183237
0.48634602558915124 0.6227004133121468 0.818036610134562
0.3734788437673949 0.6971663090963114 0.7754217607071062
0.38542022660607744 0.6130839109019083 0.8765091267505659
0.4827650915899477 0.7217881502685197 0.880975163183237
0.6863460255891513 0.6227004133121468 0.818036610134562
0.5734788437673949 0.6971663090963114 0.7754217607071062
0.5854202266060774 0.6130839109019083 0.8765091267505659
0.6827650915899477 0.7217881502685197 0.880975163183237
0.8863460255891513 0.6227004133121468 0.818036610134562
0.773478843767395 0.6971663090963114 0.7754217607071062
0.7854202266060775 0.6130839109019083 0.8765091267505659
0.8827650915899478 0.7217881502685197 0.880975163183237
0.08634602558915128 0.8227004133121467 0.818036610134562
-0.02652115623260512 0.8971663090963115 0.7754217607071062
-0.01457977339392258 0.8130839109019083 0.8765091267505659
0.08276509158994767 0.9217881502685197 0.880975163183237
0.2863460255891513 0.8227004133121467 0.818036610134562
0.1734788437673949 0.8971663090963115 0.7754217607071062
0.18542022660607743 0.8130839109019083 0.8765091267505659
0.28276509158994767 0.9217881502685197 0.880975163183237
0.48634602558915124 0.8227004133121467 0.818036610134562
0.3734788437673949 0.8971663090963115 0.7754217607071062
0.38542022660607744 0.8130839109019083 0.8765091267505659
0.4827650915899477 0.9217881502685197 0.880975163183237
0.6863460255891513 0.8227004133121467 0.818036610134562
0.5734788437673949 0.8971663090963115 0.7754217607071062
0.5854202266060774 0.8130839109019083 0.8765091267505659
0.6827650915899477 0.9217881502685197 0.880975163183237
0.8863460255891513 0.8227004133121467 0.818036610134562
0.773478843767395 0.8971663090963115 0.7754217607071062
0.7854202266060775 0.8130839109019083 0.8765091267505659
0.8827650915899478 0.9217881502685197 0.880975163183237
