FCC BaO
5.61604
3.0 0.0 0.0
0.0 3.0 0.0
0.0 0.0 3.0
Ba O 
108 108 
Direct
-0.26569859333911267 -0.017126255135714197 0.08166776991777647
0.019291456707378973 0.3248645182954476 0.2899549738965751
-0.0030082398197611633 0.08486311089299864 0.2618236717007295
0.338507905916619 0.3399349799517062 -0.21529132971817078
0.06763473999422065 -0.017126255135714197 0.08166776991777647
0.3526247900407123 0.3248645182954476 0.2899549738965751
0.33032509351357214 0.08486311089299864 0.2618236717007295
0.6718412392499522 0.3399349799517062 -0.21529132971817078
0.400968073327554 -0.017126255135714197 0.08166776991777647
0.6859581233740456 0.3248645182954476 0.2899549738965751
0.6636584268469055 0.08486311089299864 0.2618236717007295
1.0051745725832855 0.3399349799517062 -0.21529132971817078
-0.26569859333911267 0.3162070781976191 0.08166776991777647
0.019291456707378973 0.658197851628781 0.2899549738965751
-0.0030082398197611633 0.41819644422633195 0.2618236717007295
0.338507905916619 0.6732683132850396 -0.21529132971817078
0.06763473999422065 0.3162070781976191 0.08166776991777647
0.3526247900407123 0.658197851628781 0.2899549738965751
0.33032509351357214 0.41819644422633195 0.2618236717007295
0.6718412392499522 0.6732683132850396 -0.21529132971817078
0.400968073327554 0.3162070781976191 0.08166776991777647
0.6859581233740456 0.658197851628781 0.2899549738965751
0.6636584268469055 0.41819644422633195 0.2618236717007295
1.0051745725832855 0.6732683132850396 -0.21529132971817078
-0.26569859333911267 0.6495404115309524 0.08166776991777647
0.019291456707378973 0.9915311849621142 0.2899549738965751
-0.0030082398197611633 0.7515297775596653 0.2618236717007295
0.338507905916619 1.006601646618373 -0.21529132971817078
0.06763473999422065 0.6495404115309524 0.08166776991777647
0.3526247900407123 0.9915311849621142 0.2899549738965751
0.33032509351357214 0.7515297775596653 0.2618236717007295
0.6718412392499522 1.006601646618373 -0.21529132971817078
0.400968073327554 0.6495404115309524 0.08166776991777647
0.6859581233740456 0.9915311849621142 0.2899549738965751
0.6636584268469055 0.7515297775596653 0.2618236717007295
1.0051745725832855 1.006601646618373 -0.21529132971817078
-0.26569859333911267 -0.017126255135714197 0.41500110325110984
0.019291456707378973 0.3248645182954476 0.6232883072299084
-0.0030082398197611633 0.08486311089299864 0.5951570050340629
0.338507905916619 0.3399349799517062 0.11804200361516255
0.06763473999422065 -0.017126255135714197 0.41500110325110984
0.3526247900407123 0.3248645182954476 0.6232883072299084
0.33032509351357214 0.08486311089299864 0.5951570050340629
0.6718412392499522 0.3399349799517062 0.11804200361516255
0.400968073327554 -0.017126255135714197 0.41500110325110984
0.6859581233740456 0.3248645182954476 0.6232883072299084
0.6636584268469055 0.08486311089299864 0.5951570050340629
1.0051745725832855 0.3399349799517062 0.11804200361516255
-0.26569859333911267 0.3162070781976191 0.41500110325110984
0.019291456707378973 0.658197851628781 0.6232883072299084
-0.0030082398197611633 0.41819644422633195 0.5951570050340629
0.338507905916619 0.6732683132850396 0.11804200361516255
0.06763473999422065 0.3162070781976191 0.41500110325110984
0.3526247900407123 0.658197851628781 0.6232883072299084
0.33032509351357214 0.41819644422633195 0.5951570050340629
0.6718412392499522 0.6732683132850396 0.11804200361516255
0.400968073327554 0.3162070781976191 0.41500110325110984
0.6859581233740456 0.658197851628781 0.6232883072299084
0.6636584268469055 0.41819644422633195 0.5951570050340629
1.0051745725832855 0.6732683132850396 0.11804200361516255
-0.26569859333911267 0.6495404115309524 0.41500110325110984
0.019291456707378973 0.9915311849621142 0.6232883072299084
-0.0030082398197611633 0.7515297775596653 0.5951570050340629
0.338507905916619 1.006601646618373 0.11804200361516255
0.06763473999422065 0.6495404115309524 0.41500110325110984
0.3526247900407123 0.9915311849621142 0.6232883072299084
0.33032509351357214 0.7515297775596653 0.5951570050340629
0.6718412392499522 1.006601646618373 0.11804200361516255
0.400968073327554 0.6495404115309524 0.41500110325110984
0.6859581233740456 0.9915311849621142 0.6232883072299084
0.6636584268469055 0.7515297775596653 0.5951570050340629
1.0051745725832855 1.006601646618373 0.11804200361516255
-0.26569859333911267 -0.017126255135714197 0.7483344365844431
0.019291456707378973 0.3248645182954476 0.9566216405632417
-0.0030082398197611633 0.08486311089299864 0.9284903383673961
0.338507905916619 0.3399349799517062 0.45137533694849585
0.06763473999422065 -0.017126255135714197 0.7483344365844431
0.3526247900407123 0.3248645182954476 0.9566216405632417
0.33032509351357214 0.08486311089299864 0.9284903383673961
0.6718412392499522 0.3399349799517062 0.45137533694849585
0.400968073327554 -0.017126255135714197 0.7483344365844431
0.6859581233740456 0.3248645182954476 0.9566216405632417
0.6636584268469055 0.08486311089299864 0.9284903383673961
1.0051745725832855 0.3399349799517062 0.45137533694849585
-0.26569859333911267 0.3162070781976191 0.7483344365844431
0.019291456707378973 0.658197851628781 0.9566216405632417
-0.0030082398197611633 0.41819644422633195 0.9284903383673961
0.338507905916619 0.6732683132850396 0.45137533694849585
0.06763473999422065 0.3162070781976191 0.7483344365844431
0.3526247900407123 0.658197851628781 0.9566216405632417
0.33032509351357214 0.41819644422633195 0.9284903383673961
0.6718412392499522 0.6732683132850396 0.45137533694849585
0.400968073327554 0.3162070781976191 0.7483344365844431
0.6859581233740456 0.658197851628781 0.9566216405632417
0.6636584268469055 0.41819644422633195 0.9284903383673961
1.0051745725832855 0.6732683132850396 0.45137533694849585
-0.26569859333911267 0.6495404115309524 0.7483344365844431
0.019291456707378973 0.9915311849621142 0.9566216405632417
-0.0030082398197611633 0.7515297775596653 0.9284903383673961
0.338507905916619 1.006601646618373 0.45137533694849585
0.06763473999422065 0.6495404115309524 0.7483344365844431
0.3526247900407123 0.9915311849621142 0.9566216405632417
0.33032509351357214 0.7515297775596653 0.9284903383673961
0.6718412392499522 1.006601646618373 0.45137533694849585
0.400968073327554 0.6495404115309524 0.7483344365844431
0.6859581233740456 0.9915311849621142 0.9566216405632417
0.6636584268469055 0.7515297775596653 0.9284903383673961
1.0051745725832855 1.006601646618373 0.45137533694849585
0.21387530489994222 0.09320641680009206 0.025123168580012473
0.06387874177202375 0.09238801477899408 -0.14580080534406786
-0.16265326621517806 0.17694934855196381 0.3619132836290355
0.10771275477845696 0.09090905111722541 0.07891122913595397
0.5472086382332755 0.09320641680009206 0.025123168580012473
0.39721207510535705 0.09238801477899408 -0.14580080534406786
0.17068006711815525 0.17694934855196381 0.3619132836290355
0.44104608811179025 0.09090905111722541 0.07891122913595397
0.8805419715666087 0.09320641680009206 0.025123168580012473
0.7305454084386904 0.09238801477899408 -0.14580080534406786
0.5040134004514886 0.17694934855196381 0.3619132836290355
0.7743794214451236 0.09090905111722541 0.07891122913595397
0.21387530489994222 0.4265397501334254 0.025123168580012473
0.06387874177202375 0.4257213481123274 -0.14580080534406786
-0.16265326621517806 0.5102826818852971 0.3619132836290355
0.10771275477845696 0.42424238445055873 0.07891122913595397
0.5472086382332755 0.4265397501334254 0.025123168580012473
0.39721207510535705 0.4257213481123274 -0.14580080534406786
0.17068006711815525 0.5102826818852971 0.3619132836290355
0.44104608811179025 0.42424238445055873 0.07891122913595397
0.8805419715666087 0.4265397501334254 0.025123168580012473
0.7305454084386904 0.4257213481123274 -0.14580080534406786
0.5040134004514886 0.5102826818852971 0.3619132836290355
0.7743794214451236 0.42424238445055873 0.07891122913595397
0.21387530489994222 0.7598730834667587 0.025123168580012473
0.06387874177202375 0.7590546814456607 -0.14580080534406786
-0.16265326621517806 0.8436160152186304 0.3619132836290355
0.10771275477845696 0.7575757177838921 0.07891122913595397
0.5472086382332755 0.7598730834667587 0.025123168580012473
0.39721207510535705 0.7590546814456607 -0.14580080534406786
0.17068006711815525 0.8436160152186304 0.3619132836290355
0.44104608811179025 0.7575757177838921 0.07891122913595397
0.8805419715666087 0.7598730834667587 0.025123168580012473
0.7305454084386904 0.7590546814456607 -0.14580080534406786
0.5040134004514886 0.8436160152186304 0.3619132836290355
0.7743794214451236 0.7575757177838921 0.07891122913595397
0.21387530489994222 0.09320641680009206 0.35845650191334577
0.06387874177202375 0.09238801477899408 0.18753252798926545
-0.16265326621517806 0.17694934855196381 0.6952466169623689
0.10771275477845696 0.09090905111722541 0.41224456246928726
0.5472086382332755 0.09320641680009206 0.35845650191334577
0.39721207510535705 0.09238801477899408 0.18753252798926545
0.17068006711815525 0.17694934855196381 0.6952466169623689
0.44104608811179025 0.09090905111722541 0.41224456246928726
0.8805419715666087 0.09320641680009206 0.35845650191334577
0.7305454084386904 0.09238801477899408 0.18753252798926545
0.5040134004514886 0.17694934855196381 0.6952466169623689
0.7743794214451236 0.09090905111722541 0.41224456246928726
0.21387530489994222 0.4265397501334254 0.35845650191334577
0.06387874177202375 0.4257213481123274 0.18753252798926545
-0.16265326621517806 0.5102826818852971 0.6952466169623689
0.10771275477845696 0.42424238445055873 0.41224456246928726
0.5472086382332755 0.4265397501334254 0.35845650191334577
0.39721207510535705 0.4257213481123274 0.18753252798926545
0.17068006711815525 0.5102826818852971 0.6952466169623689
0.44104608811179025 0.42424238445055873 0.41224456246928726
0.8805419715666087 0.4265397501334254 0.35845650191334577
0.7305454084386904 0.4257213481123274 0.18753252798926545
0.5040134004514886 0.5102826818852971 0.6952466169623689
0.7743794214451236 0.42424238445055873 0.41224456246928726
0.21387530489994222 0.7598730834667587 0.35845650191334577
0.06387874177202375 0.7590546814456607 0.18753252798926545
-0.16265326621517806 0.8436160152186304 0.6952466169623689
0.10771275477845696 0.7575757177838921 0.41224456246928726
0.5472086382332755 0.7598730834667587 0.35845650191334577
0.39721207510535705 0.7590546814456607 0.18753252798926545
0.17068006711815525 0.8436160152186304 0.6952466169623689
0.44104608811179025 0.7575757177838921 0.41224456246928726
0.8805419715666087 0.7598730834667587 0.35845650191334577
0.7305454084386904 0.7590546814456607 0.18753252798926545
0.5040134004514886 0.8436160152186304 0.6952466169623689
0.7743794214451236 0.7575757177838921 0.41224456246928726
0.21387530489994222 0.09320641680009206 0.6917898352466791
0.06387874177202375 0.09238801477899408 0.5208658613225987
-0.16265326621517806 0.17694934855196381 1.0285799502957023
0.10771275477845696 0.09090905111722541 0.7455778958026206
0.5472086382332755 0.09320641680009206 0.6917898352466791
0.39721207510535705 0.09238801477899408 0.5208658613225987
0.17068006711815525 0.17694934855196381 1.0285799502957023
0.44104608811179025 0.09090905111722541 0.7455778958026206
0.8805419715666087 0.09320641680009206 0.6917898352466791
0.7305454084386904 0.09238801477899408 0.5208658613225987
0.5040134004514886 0.17694934855196381 1.0285799502957023
0.7743794214451236 0.09090905111722541 0.7455778958026206
0.21387530489994222 0.4265397501334254 0.6917898352466791
0.06387874177202375 0.4257213481123274 0.5208658613225987
-0.16265326621517806 0.5102826818852971 1.0285799502957023
0.10771275477845696 0.42424238445055873 0.7455778958026206
0.5472086382332755 0.4265397501334254 0.6917898352466791
0.39721207510535705 0.4257213481123274 0.5208658613225987
0.17068006711815525 0.5102826818852971 1.0285799502957023
0.44104608811179025 0.42424238445055873 0.7455778958026206
0.8805419715666087 0.4265397501334254 0.6917898352466791
0.7305454084386904 0.4257213481123274 0.5208658613225987
0.5040134004514886 0.5102826818852971 1.0285799502957023
0.7743794214451236 0.42424238445055873 0.7455778958026206
0.21387530489994222 0.7598730834667587 0.6917898352466791
0.06387874177202375 0.7590546814456607 0.5208658613225987
-0.16265326621517806 0.8436160152186304 1.0285799502957023
0.10771275477845696 0.7575757177838921 0.7455778958026206
0.5472086382332755 0.7598730834667587 0.6917898352466791
0.39721207510535705 0.7590546814456607 0.5208658613225987
0.17068006711815525 0.8436160152186304 1.0285799502957023
0.44104608811179025 0.7575757177838921 0.7455778958026206
0.8805419715666087 0.7598730834667587 0.6917898352466791
0.7305454084386904 0.7590546814456607 0.5208658613225987
0.5040134004514886 0.8436160152186304 1.0285799502957023
0.7743794214451236 0.7575757177838921 0.7455778958026206
