FCC BaO
3.971
5.0 0.0 0.0
0.0 5.0 0.0
0.0 0.0 5.0
Ba O 
500 500 
Direct
4.379009964016856e-05 0.004448849110407565 -0.008930987430643357
-0.023899454803852277 0.1077389807345297 0.12368148884270391
0.08074977228883057 -0.004170770090130361 0.11379207962011187
0.09506298978782778 0.07336252046372146 0.00813351061997391
0.20004379009964018 0.004448849110407565 -0.008930987430643357
0.17610054519614773 0.1077389807345297 0.12368148884270391
0.2807497722888305 -0.004170770090130361 0.11379207962011187
0.2950629897878278 0.07336252046372146 0.00813351061997391
0.4000437900996402 0.004448849110407565 -0.008930987430643357
0.3761005451961477 0.1077389807345297 0.12368148884270391
0.48074977228883053 -0.004170770090130361 0.11379207962011187
0.4950629897878278 0.07336252046372146 0.00813351061997391
0.6000437900996403 0.004448849110407565 -0.008930987430643357
0.5761005451961477 0.1077389807345297 0.12368148884270391
0.6807497722888306 -0.004170770090130361 0.11379207962011187
0.6950629897878278 0.07336252046372146 0.00813351061997391
0.8000437900996401 0.004448849110407565 -0.008930987430643357
0.7761005451961478 0.1077389807345297 0.12368148884270391
0.8807497722888306 -0.004170770090130361 0.11379207962011187
0.8950629897878278 0.07336252046372146 0.00813351061997391
4.379009964016856e-05 0.20444884911040756 -0.008930987430643357
-0.023899454803852277 0.3077389807345297 0.12368148884270391
0.08074977228883057 0.19582922990986965 0.11379207962011187
0.09506298978782778 0.2733625204637215 0.00813351061997391
0.20004379009964018 0.20444884911040756 -0.008930987430643357
0.17610054519614773 0.3077389807345297 0.12368148884270391
0.2807497722888305 0.19582922990986965 0.11379207962011187
0.2950629897878278 0.2733625204637215 0.00813351061997391
0.4000437900996402 0.20444884911040756 -0.008930987430643357
0.3761005451961477 0.3077389807345297 0.12368148884270391
0.48074977228883053 0.19582922990986965 0.11379207962011187
0.4950629897878278 0.2733625204637215 0.00813351061997391
0.6000437900996403 0.20444884911040756 -0.008930987430643357
0.5761005451961477 0.3077389807345297 0.12368148884270391
0.6807497722888306 0.19582922990986965 0.11379207962011187
0.6950629897878278 0.2733625204637215 0.00813351061997391
0.8000437900996401 0.20444884911040756 -0.008930987430643357
0.7761005451961478 0.3077389807345297 0.12368148884270391
0.8807497722888306 0.19582922990986965 0.11379207962011187
0.8950629897878278 0.2733625204637215 0.00813351061997391
4.379009964016856e-05 0.4044488491104076 -0.008930987430643357
-0.023899454803852277 0.5077389807345297 0.12368148884270391
0.08074977228883057 0.39582922990986963 0.11379207962011187
0.09506298978782778 0.4733625204637215 0.00813351061997391
0.20004379009964018 0.4044488491104076 -0.008930987430643357
0.17610054519614773 0.5077389807345297 0.12368148884270391
0.2807497722888305 0.39582922990986963 0.11379207962011187
0.2950629897878278 0.4733625204637215 0.00813351061997391
0.4000437900996402 0.4044488491104076 -0.008930987430643357
0.3761005451961477 0.5077389807345297 0.12368148884270391
0.48074977228883053 0.39582922990986963 0.11379207962011187
0.4950629897878278 0.4733625204637215 0.00813351061997391
0.6000437900996403 0.4044488491104076 -0.008930987430643357
0.5761005451961477 0.5077389807345297 0.12368148884270391
0.6807497722888306 0.39582922990986963 0.11379207962011187
0.6950629897878278 0.4733625204637215 0.00813351061997391
0.8000437900996401 0.4044488491104076 -0.008930987430643357
0.7761005451961478 0.5077389807345297 0.12368148884270391
0.8807497722888306 0.39582922990986963 0.11379207962011187
0.8950629897878278 0.4733625204637215 0.00813351061997391
4.379009964016856e-05 0.6044488491104076 -0.008930987430643357
-0.023899454803852277 0.7077389807345297 0.12368148884270391
0.08074977228883057 0.5958292299098696 0.11379207962011187
0.09506298978782778 0.6733625204637215 0.00813351061997391
0.20004379009964018 0.6044488491104076 -0.008930987430643357
0.17610054519614773 0.7077389807345297 0.12368148884270391
0.2807497722888305 0.5958292299098696 0.11379207962011187
0.2950629897878278 0.6733625204637215 0.00813351061997391
0.4000437900996402 0.6044488491104076 -0.008930987430643357
0.3761005451961477 0.7077389807345297 0.12368148884270391
0.48074977228883053 0.5958292299098696 0.11379207962011187
0.4950629897878278 0.6733625204637215 0.00813351061997391
0.6000437900996403 0.6044488491104076 -0.008930987430643357
0.5761005451961477 0.7077389807345297 0.12368148884270391
0.6807497722888306 0.5958292299098696 0.11379207962011187
0.6950629897878278 0.6733625204637215 0.00813351061997391
0.8000437900996401 0.6044488491104076 -0.008930987430643357
0.7761005451961478 0.7077389807345297 0.12368148884270391
0.8807497722888306 0.5958292299098696 0.11379207962011187
0.8950629897878278 0.6733625204637215 0.00813351061997391
4.379009964016856e-05 0.8044488491104076 -0.008930987430643357
-0.023899454803852277 0.9077389807345297 0.12368148884270391
0.08074977228883057 0.7958292299098697 0.11379207962011187
0.09506298978782778 0.8733625204637214 0.00813351061997391
0.20004379009964018 0.8044488491104076 -0.008930987430643357
0.17610054519614773 0.9077389807345297 0.12368148884270391
0.2807497722888305 0.7958292299098697 0.11379207962011187
0.2950629897878278 0.8733625204637214 0.00813351061997391
0.4000437900996402 0.8044488491104076 -0.008930987430643357
0.3761005451961477 0.9077389807345297 0.12368148884270391
0.48074977228883053 0.7958292299098697 0.11379207962011187
0.4950629897878278 0.8733625204637214 0.00813351061997391
0.6000437900996403 0.8044488491104076 -0.008930987430643357
0.5761005451961477 0.9077389807345297 0.12368148884270391
0.6807497722888306 0.7958292299098697 0.11379207962011187
0.6950629897878278 0.8733625204637214 0.00813351061997391
0.8000437900996401 0.8044488491104076 -0.008930987430643357
0.7761005451961478 0.9077389807345297 0.12368148884270391
0.8807497722888306 0.7958292299098697 0.11379207962011187
0.8950629897878278 0.8733625204637214 0.00813351061997391
4.379009964016856e-05 0.004448849110407565 0.19106901256935666
-0.023899454803852277 0.1077389807345297 0.323681488842704
0.08074977228883057 -0.004170770090130361 0.3137920796201119
0.09506298978782778 0.07336252046372146 0.2081335106199739
0.20004379009964018 0.004448849110407565 0.19106901256935666
0.17610054519614773 0.1077389807345297 0.323681488842704
0.2807497722888305 -0.004170770090130361 0.3137920796201119
0.2950629897878278 0.07336252046372146 0.2081335106199739
0.4000437900996402 0.004448849110407565 0.19106901256935666
0.3761005451961477 0.1077389807345297 0.323681488842704
0.48074977228883053 -0.004170770090130361 0.3137920796201119
0.4950629897878278 0.07336252046372146 0.2081335106199739
0.6000437900996403 0.004448849110407565 0.19106901256935666
0.5761005451961477 0.1077389807345297 0.323681488842704
0.6807497722888306 -0.004170770090130361 0.3137920796201119
0.6950629897878278 0.07336252046372146 0.2081335106199739
0.8000437900996401 0.004448849110407565 0.19106901256935666
0.7761005451961478 0.1077389807345297 0.323681488842704
0.8807497722888306 -0.004170770090130361 0.3137920796201119
0.8950629897878278 0.07336252046372146 0.2081335106199739
4.379009964016856e-05 0.20444884911040756 0.19106901256935666
-0.023899454803852277 0.3077389807345297 0.323681488842704
0.08074977228883057 0.19582922990986965 0.3137920796201119
0.09506298978782778 0.2733625204637215 0.2081335106199739
0.20004379009964018 0.20444884911040756 0.19106901256935666
0.17610054519614773 0.3077389807345297 0.323681488842704
0.2807497722888305 0.19582922990986965 0.3137920796201119
0.2950629897878278 0.2733625204637215 0.2081335106199739
0.4000437900996402 0.20444884911040756 0.19106901256935666
0.3761005451961477 0.3077389807345297 0.323681488842704
0.48074977228883053 0.19582922990986965 0.3137920796201119
0.4950629897878278 0.2733625204637215 0.2081335106199739
0.6000437900996403 0.20444884911040756 0.19106901256935666
0.5761005451961477 0.3077389807345297 0.323681488842704
0.6807497722888306 0.19582922990986965 0.3137920796201119
0.6950629897878278 0.2733625204637215 0.2081335106199739
0.8000437900996401 0.20444884911040756 0.19106901256935666
0.7761005451961478 0.3077389807345297 0.323681488842704
0.8807497722888306 0.19582922990986965 0.3137920796201119
0.8950629897878278 0.2733625204637215 0.2081335106199739
4.379009964016856e-05 0.4044488491104076 0.19106901256935666
-0.023899454803852277 0.5077389807345297 0.323681488842704
0.08074977228883057 0.39582922990986963 0.3137920796201119
0.09506298978782778 0.4733625204637215 0.2081335106199739
0.20004379009964018 0.4044488491104076 0.19106901256935666
0.17610054519614773 0.5077389807345297 0.323681488842704
0.2807497722888305 0.39582922990986963 0.3137920796201119
0.2950629897878278 0.4733625204637215 0.2081335106199739
0.4000437900996402 0.4044488491104076 0.19106901256935666
0.3761005451961477 0.5077389807345297 0.323681488842704
0.48074977228883053 0.39582922990986963 0.3137920796201119
0.4950629897878278 0.4733625204637215 0.2081335106199739
0.6000437900996403 0.4044488491104076 0.19106901256935666
0.5761005451961477 0.5077389807345297 0.323681488842704
0.6807497722888306 0.39582922990986963 0.3137920796201119
0.6950629897878278 0.4733625204637215 0.2081335106199739
0.8000437900996401 0.4044488491104076 0.19106901256935666
0.7761005451961478 0.5077389807345297 0.323681488842704
0.8807497722888306 0.39582922990986963 0.3137920796201119
0.8950629897878278 0.4733625204637215 0.2081335106199739
4.379009964016856e-05 0.6044488491104076 0.19106901256935666
-0.023899454803852277 0.7077389807345297 0.323681488842704
0.08074977228883057 0.5958292299098696 0.3137920796201119
0.09506298978782778 0.6733625204637215 0.2081335106199739
0.20004379009964018 0.6044488491104076 0.19106901256935666
0.17610054519614773 0.7077389807345297 0.323681488842704
0.2807497722888305 0.5958292299098696 0.3137920796201119
0.2950629897878278 0.6733625204637215 0.2081335106199739
0.4000437900996402 0.6044488491104076 0.19106901256935666
0.3761005451961477 0.7077389807345297 0.323681488842704
0.48074977228883053 0.5958292299098696 0.3137920796201119
0.4950629897878278 0.6733625204637215 0.2081335106199739
0.6000437900996403 0.6044488491104076 0.19106901256935666
0.5761005451961477 0.7077389807345297 0.323681488842704
0.6807497722888306 0.5958292299098696 0.3137920796201119
0.6950629897878278 0.6733625204637215 0.2081335106199739
0.8000437900996401 0.6044488491104076 0.19106901256935666
0.7761005451961478 0.7077389807345297 0.323681488842704
0.8807497722888306 0.5958292299098696 0.3137920796201119
0.8950629897878278 0.6733625204637215 0.2081335106199739
4.379009964016856e-05 0.8044488491104076 0.19106901256935666
-0.023899454803852277 0.9077389807345297 0.323681488842704
0.08074977228883057 0.7958292299098697 0.3137920796201119
0.09506298978782778 0.8733625204637214 0.2081335106199739
0.20004379009964018 0.8044488491104076 0.19106901256935666
0.17610054519614773 0.9077389807345297 0.323681488842704
0.2807497722888305 0.7958292299098697 0.3137920796201119
0.2950629897878278 0.8733625204637214 0.2081335106199739
0.4000437900996402 0.8044488491104076 0.19106901256935666
0.3761005451961477 0.9077389807345297 0.323681488842704
0.48074977228883053 0.7958292299098697 0.3137920796201119
0.4950629897878278 0.8733625204637214 0.2081335106199739
0.6000437900996403 0.8044488491104076 0.19106901256935666
0.5761005451961477 0.9077389807345297 0.323681488842704
0.6807497722888306 0.7958292299098697 0.3137920796201119
0.6950629897878278 0.8733625204637214 0.2081335106199739
0.8000437900996401 0.8044488491104076 0.19106901256935666
0.7761005451961478 0.9077389807345297 0.323681488842704
0.8807497722888306 0.7958292299098697 0.3137920796201119
0.8950629897878278 0.8733625204637214 0.2081335106199739
4.379009964016856e-05 0.004448849110407565 0.39106901256935667
-0.023899454803852277 0.1077389807345297 0.5236814888427039
0.08074977228883057 -0.004170770090130361 0.5137920796201119
0.09506298978782778 0.07336252046372146 0.40813351061997394
0.20004379009964018 0.004448849110407565 0.39106901256935667
0.17610054519614773 0.1077389807345297 0.5236814888427039
0.2807497722888305 -0.004170770090130361 0.5137920796201119
0.2950629897878278 0.07336252046372146 0.40813351061997394
0.4000437900996402 0.004448849110407565 0.39106901256935667
0.3761005451961477 0.1077389807345297 0.5236814888427039
0.48074977228883053 -0.004170770090130361 0.5137920796201119
0.4950629897878278 0.07336252046372146 0.40813351061997394
0.6000437900996403 0.004448849110407565 0.39106901256935667
0.5761005451961477 0.1077389807345297 0.5236814888427039
0.6807497722888306 -0.004170770090130361 0.5137920796201119
0.6950629897878278 0.07336252046372146 0.40813351061997394
0.8000437900996401 0.004448849110407565 0.39106901256935667
0.7761005451961478 0.1077389807345297 0.5236814888427039
0.8807497722888306 -0.004170770090130361 0.5137920796201119
0.8950629897878278 0.07336252046372146 0.40813351061997394
4.379009964016856e-05 0.20444884911040756 0.39106901256935667
-0.023899454803852277 0.3077389807345297 0.5236814888427039
0.08074977228883057 0.19582922990986965 0.5137920796201119
0.09506298978782778 0.2733625204637215 0.40813351061997394
0.20004379009964018 0.20444884911040756 0.39106901256935667
0.17610054519614773 0.3077389807345297 0.5236814888427039
0.2807497722888305 0.19582922990986965 0.5137920796201119
0.2950629897878278 0.2733625204637215 0.40813351061997394
0.4000437900996402 0.20444884911040756 0.39106901256935667
0.3761005451961477 0.3077389807345297 0.5236814888427039
0.48074977228883053 0.19582922990986965 0.5137920796201119
0.4950629897878278 0.2733625204637215 0.40813351061997394
0.6000437900996403 0.20444884911040756 0.39106901256935667
0.5761005451961477 0.3077389807345297 0.5236814888427039
0.6807497722888306 0.19582922990986965 0.5137920796201119
0.6950629897878278 0.2733625204637215 0.40813351061997394
0.8000437900996401 0.20444884911040756 0.39106901256935667
0.7761005451961478 0.3077389807345297 0.5236814888427039
0.8807497722888306 0.19582922990986965 0.5137920796201119
0.8950629897878278 0.2733625204637215 0.40813351061997394
4.379009964016856e-05 0.4044488491104076 0.39106901256935667
-0.023899454803852277 0.5077389807345297 0.5236814888427039
0.08074977228883057 0.39582922990986963 0.5137920796201119
0.09506298978782778 0.4733625204637215 0.40813351061997394
0.20004379009964018 0.4044488491104076 0.39106901256935667
0.17610054519614773 0.5077389807345297 0.5236814888427039
0.2807497722888305 0.39582922990986963 0.5137920796201119
0.2950629897878278 0.4733625204637215 0.40813351061997394
0.4000437900996402 0.4044488491104076 0.39106901256935667
0.3761005451961477 0.5077389807345297 0.5236814888427039
0.48074977228883053 0.39582922990986963 0.5137920796201119
0.4950629897878278 0.4733625204637215 0.40813351061997394
0.6000437900996403 0.4044488491104076 0.39106901256935667
0.5761005451961477 0.5077389807345297 0.5236814888427039
0.6807497722888306 0.39582922990986963 0.5137920796201119
0.6950629897878278 0.4733625204637215 0.40813351061997394
0.8000437900996401 0.4044488491104076 0.39106901256935667
0.7761005451961478 0.5077389807345297 0.5236814888427039
0.8807497722888306 0.39582922990986963 0.5137920796201119
0.8950629897878278 0.4733625204637215 0.40813351061997394
4.379009964016856e-05 0.6044488491104076 0.39106901256935667
-0.023899454803852277 0.7077389807345297 0.5236814888427039
0.08074977228883057 0.5958292299098696 0.5137920796201119
0.09506298978782778 0.6733625204637215 0.40813351061997394
0.20004379009964018 0.6044488491104076 0.39106901256935667
0.17610054519614773 0.7077389807345297 0.5236814888427039
0.2807497722888305 0.5958292299098696 0.5137920796201119
0.2950629897878278 0.6733625204637215 0.40813351061997394
0.4000437900996402 0.6044488491104076 0.39106901256935667
0.3761005451961477 0.7077389807345297 0.5236814888427039
0.48074977228883053 0.5958292299098696 0.5137920796201119
0.4950629897878278 0.6733625204637215 0.40813351061997394
0.6000437900996403 0.6044488491104076 0.39106901256935667
0.5761005451961477 0.7077389807345297 0.5236814888427039
0.6807497722888306 0.5958292299098696 0.5137920796201119
0.6950629897878278 0.6733625204637215 0.40813351061997394
0.8000437900996401 0.6044488491104076 0.39106901256935667
0.7761005451961478 0.7077389807345297 0.5236814888427039
0.8807497722888306 0.5958292299098696 0.5137920796201119
0.8950629897878278 0.6733625204637215 0.40813351061997394
4.379009964016856e-05 0.8044488491104076 0.39106901256935667
-0.023899454803852277 0.9077389807345297 0.5236814888427039
0.08074977228883057 0.7958292299098697 0.5137920796201119
0.09506298978782778 0.8733625204637214 0.40813351061997394
0.20004379009964018 0.8044488491104076 0.39106901256935667
0.17610054519614773 0.9077389807345297 0.5236814888427039
0.2807497722888305 0.7958292299098697 0.5137920796201119
0.2950629897878278 0.8733625204637214 0.40813351061997394
0.4000437900996402 0.8044488491104076 0.39106901256935667
0.3761005451961477 0.9077389807345297 0.5236814888427039
0.48074977228883053 0.7958292299098697 0.5137920796201119
0.4950629897878278 0.8733625204637214 0.40813351061997394
0.6000437900996403 0.8044488491104076 0.39106901256935667
0.5761005451961477 0.9077389807345297 0.5236814888427039
0.6807497722888306 0.7958292299098697 0.5137920796201119
0.6950629897878278 0.8733625204637214 0.40813351061997394
0.8000437900996401 0.8044488491104076 0.39106901256935667
0.7761005451961478 0.9077389807345297 0.5236814888427039
0.8807497722888306 0.7958292299098697 0.5137920796201119
0.8950629897878278 0.8733625204637214 0.40813351061997394
4.379009964016856e-05 0.004448849110407565 0.5910690125693566
-0.023899454803852277 0.1077389807345297 0.723681488842704
0.08074977228883057 -0.004170770090130361 0.7137920796201119
0.09506298978782778 0.07336252046372146 0.6081335106199739
0.20004379009964018 0.004448849110407565 0.5910690125693566
0.17610054519614773 0.1077389807345297 0.723681488842704
0.2807497722888305 -0.004170770090130361 0.7137920796201119
0.2950629897878278 0.07336252046372146 0.6081335106199739
0.4000437900996402 0.004448849110407565 0.5910690125693566
0.3761005451961477 0.1077389807345297 0.723681488842704
0.48074977228883053 -0.004170770090130361 0.7137920796201119
0.4950629897878278 0.07336252046372146 0.6081335106199739
0.6000437900996403 0.004448849110407565 0.5910690125693566
0.5761005451961477 0.1077389807345297 0.723681488842704
0.6807497722888306 -0.004170770090130361 0.7137920796201119
0.6950629897878278 0.07336252046372146 0.6081335106199739
0.8000437900996401 0.004448849110407565 0.5910690125693566
0.7761005451961478 0.1077389807345297 0.723681488842704
0.8807497722888306 -0.004170770090130361 0.7137920796201119
0.8950629897878278 0.07336252046372146 0.6081335106199739
4.379009964016856e-05 0.20444884911040756 0.5910690125693566
-0.023899454803852277 0.3077389807345297 0.723681488842704
0.08074977228883057 0.19582922990986965 0.7137920796201119
0.09506298978782778 0.2733625204637215 0.6081335106199739
0.20004379009964018 0.20444884911040756 0.5910690125693566
0.17610054519614773 0.3077389807345297 0.723681488842704
0.2807497722888305 0.19582922990986965 0.7137920796201119
0.2950629897878278 0.2733625204637215 0.6081335106199739
0.4000437900996402 0.20444884911040756 0.5910690125693566
0.3761005451961477 0.3077389807345297 0.723681488842704
0.48074977228883053 0.19582922990986965 0.7137920796201119
0.4950629897878278 0.2733625204637215 0.6081335106199739
0.6000437900996403 0.20444884911040756 0.5910690125693566
0.5761005451961477 0.3077389807345297 0.723681488842704
0.6807497722888306 0.19582922990986965 0.7137920796201119
0.6950629897878278 0.2733625204637215 0.6081335106199739
0.8000437900996401 0.20444884911040756 0.5910690125693566
0.7761005451961478 0.3077389807345297 0.723681488842704
0.8807497722888306 0.19582922990986965 0.7137920796201119
0.8950629897878278 0.2733625204637215 0.6081335106199739
4.379009964016856e-05 0.4044488491104076 0.5910690125693566
-0.023899454803852277 0.5077389807345297 0.723681488842704
0.08074977228883057 0.39582922990986963 0.7137920796201119
0.09506298978782778 0.4733625204637215 0.6081335106199739
0.20004379009964018 0.4044488491104076 0.5910690125693566
0.17610054519614773 0.5077389807345297 0.723681488842704
0.2807497722888305 0.39582922990986963 0.7137920796201119
0.2950629897878278 0.4733625204637215 0.6081335106199739
0.4000437900996402 0.4044488491104076 0.5910690125693566
0.3761005451961477 0.5077389807345297 0.723681488842704
0.48074977228883053 0.39582922990986963 0.7137920796201119
0.4950629897878278 0.4733625204637215 0.6081335106199739
0.6000437900996403 0.4044488491104076 0.5910690125693566
0.5761005451961477 0.5077389807345297 0.723681488842704
0.6807497722888306 0.39582922990986963 0.7137920796201119
0.6950629897878278 0.4733625204637215 0.6081335106199739
0.8000437900996401 0.4044488491104076 0.5910690125693566
0.7761005451961478 0.5077389807345297 0.723681488842704
0.8807497722888306 0.39582922990986963 0.7137920796201119
0.8950629897878278 0.4733625204637215 0.6081335106199739
4.379009964016856e-05 0.6044488491104076 0.5910690125693566
-0.023899454803852277 0.7077389807345297 0.723681488842704
0.08074977228883057 0.5958292299098696 0.7137920796201119
0.09506298978782778 0.6733625204637215 0.6081335106199739
0.20004379009964018 0.6044488491104076 0.5910690125693566
0.17610054519614773 0.7077389807345297 0.723681488842704
0.2807497722888305 0.5958292299098696 0.7137920796201119
0.2950629897878278 0.6733625204637215 0.6081335106199739
0.4000437900996402 0.6044488491104076 0.5910690125693566
0.3761005451961477 0.7077389807345297 0.723681488842704
0.48074977228883053 0.5958292299098696 0.7137920796201119
0.4950629897878278 0.6733625204637215 0.6081335106199739
0.6000437900996403 0.6044488491104076 0.5910690125693566
0.5761005451961477 0.7077389807345297 0.723681488842704
0.6807497722888306 0.5958292299098696 0.7137920796201119
0.6950629897878278 0.6733625204637215 0.6081335106199739
0.8000437900996401 0.6044488491104076 0.5910690125693566
0.7761005451961478 0.7077389807345297 0.723681488842704
0.8807497722888306 0.5958292299098696 0.7137920796201119
0.8950629897878278 0.6733625204637215 0.6081335106199739
4.379009964016856e-05 0.8044488491104076 0.5910690125693566
-0.023899454803852277 0.9077389807345297 0.723681488842704
0.08074977228883057 0.7958292299098697 0.7137920796201119
0.09506298978782778 0.8733625204637214 0.6081335106199739
0.20004379009964018 0.8044488491104076 0.5910690125693566
0.17610054519614773 0.9077389807345297 0.723681488842704
0.2807497722888305 0.7958292299098697 0.7137920796201119
0.2950629897878278 0.8733625204637214 0.6081335106199739
0.4000437900996402 0.8044488491104076 0.5910690125693566
0.3761005451961477 0.9077389807345297 0.723681488842704
0.48074977228883053 0.7958292299098697 0.7137920796201119
0.4950629897878278 0.8733625204637214 0.6081335106199739
0.6000437900996403 0.8044488491104076 0.5910690125693566
0.5761005451961477 0.9077389807345297 0.723681488842704
0.6807497722888306 0.7958292299098697 0.7137920796201119
0.6950629897878278 0.8733625204637214 0.6081335106199739
0.8000437900996401 0.8044488491104076 0.5910690125693566
0.7761005451961478 0.9077389807345297 0.723681488842704
0.8807497722888306 0.7958292299098697 0.7137920796201119
0.8950629897878278 0.8733625204637214 0.6081335106199739
4.379009964016856e-05 0.004448849110407565 0.7910690125693567
-0.023899454803852277 0.1077389807345297 0.923681488842704
0.08074977228883057 -0.004170770090130361 0.9137920796201119
0.09506298978782778 0.07336252046372146 0.8081335106199741
0.20004379009964018 0.004448849110407565 0.7910690125693567
0.17610054519614773 0.1077389807345297 0.923681488842704
0.2807497722888305 -0.004170770090130361 0.9137920796201119
0.2950629897878278 0.07336252046372146 0.8081335106199741
0.4000437900996402 0.004448849110407565 0.7910690125693567
0.3761005451961477 0.1077389807345297 0.923681488842704
0.48074977228883053 -0.004170770090130361 0.9137920796201119
0.4950629897878278 0.07336252046372146 0.8081335106199741
0.6000437900996403 0.004448849110407565 0.7910690125693567
0.5761005451961477 0.1077389807345297 0.923681488842704
0.6807497722888306 -0.004170770090130361 0.9137920796201119
0.6950629897878278 0.07336252046372146 0.8081335106199741
0.8000437900996401 0.004448849110407565 0.7910690125693567
0.7761005451961478 0.1077389807345297 0.923681488842704
0.8807497722888306 -0.004170770090130361 0.9137920796201119
0.8950629897878278 0.07336252046372146 0.8081335106199741
4.379009964016856e-05 0.20444884911040756 0.7910690125693567
-0.023899454803852277 0.3077389807345297 0.923681488842704
0.08074977228883057 0.19582922990986965 0.9137920796201119
0.09506298978782778 0.2733625204637215 0.8081335106199741
0.20004379009964018 0.20444884911040756 0.7910690125693567
0.17610054519614773 0.3077389807345297 0.923681488842704
0.2807497722888305 0.19582922990986965 0.9137920796201119
0.2950629897878278 0.2733625204637215 0.8081335106199741
0.4000437900996402 0.20444884911040756 0.7910690125693567
0.3761005451961477 0.3077389807345297 0.923681488842704
0.48074977228883053 0.19582922990986965 0.9137920796201119
0.4950629897878278 0.2733625204637215 0.8081335106199741
0.6000437900996403 0.20444884911040756 0.7910690125693567
0.5761005451961477 0.3077389807345297 0.923681488842704
0.6807497722888306 0.19582922990986965 0.9137920796201119
0.6950629897878278 0.2733625204637215 0.8081335106199741
0.8000437900996401 0.20444884911040756 0.7910690125693567
0.7761005451961478 0.3077389807345297 0.923681488842704
0.8807497722888306 0.19582922990986965 0.9137920796201119
0.8950629897878278 0.2733625204637215 0.8081335106199741
4.379009964016856e-05 0.4044488491104076 0.7910690125693567
-0.023899454803852277 0.5077389807345297 0.923681488842704
0.08074977228883057 0.39582922990986963 0.9137920796201119
0.09506298978782778 0.4733625204637215 0.8081335106199741
0.20004379009964018 0.4044488491104076 0.7910690125693567
0.17610054519614773 0.5077389807345297 0.923681488842704
0.2807497722888305 0.39582922990986963 0.9137920796201119
0.2950629897878278 0.4733625204637215 0.8081335106199741
0.4000437900996402 0.4044488491104076 0.7910690125693567
0.3761005451961477 0.5077389807345297 0.923681488842704
0.48074977228883053 0.39582922990986963 0.9137920796201119
0.4950629897878278 0.4733625204637215 0.8081335106199741
0.6000437900996403 0.4044488491104076 0.7910690125693567
0.5761005451961477 0.5077389807345297 0.923681488842704
0.6807497722888306 0.39582922990986963 0.9137920796201119
0.6950629897878278 0.4733625204637215 0.8081335106199741
0.8000437900996401 0.4044488491104076 0.7910690125693567
0.7761005451961478 0.5077389807345297 0.923681488842704
0.8807497722888306 0.39582922990986963 0.9137920796201119
0.8950629897878278 0.4733625204637215 0.8081335106199741
4.379009964016856e-05 0.6044488491104076 0.7910690125693567
-0.023899454803852277 0.7077389807345297 0.923681488842704
0.08074977228883057 0.5958292299098696 0.9137920796201119
0.09506298978782778 0.6733625204637215 0.8081335106199741
0.20004379009964018 0.6044488491104076 0.7910690125693567
0.17610054519614773 0.7077389807345297 0.923681488842704
0.2807497722888305 0.5958292299098696 0.9137920796201119
0.2950629897878278 0.6733625204637215 0.8081335106199741
0.4000437900996402 0.6044488491104076 0.7910690125693567
0.3761005451961477 0.7077389807345297 0.923681488842704
0.48074977228883053 0.5958292299098696 0.9137920796201119
0.4950629897878278 0.6733625204637215 0.8081335106199741
0.6000437900996403 0.6044488491104076 0.7910690125693567
0.5761005451961477 0.7077389807345297 0.923681488842704
0.6807497722888306 0.5958292299098696 0.9137920796201119
0.6950629897878278 0.6733625204637215 0.8081335106199741
0.8000437900996401 0.6044488491104076 0.7910690125693567
0.7761005451961478 0.7077389807345297 0.923681488842704
0.8807497722888306 0.5958292299098696 0.9137920796201119
0.8950629897878278 0.6733625204637215 0.8081335106199741
4.379009964016856e-05 0.8044488491104076 0.7910690125693567
-0.023899454803852277 0.9077389807345297 0.923681488842704
0.08074977228883057 0.7958292299098697 0.9137920796201119
0.09506298978782778 0.8733625204637214 0.8081335106199741
0.20004379009964018 0.8044488491104076 0.7910690125693567
0.17610054519614773 0.9077389807345297 0.923681488842704
0.2807497722888305 0.7958292299098697 0.9137920796201119
0.2950629897878278 0.8733625204637214 0.8081335106199741
0.4000437900996402 0.8044488491104076 0.7910690125693567
0.3761005451961477 0.9077389807345297 0.923681488842704
0.48074977228883053 0.7958292299098697 0.9137920796201119
0.4950629897878278 0.8733625204637214 0.8081335106199741
0.6000437900996403 0.8044488491104076 0.7910690125693567
0.5761005451961477 0.9077389807345297 0.923681488842704
0.6807497722888306 0.7958292299098697 0.9137920796201119
0.6950629897878278 0.8733625204637214 0.8081335106199741
0.8000437900996401 0.8044488491104076 0.7910690125693567
0.7761005451961478 0.9077389807345297 0.923681488842704
0.8807497722888306 0.7958292299098697 0.9137920796201119
0.8950629897878278 0.8733625204637214 0.8081335106199741
0.08242827195760692 -0.027615446332667434 0.022613652869151905
0.002677258858874697 0.1122225749133234 0.010015779167999013
-0.005625735797816523 0.012419623867836809 0.12638390517293005
0.11030547668741075 0.11396696387257486 0.08920678881594224
0.28242827195760695 -0.027615446332667434 0.022613652869151905
0.2026772588588747 0.1122225749133234 0.010015779167999013
0.19437426420218348 0.012419623867836809 0.12638390517293005
0.31030547668741076 0.11396696387257486 0.08920678881594224
0.48242827195760696 -0.027615446332667434 0.022613652869151905
0.40267725885887473 0.1122225749133234 0.010015779167999013
0.39437426420218347 0.012419623867836809 0.12638390517293005
0.5103054766874108 0.11396696387257486 0.08920678881594224
0.6824282719576069 -0.027615446332667434 0.022613652869151905
0.6026772588588747 0.1122225749133234 0.010015779167999013
0.5943742642021835 0.012419623867836809 0.12638390517293005
0.7103054766874108 0.11396696387257486 0.08920678881594224
0.8824282719576069 -0.027615446332667434 0.022613652869151905
0.8026772588588748 0.1122225749133234 0.010015779167999013
0.7943742642021836 0.012419623867836809 0.12638390517293005
0.9103054766874108 0.11396696387257486 0.08920678881594224
0.08242827195760692 0.17238455366733257 0.022613652869151905
0.002677258858874697 0.3122225749133234 0.010015779167999013
-0.005625735797816523 0.21241962386783683 0.12638390517293005
0.11030547668741075 0.31396696387257483 0.08920678881594224
0.28242827195760695 0.17238455366733257 0.022613652869151905
0.2026772588588747 0.3122225749133234 0.010015779167999013
0.19437426420218348 0.21241962386783683 0.12638390517293005
0.31030547668741076 0.31396696387257483 0.08920678881594224
0.48242827195760696 0.17238455366733257 0.022613652869151905
0.40267725885887473 0.3122225749133234 0.010015779167999013
0.39437426420218347 0.21241962386783683 0.12638390517293005
0.5103054766874108 0.31396696387257483 0.08920678881594224
0.6824282719576069 0.17238455366733257 0.022613652869151905
0.6026772588588747 0.3122225749133234 0.010015779167999013
0.5943742642021835 0.21241962386783683 0.12638390517293005
0.7103054766874108 0.31396696387257483 0.08920678881594224
0.8824282719576069 0.17238455366733257 0.022613652869151905
0.8026772588588748 0.3122225749133234 0.010015779167999013
0.7943742642021836 0.21241962386783683 0.12638390517293005
0.9103054766874108 0.31396696387257483 0.08920678881594224
0.08242827195760692 0.3723845536673326 0.022613652869151905
0.002677258858874697 0.5122225749133235 0.010015779167999013
-0.005625735797816523 0.4124196238678368 0.12638390517293005
0.11030547668741075 0.5139669638725749 0.08920678881594224
0.28242827195760695 0.3723845536673326 0.022613652869151905
0.2026772588588747 0.5122225749133235 0.010015779167999013
0.19437426420218348 0.4124196238678368 0.12638390517293005
0.31030547668741076 0.5139669638725749 0.08920678881594224
0.48242827195760696 0.3723845536673326 0.022613652869151905
0.40267725885887473 0.5122225749133235 0.010015779167999013
0.39437426420218347 0.4124196238678368 0.12638390517293005
0.5103054766874108 0.5139669638725749 0.08920678881594224
0.6824282719576069 0.3723845536673326 0.022613652869151905
0.6026772588588747 0.5122225749133235 0.010015779167999013
0.5943742642021835 0.4124196238678368 0.12638390517293005
0.7103054766874108 0.5139669638725749 0.08920678881594224
0.8824282719576069 0.3723845536673326 0.022613652869151905
0.8026772588588748 0.5122225749133235 0.010015779167999013
0.7943742642021836 0.4124196238678368 0.12638390517293005
0.9103054766874108 0.5139669638725749 0.08920678881594224
0.08242827195760692 0.5723845536673327 0.022613652869151905
0.002677258858874697 0.7122225749133234 0.010015779167999013
-0.005625735797816523 0.6124196238678369 0.12638390517293005
0.11030547668741075 0.7139669638725749 0.08920678881594224
0.28242827195760695 0.5723845536673327 0.022613652869151905
0.2026772588588747 0.7122225749133234 0.010015779167999013
0.19437426420218348 0.6124196238678369 0.12638390517293005
0.31030547668741076 0.7139669638725749 0.08920678881594224
0.48242827195760696 0.5723845536673327 0.022613652869151905
0.40267725885887473 0.7122225749133234 0.010015779167999013
0.39437426420218347 0.6124196238678369 0.12638390517293005
0.5103054766874108 0.7139669638725749 0.08920678881594224
0.6824282719576069 0.5723845536673327 0.022613652869151905
0.6026772588588747 0.7122225749133234 0.010015779167999013
0.5943742642021835 0.6124196238678369 0.12638390517293005
0.7103054766874108 0.7139669638725749 0.08920678881594224
0.8824282719576069 0.5723845536673327 0.022613652869151905
0.8026772588588748 0.7122225749133234 0.010015779167999013
0.7943742642021836 0.6124196238678369 0.12638390517293005
0.9103054766874108 0.7139669638725749 0.08920678881594224
0.08242827195760692 0.7723845536673326 0.022613652869151905
0.002677258858874697 0.9122225749133235 0.010015779167999013
-0.005625735797816523 0.8124196238678367 0.12638390517293005
0.11030547668741075 0.9139669638725749 0.08920678881594224
0.28242827195760695 0.7723845536673326 0.022613652869151905
0.2026772588588747 0.9122225749133235 0.010015779167999013
0.19437426420218348 0.8124196238678367 0.12638390517293005
0.31030547668741076 0.9139669638725749 0.08920678881594224
0.48242827195760696 0.7723845536673326 0.022613652869151905
0.40267725885887473 0.9122225749133235 0.010015779167999013
0.39437426420218347 0.8124196238678367 0.12638390517293005
0.5103054766874108 0.9139669638725749 0.08920678881594224
0.6824282719576069 0.7723845536673326 0.022613652869151905
0.6026772588588747 0.9122225749133235 0.010015779167999013
0.5943742642021835 0.8124196238678367 0.12638390517293005
0.7103054766874108 0.9139669638725749 0.08920678881594224
0.8824282719576069 0.7723845536673326 0.022613652869151905
0.8026772588588748 0.9122225749133235 0.010015779167999013
0.7943742642021836 0.8124196238678367 0.12638390517293005
0.9103054766874108 0.9139669638725749 0.08920678881594224
0.08242827195760692 -0.027615446332667434 0.2226136528691519
0.002677258858874697 0.1122225749133234 0.21001577916799904
-0.005625735797816523 0.012419623867836809 0.32638390517293003
0.11030547668741075 0.11396696387257486 0.28920678881594225
0.28242827195760695 -0.027615446332667434 0.2226136528691519
0.2026772588588747 0.1122225749133234 0.21001577916799904
0.19437426420218348 0.012419623867836809 0.32638390517293003
0.31030547668741076 0.11396696387257486 0.28920678881594225
0.48242827195760696 -0.027615446332667434 0.2226136528691519
0.40267725885887473 0.1122225749133234 0.21001577916799904
0.39437426420218347 0.012419623867836809 0.32638390517293003
0.5103054766874108 0.11396696387257486 0.28920678881594225
0.6824282719576069 -0.027615446332667434 0.2226136528691519
0.6026772588588747 0.1122225749133234 0.21001577916799904
0.5943742642021835 0.012419623867836809 0.32638390517293003
0.7103054766874108 0.11396696387257486 0.28920678881594225
0.8824282719576069 -0.027615446332667434 0.2226136528691519
0.8026772588588748 0.1122225749133234 0.21001577916799904
0.7943742642021836 0.012419623867836809 0.32638390517293003
0.9103054766874108 0.11396696387257486 0.28920678881594225
0.08242827195760692 0.17238455366733257 0.2226136528691519
0.002677258858874697 0.3122225749133234 0.21001577916799904
-0.005625735797816523 0.21241962386783683 0.32638390517293003
0.11030547668741075 0.31396696387257483 0.28920678881594225
0.28242827195760695 0.17238455366733257 0.2226136528691519
0.2026772588588747 0.3122225749133234 0.21001577916799904
0.19437426420218348 0.21241962386783683 0.32638390517293003
0.31030547668741076 0.31396696387257483 0.28920678881594225
0.48242827195760696 0.17238455366733257 0.2226136528691519
0.40267725885887473 0.3122225749133234 0.21001577916799904
0.39437426420218347 0.21241962386783683 0.32638390517293003
0.5103054766874108 0.31396696387257483 0.28920678881594225
0.6824282719576069 0.17238455366733257 0.2226136528691519
0.6026772588588747 0.3122225749133234 0.21001577916799904
0.5943742642021835 0.21241962386783683 0.32638390517293003
0.7103054766874108 0.31396696387257483 0.28920678881594225
0.8824282719576069 0.17238455366733257 0.2226136528691519
0.8026772588588748 0.3122225749133234 0.21001577916799904
0.7943742642021836 0.21241962386783683 0.32638390517293003
0.9103054766874108 0.31396696387257483 0.28920678881594225
0.08242827195760692 0.3723845536673326 0.2226136528691519
0.002677258858874697 0.5122225749133235 0.21001577916799904
-0.005625735797816523 0.4124196238678368 0.32638390517293003
0.11030547668741075 0.5139669638725749 0.28920678881594225
0.28242827195760695 0.3723845536673326 0.2226136528691519
0.2026772588588747 0.5122225749133235 0.21001577916799904
0.19437426420218348 0.4124196238678368 0.32638390517293003
0.31030547668741076 0.5139669638725749 0.28920678881594225
0.48242827195760696 0.3723845536673326 0.2226136528691519
0.40267725885887473 0.5122225749133235 0.21001577916799904
0.39437426420218347 0.4124196238678368 0.32638390517293003
0.5103054766874108 0.5139669638725749 0.28920678881594225
0.6824282719576069 0.3723845536673326 0.2226136528691519
0.6026772588588747 0.5122225749133235 0.21001577916799904
0.5943742642021835 0.4124196238678368 0.32638390517293003
0.7103054766874108 0.5139669638725749 0.28920678881594225
0.8824282719576069 0.3723845536673326 0.2226136528691519
0.8026772588588748 0.5122225749133235 0.21001577916799904
0.7943742642021836 0.4124196238678368 0.32638390517293003
0.9103054766874108 0.5139669638725749 0.28920678881594225
0.08242827195760692 0.5723845536673327 0.2226136528691519
0.002677258858874697 0.7122225749133234 0.21001577916799904
-0.005625735797816523 0.6124196238678369 0.32638390517293003
0.11030547668741075 0.7139669638725749 0.28920678881594225
0.28242827195760695 0.5723845536673327 0.2226136528691519
0.2026772588588747 0.7122225749133234 0.21001577916799904
0.19437426420218348 0.6124196238678369 0.32638390517293003
0.31030547668741076 0.7139669638725749 0.28920678881594225
0.48242827195760696 0.5723845536673327 0.2226136528691519
0.40267725885887473 0.7122225749133234 0.21001577916799904
0.39437426420218347 0.6124196238678369 0.32638390517293003
0.5103054766874108 0.7139669638725749 0.28920678881594225
0.6824282719576069 0.5723845536673327 0.2226136528691519
0.6026772588588747 0.7122225749133234 0.21001577916799904
0.5943742642021835 0.6124196238678369 0.32638390517293003
0.7103054766874108 0.7139669638725749 0.28920678881594225
0.8824282719576069 0.5723845536673327 0.2226136528691519
0.8026772588588748 0.7122225749133234 0.21001577916799904
0.7943742642021836 0.6124196238678369 0.32638390517293003
0.9103054766874108 0.7139669638725749 0.28920678881594225
0.08242827195760692 0.7723845536673326 0.2226136528691519
0.002677258858874697 0.9122225749133235 0.21001577916799904
-0.005625735797816523 0.8124196238678367 0.32638390517293003
0.11030547668741075 0.9139669638725749 0.28920678881594225
0.28242827195760695 0.7723845536673326 0.2226136528691519
0.2026772588588747 0.9122225749133235 0.21001577916799904
0.19437426420218348 0.8124196238678367 0.32638390517293003
0.31030547668741076 0.9139669638725749 0.28920678881594225
0.48242827195760696 0.7723845536673326 0.2226136528691519
0.40267725885887473 0.9122225749133235 0.21001577916799904
0.39437426420218347 0.8124196238678367 0.32638390517293003
0.5103054766874108 0.9139669638725749 0.28920678881594225
0.6824282719576069 0.7723845536673326 0.2226136528691519
0.6026772588588747 0.9122225749133235 0.21001577916799904
0.5943742642021835 0.8124196238678367 0.32638390517293003
0.7103054766874108 0.9139669638725749 0.28920678881594225
0.8824282719576069 0.7723845536673326 0.2226136528691519
0.8026772588588748 0.9122225749133235 0.21001577916799904
0.7943742642021836 0.8124196238678367 0.32638390517293003
0.9103054766874108 0.9139669638725749 0.28920678881594225
0.08242827195760692 -0.027615446332667434 0.422613652869152
0.002677258858874697 0.1122225749133234 0.41001577916799903
-0.005625735797816523 0.012419623867836809 0.5263839051729301
0.11030547668741075 0.11396696387257486 0.48920678881594226
0.28242827195760695 -0.027615446332667434 0.422613652869152
0.2026772588588747 0.1122225749133234 0.41001577916799903
0.19437426420218348 0.012419623867836809 0.5263839051729301
0.31030547668741076 0.11396696387257486 0.48920678881594226
0.48242827195760696 -0.027615446332667434 0.422613652869152
0.40267725885887473 0.1122225749133234 0.41001577916799903
0.39437426420218347 0.012419623867836809 0.5263839051729301
0.5103054766874108 0.11396696387257486 0.48920678881594226
0.6824282719576069 -0.027615446332667434 0.422613652869152
0.6026772588588747 0.1122225749133234 0.41001577916799903
0.5943742642021835 0.012419623867836809 0.5263839051729301
0.7103054766874108 0.11396696387257486 0.48920678881594226
0.8824282719576069 -0.027615446332667434 0.422613652869152
0.8026772588588748 0.1122225749133234 0.41001577916799903
0.7943742642021836 0.012419623867836809 0.5263839051729301
0.9103054766874108 0.11396696387257486 0.48920678881594226
0.08242827195760692 0.17238455366733257 0.422613652869152
0.002677258858874697 0.3122225749133234 0.41001577916799903
-0.005625735797816523 0.21241962386783683 0.5263839051729301
0.11030547668741075 0.31396696387257483 0.48920678881594226
0.28242827195760695 0.17238455366733257 0.422613652869152
0.2026772588588747 0.3122225749133234 0.41001577916799903
0.19437426420218348 0.21241962386783683 0.5263839051729301
0.31030547668741076 0.31396696387257483 0.48920678881594226
0.48242827195760696 0.17238455366733257 0.422613652869152
0.40267725885887473 0.3122225749133234 0.41001577916799903
0.39437426420218347 0.21241962386783683 0.5263839051729301
0.5103054766874108 0.31396696387257483 0.48920678881594226
0.6824282719576069 0.17238455366733257 0.422613652869152
0.6026772588588747 0.3122225749133234 0.41001577916799903
0.5943742642021835 0.21241962386783683 0.5263839051729301
0.7103054766874108 0.31396696387257483 0.48920678881594226
0.8824282719576069 0.17238455366733257 0.422613652869152
0.8026772588588748 0.3122225749133234 0.41001577916799903
0.7943742642021836 0.21241962386783683 0.5263839051729301
0.9103054766874108 0.31396696387257483 0.48920678881594226
0.08242827195760692 0.3723845536673326 0.422613652869152
0.002677258858874697 0.5122225749133235 0.41001577916799903
-0.005625735797816523 0.4124196238678368 0.5263839051729301
0.11030547668741075 0.5139669638725749 0.48920678881594226
0.28242827195760695 0.3723845536673326 0.422613652869152
0.2026772588588747 0.5122225749133235 0.41001577916799903
0.19437426420218348 0.4124196238678368 0.5263839051729301
0.31030547668741076 0.5139669638725749 0.48920678881594226
0.48242827195760696 0.3723845536673326 0.422613652869152
0.40267725885887473 0.5122225749133235 0.41001577916799903
0.39437426420218347 0.4124196238678368 0.5263839051729301
0.5103054766874108 0.5139669638725749 0.48920678881594226
0.6824282719576069 0.3723845536673326 0.422613652869152
0.6026772588588747 0.5122225749133235 0.41001577916799903
0.5943742642021835 0.4124196238678368 0.5263839051729301
0.7103054766874108 0.5139669638725749 0.48920678881594226
0.8824282719576069 0.3723845536673326 0.422613652869152
0.8026772588588748 0.5122225749133235 0.41001577916799903
0.7943742642021836 0.4124196238678368 0.5263839051729301
0.9103054766874108 0.5139669638725749 0.48920678881594226
0.08242827195760692 0.5723845536673327 0.422613652869152
0.002677258858874697 0.7122225749133234 0.41001577916799903
-0.005625735797816523 0.6124196238678369 0.5263839051729301
0.11030547668741075 0.7139669638725749 0.48920678881594226
0.28242827195760695 0.5723845536673327 0.422613652869152
0.2026772588588747 0.7122225749133234 0.41001577916799903
0.19437426420218348 0.6124196238678369 0.5263839051729301
0.31030547668741076 0.7139669638725749 0.48920678881594226
0.48242827195760696 0.5723845536673327 0.422613652869152
0.40267725885887473 0.7122225749133234 0.41001577916799903
0.39437426420218347 0.6124196238678369 0.5263839051729301
0.5103054766874108 0.7139669638725749 0.48920678881594226
0.6824282719576069 0.5723845536673327 0.422613652869152
0.6026772588588747 0.7122225749133234 0.41001577916799903
0.5943742642021835 0.6124196238678369 0.5263839051729301
0.7103054766874108 0.7139669638725749 0.48920678881594226
0.8824282719576069 0.5723845536673327 0.422613652869152
0.8026772588588748 0.7122225749133234 0.41001577916799903
0.7943742642021836 0.6124196238678369 0.5263839051729301
0.9103054766874108 0.7139669638725749 0.48920678881594226
0.08242827195760692 0.7723845536673326 0.422613652869152
0.002677258858874697 0.9122225749133235 0.41001577916799903
-0.005625735797816523 0.8124196238678367 0.5263839051729301
0.11030547668741075 0.9139669638725749 0.48920678881594226
0.28242827195760695 0.7723845536673326 0.422613652869152
0.2026772588588747 0.9122225749133235 0.41001577916799903
0.19437426420218348 0.8124196238678367 0.5263839051729301
0.31030547668741076 0.9139669638725749 0.48920678881594226
0.48242827195760696 0.7723845536673326 0.422613652869152
0.40267725885887473 0.9122225749133235 0.41001577916799903
0.39437426420218347 0.8124196238678367 0.5263839051729301
0.5103054766874108 0.9139669638725749 0.48920678881594226
0.6824282719576069 0.7723845536673326 0.422613652869152
0.6026772588588747 0.9122225749133235 0.41001577916799903
0.5943742642021835 0.8124196238678367 0.5263839051729301
0.7103054766874108 0.9139669638725749 0.48920678881594226
0.8824282719576069 0.7723845536673326 0.422613652869152
0.8026772588588748 0.9122225749133235 0.41001577916799903
0.7943742642021836 0.8124196238678367 0.5263839051729301
0.9103054766874108 0.9139669638725749 0.48920678881594226
0.08242827195760692 -0.027615446332667434 0.6226136528691519
0.002677258858874697 0.1122225749133234 0.6100157791679991
-0.005625735797816523 0.012419623867836809 0.7263839051729302
0.11030547668741075 0.11396696387257486 0.6892067888159423
0.28242827195760695 -0.027615446332667434 0.6226136528691519
0.2026772588588747 0.1122225749133234 0.6100157791679991
0.19437426420218348 0.012419623867836809 0.7263839051729302
0.31030547668741076 0.11396696387257486 0.6892067888159423
0.48242827195760696 -0.027615446332667434 0.6226136528691519
0.40267725885887473 0.1122225749133234 0.6100157791679991
0.39437426420218347 0.012419623867836809 0.7263839051729302
0.5103054766874108 0.11396696387257486 0.6892067888159423
0.6824282719576069 -0.027615446332667434 0.6226136528691519
0.6026772588588747 0.1122225749133234 0.6100157791679991
0.5943742642021835 0.012419623867836809 0.7263839051729302
0.7103054766874108 0.11396696387257486 0.6892067888159423
0.8824282719576069 -0.027615446332667434 0.6226136528691519
0.8026772588588748 0.1122225749133234 0.6100157791679991
0.7943742642021836 0.012419623867836809 0.7263839051729302
0.9103054766874108 0.11396696387257486 0.6892067888159423
0.08242827195760692 0.17238455366733257 0.6226136528691519
0.002677258858874697 0.3122225749133234 0.6100157791679991
-0.005625735797816523 0.21241962386783683 0.7263839051729302
0.11030547668741075 0.31396696387257483 0.6892067888159423
0.28242827195760695 0.17238455366733257 0.6226136528691519
0.2026772588588747 0.3122225749133234 0.6100157791679991
0.19437426420218348 0.21241962386783683 0.7263839051729302
0.31030547668741076 0.31396696387257483 0.6892067888159423
0.48242827195760696 0.17238455366733257 0.6226136528691519
0.40267725885887473 0.3122225749133234 0.6100157791679991
0.39437426420218347 0.21241962386783683 0.7263839051729302
0.5103054766874108 0.31396696387257483 0.6892067888159423
0.6824282719576069 0.17238455366733257 0.6226136528691519
0.6026772588588747 0.3122225749133234 0.6100157791679991
0.5943742642021835 0.21241962386783683 0.7263839051729302
0.7103054766874108 0.31396696387257483 0.6892067888159423
0.8824282719576069 0.17238455366733257 0.6226136528691519
0.8026772588588748 0.3122225749133234 0.6100157791679991
0.7943742642021836 0.21241962386783683 0.7263839051729302
0.9103054766874108 0.31396696387257483 0.6892067888159423
0.08242827195760692 0.3723845536673326 0.6226136528691519
0.002677258858874697 0.5122225749133235 0.6100157791679991
-0.005625735797816523 0.4124196238678368 0.7263839051729302
0.11030547668741075 0.5139669638725749 0.6892067888159423
0.28242827195760695 0.3723845536673326 0.6226136528691519
0.2026772588588747 0.5122225749133235 0.6100157791679991
0.19437426420218348 0.4124196238678368 0.7263839051729302
0.31030547668741076 0.5139669638725749 0.6892067888159423
0.48242827195760696 0.3723845536673326 0.6226136528691519
0.40267725885887473 0.5122225749133235 0.6100157791679991
0.39437426420218347 0.4124196238678368 0.7263839051729302
0.5103054766874108 0.5139669638725749 0.6892067888159423
0.6824282719576069 0.3723845536673326 0.6226136528691519
0.6026772588588747 0.5122225749133235 0.6100157791679991
0.5943742642021835 0.4124196238678368 0.7263839051729302
0.7103054766874108 0.5139669638725749 0.6892067888159423
0.8824282719576069 0.3723845536673326 0.6226136528691519
0.8026772588588748 0.5122225749133235 0.6100157791679991
0.7943742642021836 0.4124196238678368 0.7263839051729302
0.9103054766874108 0.5139669638725749 0.6892067888159423
0.08242827195760692 0.5723845536673327 0.6226136528691519
0.002677258858874697 0.7122225749133234 0.6100157791679991
-0.005625735797816523 0.6124196238678369 0.7263839051729302
0.11030547668741075 0.7139669638725749 0.6892067888159423
0.28242827195760695 0.5723845536673327 0.6226136528691519
0.2026772588588747 0.7122225749133234 0.6100157791679991
0.19437426420218348 0.6124196238678369 0.7263839051729302
0.31030547668741076 0.7139669638725749 0.6892067888159423
0.48242827195760696 0.5723845536673327 0.6226136528691519
0.40267725885887473 0.7122225749133234 0.6100157791679991
0.39437426420218347 0.6124196238678369 0.7263839051729302
0.5103054766874108 0.7139669638725749 0.6892067888159423
0.6824282719576069 0.5723845536673327 0.6226136528691519
0.6026772588588747 0.7122225749133234 0.6100157791679991
0.5943742642021835 0.6124196238678369 0.7263839051729302
0.7103054766874108 0.7139669638725749 0.6892067888159423
0.8824282719576069 0.5723845536673327 0.6226136528691519
0.8026772588588748 0.7122225749133234 0.6100157791679991
0.7943742642021836 0.6124196238678369 0.7263839051729302
0.9103054766874108 0.7139669638725749 0.6892067888159423
0.08242827195760692 0.7723845536673326 0.6226136528691519
0.002677258858874697 0.9122225749133235 0.6100157791679991
-0.005625735797816523 0.8124196238678367 0.7263839051729302
0.11030547668741075 0.9139669638725749 0.6892067888159423
0.28242827195760695 0.7723845536673326 0.6226136528691519
0.2026772588588747 0.9122225749133235 0.6100157791679991
0.19437426420218348 0.8124196238678367 0.7263839051729302
0.31030547668741076 0.9139669638725749 0.6892067888159423
0.48242827195760696 0.7723845536673326 0.6226136528691519
0.40267725885887473 0.9122225749133235 0.6100157791679991
0.39437426420218347 0.8124196238678367 0.7263839051729302
0.5103054766874108 0.9139669638725749 0.6892067888159423
0.6824282719576069 0.7723845536673326 0.6226136528691519
0.6026772588588747 0.9122225749133235 0.6100157791679991
0.5943742642021835 0.8124196238678367 0.7263839051729302
0.7103054766874108 0.9139669638725749 0.6892067888159423
0.8824282719576069 0.7723845536673326 0.6226136528691519
0.8026772588588748 0.9122225749133235 0.6100157791679991
0.7943742642021836 0.8124196238678367 0.7263839051729302
0.9103054766874108 0.9139669638725749 0.6892067888159423
0.08242827195760692 -0.027615446332667434 0.822613652869152
0.002677258858874697 0.1122225749133234 0.810015779167999
-0.005625735797816523 0.012419623867836809 0.9263839051729301
0.11030547668741075 0.11396696387257486 0.8892067888159423
0.28242827195760695 -0.027615446332667434 0.822613652869152
0.2026772588588747 0.1122225749133234 0.810015779167999
0.19437426420218348 0.012419623867836809 0.9263839051729301
0.31030547668741076 0.11396696387257486 0.8892067888159423
0.48242827195760696 -0.027615446332667434 0.822613652869152
0.40267725885887473 0.1122225749133234 0.810015779167999
0.39437426420218347 0.012419623867836809 0.9263839051729301
0.5103054766874108 0.11396696387257486 0.8892067888159423
0.6824282719576069 -0.027615446332667434 0.822613652869152
0.6026772588588747 0.1122225749133234 0.810015779167999
0.5943742642021835 0.012419623867836809 0.9263839051729301
0.7103054766874108 0.11396696387257486 0.8892067888159423
0.8824282719576069 -0.027615446332667434 0.822613652869152
0.8026772588588748 0.1122225749133234 0.810015779167999
0.7943742642021836 0.012419623867836809 0.9263839051729301
0.9103054766874108 0.11396696387257486 0.8892067888159423
0.08242827195760692 0.17238455366733257 0.822613652869152
0.002677258858874697 0.3122225749133234 0.810015779167999
-0.005625735797816523 0.21241962386783683 0.9263839051729301
0.11030547668741075 0.31396696387257483 0.8892067888159423
0.28242827195760695 0.17238455366733257 0.822613652869152
0.2026772588588747 0.3122225749133234 0.810015779167999
0.19437426420218348 0.21241962386783683 0.9263839051729301
0.31030547668741076 0.31396696387257483 0.8892067888159423
0.48242827195760696 0.17238455366733257 0.822613652869152
0.40267725885887473 0.3122225749133234 0.810015779167999
0.39437426420218347 0.21241962386783683 0.9263839051729301
0.5103054766874108 0.31396696387257483 0.8892067888159423
0.6824282719576069 0.17238455366733257 0.822613652869152
0.6026772588588747 0.3122225749133234 0.810015779167999
0.5943742642021835 0.21241962386783683 0.9263839051729301
0.7103054766874108 0.31396696387257483 0.8892067888159423
0.8824282719576069 0.17238455366733257 0.822613652869152
0.8026772588588748 0.3122225749133234 0.810015779167999
0.7943742642021836 0.21241962386783683 0.9263839051729301
0.9103054766874108 0.31396696387257483 0.8892067888159423
0.08242827195760692 0.3723845536673326 0.822613652869152
0.002677258858874697 0.5122225749133235 0.810015779167999
-0.005625735797816523 0.4124196238678368 0.9263839051729301
0.11030547668741075 0.5139669638725749 0.8892067888159423
0.28242827195760695 0.3723845536673326 0.822613652869152
0.2026772588588747 0.5122225749133235 0.810015779167999
0.19437426420218348 0.4124196238678368 0.9263839051729301
0.31030547668741076 0.5139669638725749 0.8892067888159423
0.48242827195760696 0.3723845536673326 0.822613652869152
0.40267725885887473 0.5122225749133235 0.810015779167999
0.39437426420218347 0.4124196238678368 0.9263839051729301
0.5103054766874108 0.5139669638725749 0.8892067888159423
0.6824282719576069 0.3723845536673326 0.822613652869152
0.6026772588588747 0.5122225749133235 0.810015779167999
0.5943742642021835 0.4124196238678368 0.9263839051729301
0.7103054766874108 0.5139669638725749 0.8892067888159423
0.8824282719576069 0.3723845536673326 0.822613652869152
0.8026772588588748 0.5122225749133235 0.810015779167999
0.7943742642021836 0.4124196238678368 0.9263839051729301
0.9103054766874108 0.5139669638725749 0.8892067888159423
0.08242827195760692 0.5723845536673327 0.822613652869152
0.002677258858874697 0.7122225749133234 0.810015779167999
-0.005625735797816523 0.6124196238678369 0.9263839051729301
0.11030547668741075 0.7139669638725749 0.8892067888159423
0.28242827195760695 0.5723845536673327 0.822613652869152
0.2026772588588747 0.7122225749133234 0.810015779167999
0.19437426420218348 0.6124196238678369 0.9263839051729301
0.31030547668741076 0.7139669638725749 0.8892067888159423
0.48242827195760696 0.5723845536673327 0.822613652869152
0.40267725885887473 0.7122225749133234 0.810015779167999
0.39437426420218347 0.6124196238678369 0.9263839051729301
0.5103054766874108 0.7139669638725749 0.8892067888159423
0.6824282719576069 0.5723845536673327 0.822613652869152
0.6026772588588747 0.7122225749133234 0.810015779167999
0.5943742642021835 0.6124196238678369 0.9263839051729301
0.7103054766874108 0.7139669638725749 0.8892067888159423
0.8824282719576069 0.5723845536673327 0.822613652869152
0.8026772588588748 0.7122225749133234 0.810015779167999
0.7943742642021836 0.6124196238678369 0.9263839051729301
0.9103054766874108 0.7139669638725749 0.8892067888159423
0.08242827195760692 0.7723845536673326 0.822613652869152
0.002677258858874697 0.9122225749133235 0.810015779167999
-0.005625735797816523 0.8124196238678367 0.9263839051729301
0.11030547668741075 0.9139669638725749 0.8892067888159423
0.28242827195760695 0.7723845536673326 0.822613652869152
0.2026772588588747 0.9122225749133235 0.810015779167999
0.19437426420218348 0.8124196238678367 0.9263839051729301
0.31030547668741076 0.9139669638725749 0.8892067888159423
0.48242827195760696 0.7723845536673326 0.822613652869152
0.40267725885887473 0.9122225749133235 0.810015779167999
0.39437426420218347 0.8124196238678367 0.9263839051729301
0.5103054766874108 0.9139669638725749 0.8892067888159423
0.6824282719576069 0.7723845536673326 0.822613652869152
0.6026772588588747 0.9122225749133235 0.810015779167999
0.5943742642021835 0.8124196238678367 0.9263839051729301
0.7103054766874108 0.9139669638725749 0.8892067888159423
0.8824282719576069 0.7723845536673326 0.822613652869152
0.8026772588588748 0.9122225749133235 0.810015779167999
0.7943742642021836 0.8124196238678367 0.9263839051729301
0.9103054766874108 0.9139669638725749 0.8892067888159423
