FCC BaO
5.61604
3.0 0.0 0.0
0.0 3.0 0.0
0.0 0.0 3.0
Ba O 
108 108 
Direct
-0.21055470630821177 0.2091599678753348 0.06415581741265397
-0.06113824803314906 0.16638775519265211 0.13950121348999905
0.21964939464648495 0.06717664324937136 0.14603806029717548
0.14451077478901714 0.13316356427877324 0.14191633883818397
0.12277862702512155 0.2091599678753348 0.06415581741265397
0.27219508530018427 0.16638775519265211 0.13950121348999905
0.5529827279798183 0.06717664324937136 0.14603806029717548
0.47784410812235045 0.13316356427877324 0.14191633883818397
0.4561119603584549 0.2091599678753348 0.06415581741265397
0.6055284186335176 0.16638775519265211 0.13950121348999905
0.8863160613131515 0.06717664324937136 0.14603806029717548
0.8111774414556838 0.13316356427877324 0.14191633883818397
-0.21055470630821177 0.5424933012086681 0.06415581741265397
-0.06113824803314906 0.4997210885259854 0.13950121348999905
0.21964939464648495 0.4005099765827047 0.14603806029717548
0.14451077478901714 0.46649689761210655 0.14191633883818397
0.12277862702512155 0.5424933012086681 0.06415581741265397
0.27219508530018427 0.4997210885259854 0.13950121348999905
0.5529827279798183 0.4005099765827047 0.14603806029717548
0.47784410812235045 0.46649689761210655 0.14191633883818397
0.4561119603584549 0.5424933012086681 0.06415581741265397
0.6055284186335176 0.4997210885259854 0.13950121348999905
0.8863160613131515 0.4005099765827047 0.14603806029717548
0.8111774414556838 0.46649689761210655 0.14191633883818397
-0.21055470630821177 0.8758266345420014 0.06415581741265397
-0.06113824803314906 0.8330544218593188 0.13950121348999905
0.21964939464648495 0.733843309916038 0.14603806029717548
0.14451077478901714 0.7998302309454398 0.14191633883818397
0.12277862702512155 0.8758266345420014 0.06415581741265397
0.27219508530018427 0.8330544218593188 0.13950121348999905
0.5529827279798183 0.733843309916038 0.14603806029717548
0.47784410812235045 0.7998302309454398 0.14191633883818397
0.4561119603584549 0.8758266345420014 0.06415581741265397
0.6055284186335176 0.8330544218593188 0.13950121348999905
0.8863160613131515 0.733843309916038 0.14603806029717548
0.8111774414556838 0.7998302309454398 0.14191633883818397
-0.21055470630821177 0.2091599678753348 0.3974891507459873
-0.06113824803314906 0.16638775519265211 0.47283454682333237
0.21964939464648495 0.06717664324937136 0.47937139363050874
0.14451077478901714 0.13316356427877324 0.47524967217151726
0.12277862702512155 0.2091599678753348 0.3974891507459873
0.27219508530018427 0.16638775519265211 0.47283454682333237
0.5529827279798183 0.06717664324937136 0.47937139363050874
0.47784410812235045 0.13316356427877324 0.47524967217151726
0.4561119603584549 0.2091599678753348 0.3974891507459873
0.6055284186335176 0.16638775519265211 0.47283454682333237
0.8863160613131515 0.06717664324937136 0.47937139363050874
0.8111774414556838 0.13316356427877324 0.47524967217151726
-0.21055470630821177 0.5424933012086681 0.3974891507459873
-0.06113824803314906 0.4997210885259854 0.47283454682333237
0.21964939464648495 0.4005099765827047 0.47937139363050874
0.14451077478901714 0.46649689761210655 0.47524967217151726
0.12277862702512155 0.5424933012086681 0.3974891507459873
0.27219508530018427 0.4997210885259854 0.47283454682333237
0.5529827279798183 0.4005099765827047 0.47937139363050874
0.47784410812235045 0.46649689761210655 0.47524967217151726
0.4561119603584549 0.5424933012086681 0.3974891507459873
0.6055284186335176 0.4997210885259854 0.47283454682333237
0.8863160613131515 0.4005099765827047 0.47937139363050874
0.8111774414556838 0.46649689761210655 0.47524967217151726
-0.21055470630821177 0.8758266345420014 0.3974891507459873
-0.06113824803314906 0.8330544218593188 0.47283454682333237
0.21964939464648495 0.733843309916038 0.47937139363050874
0.14451077478901714 0.7998302309454398 0.47524967217151726
0.12277862702512155 0.8758266345420014 0.3974891507459873
0.27219508530018427 0.8330544218593188 0.47283454682333237
0.5529827279798183 0.733843309916038 0.47937139363050874
0.47784410812235045 0.7998302309454398 0.47524967217151726
0.4561119603584549 0.8758266345420014 0.3974891507459873
0.6055284186335176 0.8330544218593188 0.47283454682333237
0.8863160613131515 0.733843309916038 0.47937139363050874
0.8111774414556838 0.7998302309454398 0.47524967217151726
-0.21055470630821177 0.2091599678753348 0.7308224840793206
-0.06113824803314906 0.16638775519265211 0.8061678801566657
0.21964939464648495 0.06717664324937136 0.8127047269638421
0.14451077478901714 0.13316356427877324 0.8085830055048506
0.12277862702512155 0.2091599678753348 0.7308224840793206
0.27219508530018427 0.16638775519265211 0.8061678801566657
0.5529827279798183 0.06717664324937136 0.8127047269638421
0.47784410812235045 0.13316356427877324 0.8085830055048506
0.4561119603584549 0.2091599678753348 0.7308224840793206
0.6055284186335176 0.16638775519265211 0.8061678801566657
0.8863160613131515 0.06717664324937136 0.8127047269638421
0.8111774414556838 0.13316356427877324 0.8085830055048506
-0.21055470630821177 0.5424933012086681 0.7308224840793206
-0.06113824803314906 0.4997210885259854 0.8061678801566657
0.21964939464648495 0.4005099765827047 0.8127047269638421
0.14451077478901714 0.46649689761210655 0.8085830055048506
0.12277862702512155 0.5424933012086681 0.7308224840793206
0.27219508530018427 0.4997210885259854 0.8061678801566657
0.5529827279798183 0.4005099765827047 0.8127047269638421
0.47784410812235045 0.46649689761210655 0.8085830055048506
0.4561119603584549 0.5424933012086681 0.7308224840793206
0.6055284186335176 0.4997210885259854 0.8061678801566657
0.8863160613131515 0.4005099765827047 0.8127047269638421
0.8111774414556838 0.46649689761210655 0.8085830055048506
-0.21055470630821177 0.8758266345420014 0.7308224840793206
-0.06113824803314906 0.8330544218593188 0.8061678801566657
0.21964939464648495 0.733843309916038 0.8127047269638421
0.14451077478901714 0.7998302309454398 0.8085830055048506
0.12277862702512155 0.8758266345420014 0.7308224840793206
0.27219508530018427 0.8330544218593188 0.8061678801566657
0.5529827279798183 0.733843309916038 0.8127047269638421
0.47784410812235045 0.7998302309454398 0.8085830055048506
0.4561119603584549 0.8758266345420014 0.7308224840793206
0.6055284186335176 0.8330544218593188 0.8061678801566657
0.8863160613131515 0.733843309916038 0.8127047269638421
0.8111774414556838 0.7998302309454398 0.8085830055048506
0.10670371404222258 -0.09475192704948811 -0.19619575864885358
-0.09151238261596213 0.2650059397568545 0.3755955885689367
0.023156293564478354 -0.21507429546520196 0.2322193641274504
0.23107766048631453 0.21891243012241401 0.2677007796514655
0.44003704737555593 -0.09475192704948811 -0.19619575864885358
0.2418209507173712 0.2650059397568545 0.3755955885689367
0.3564896268978117 -0.21507429546520196 0.2322193641274504
0.5644109938196478 0.21891243012241401 0.2677007796514655
0.7733703807088892 -0.09475192704948811 -0.19619575864885358
0.5751542840507045 0.2650059397568545 0.3755955885689367
0.689822960231145 -0.21507429546520196 0.2322193641274504
0.8977443271529811 0.21891243012241401 0.2677007796514655
0.10670371404222258 0.23858140628384522 -0.19619575864885358
-0.09151238261596213 0.5983392730901878 0.3755955885689367
0.023156293564478354 0.11825903786813137 0.2322193641274504
0.23107766048631453 0.5522457634557473 0.2677007796514655
0.44003704737555593 0.23858140628384522 -0.19619575864885358
0.2418209507173712 0.5983392730901878 0.3755955885689367
0.3564896268978117 0.11825903786813137 0.2322193641274504
0.5644109938196478 0.5522457634557473 0.2677007796514655
0.7733703807088892 0.23858140628384522 -0.19619575864885358
0.5751542840507045 0.5983392730901878 0.3755955885689367
0.689822960231145 0.11825903786813137 0.2322193641274504
0.8977443271529811 0.5522457634557473 0.2677007796514655
0.10670371404222258 0.5719147396171785 -0.19619575864885358
-0.09151238261596213 0.9316726064235211 0.3755955885689367
0.023156293564478354 0.4515923712014647 0.2322193641274504
0.23107766048631453 0.8855790967890806 0.2677007796514655
0.44003704737555593 0.5719147396171785 -0.19619575864885358
0.2418209507173712 0.9316726064235211 0.3755955885689367
0.3564896268978117 0.4515923712014647 0.2322193641274504
0.5644109938196478 0.8855790967890806 0.2677007796514655
0.7733703807088892 0.5719147396171785 -0.19619575864885358
0.5751542840507045 0.9316726064235211 0.3755955885689367
0.689822960231145 0.4515923712014647 0.2322193641274504
0.8977443271529811 0.8855790967890806 0.2677007796514655
0.10670371404222258 -0.09475192704948811 0.13713757468447973
-0.09151238261596213 0.2650059397568545 0.70892892190227
0.023156293564478354 -0.21507429546520196 0.5655526974607837
0.23107766048631453 0.21891243012241401 0.6010341129847988
0.44003704737555593 -0.09475192704948811 0.13713757468447973
0.2418209507173712 0.2650059397568545 0.70892892190227
0.3564896268978117 -0.21507429546520196 0.5655526974607837
0.5644109938196478 0.21891243012241401 0.6010341129847988
0.7733703807088892 -0.09475192704948811 0.13713757468447973
0.5751542840507045 0.2650059397568545 0.70892892190227
0.689822960231145 -0.21507429546520196 0.5655526974607837
0.8977443271529811 0.21891243012241401 0.6010341129847988
0.10670371404222258 0.23858140628384522 0.13713757468447973
-0.09151238261596213 0.5983392730901878 0.70892892190227
0.023156293564478354 0.11825903786813137 0.5655526974607837
0.23107766048631453 0.5522457634557473 0.6010341129847988
0.44003704737555593 0.23858140628384522 0.13713757468447973
0.2418209507173712 0.5983392730901878 0.70892892190227
0.3564896268978117 0.11825903786813137 0.5655526974607837
0.5644109938196478 0.5522457634557473 0.6010341129847988
0.7733703807088892 0.23858140628384522 0.13713757468447973
0.5751542840507045 0.5983392730901878 0.70892892190227
0.689822960231145 0.11825903786813137 0.5655526974607837
0.8977443271529811 0.5522457634557473 0.6010341129847988
0.10670371404222258 0.5719147396171785 0.13713757468447973
-0.09151238261596213 0.9316726064235211 0.70892892190227
0.023156293564478354 0.4515923712014647 0.5655526974607837
0.23107766048631453 0.8855790967890806 0.6010341129847988
0.44003704737555593 0.5719147396171785 0.13713757468447973
0.2418209507173712 0.9316726064235211 0.70892892190227
0.3564896268978117 0.4515923712014647 0.5655526974607837
0.5644109938196478 0.8855790967890806 0.6010341129847988
0.7733703807088892 0.5719147396171785 0.13713757468447973
0.5751542840507045 0.9316726064235211 0.70892892190227
0.689822960231145 0.4515923712014647 0.5655526974607837
0.8977443271529811 0.8855790967890806 0.6010341129847988
0.10670371404222258 -0.09475192704948811 0.4704709080178131
-0.09151238261596213 0.2650059397568545 1.0422622552356033
0.023156293564478354 -0.21507429546520196 0.8988860307941171
0.23107766048631453 0.21891243012241401 0.9343674463181322
0.44003704737555593 -0.09475192704948811 0.4704709080178131
0.2418209507173712 0.2650059397568545 1.0422622552356033
0.3564896268978117 -0.21507429546520196 0.8988860307941171
0.5644109938196478 0.21891243012241401 0.9343674463181322
0.7733703807088892 -0.09475192704948811 0.4704709080178131
0.5751542840507045 0.2650059397568545 1.0422622552356033
0.689822960231145 -0.21507429546520196 0.8988860307941171
0.8977443271529811 0.21891243012241401 0.9343674463181322
0.10670371404222258 0.23858140628384522 0.4704709080178131
-0.09151238261596213 0.5983392730901878 1.0422622552356033
0.023156293564478354 0.11825903786813137 0.8988860307941171
0.23107766048631453 0.5522457634557473 0.9343674463181322
0.44003704737555593 0.23858140628384522 0.4704709080178131
0.2418209507173712 0.5983392730901878 1.0422622552356033
0.3564896268978117 0.11825903786813137 0.8988860307941171
0.5644109938196478 0.5522457634557473 0.9343674463181322
0.7733703807088892 0.23858140628384522 0.4704709080178131
0.5751542840507045 0.5983392730901878 1.0422622552356033
0.689822960231145 0.11825903786813137 0.8988860307941171
0.8977443271529811 0.5522457634557473 0.9343674463181322
0.10670371404222258 0.5719147396171785 0.4704709080178131
-0.09151238261596213 0.9316726064235211 1.0422622552356033
0.023156293564478354 0.4515923712014647 0.8988860307941171
0.23107766048631453 0.8855790967890806 0.9343674463181322
0.44003704737555593 0.5719147396171785 0.4704709080178131
0.2418209507173712 0.9316726064235211 1.0422622552356033
0.3564896268978117 0.4515923712014647 0.8988860307941171
0.5644109938196478 0.8855790967890806 0.9343674463181322
0.7733703807088892 0.5719147396171785 0.4704709080178131
0.5751542840507045 0.9316726064235211 1.0422622552356033
0.689822960231145 0.4515923712014647 0.8988860307941171
0.8977443271529811 0.8855790967890806 0.9343674463181322
