FCC BaO
5.61604
3.0 0.0 0.0
0.0 3.0 0.0
0.0 0.0 3.0
Ba O 
108 108 
Direct
-0.18625075283678233 -0.055042969685036344 0.05718398683236154
0.06780101509558323 0.37064170268317664 0.2839828819927223
-0.024935813664346513 0.03171278163037317 0.28644132509766584
0.4646689209358866 0.3646694385001652 -0.11603550532351077
0.14708258049655099 -0.055042969685036344 0.05718398683236154
0.40113434842891654 0.37064170268317664 0.2839828819927223
0.3083975196689868 0.03171278163037317 0.28644132509766584
0.7980022542692199 0.3646694385001652 -0.11603550532351077
0.4804159138298843 -0.055042969685036344 0.05718398683236154
0.7344676817622499 0.37064170268317664 0.2839828819927223
0.6417308530023201 0.03171278163037317 0.28644132509766584
1.1313355876025533 0.3646694385001652 -0.11603550532351077
-0.18625075283678233 0.27829036364829696 0.05718398683236154
0.06780101509558323 0.70397503601651 0.2839828819927223
-0.024935813664346513 0.36504611496370654 0.28644132509766584
0.4646689209358866 0.6980027718334985 -0.11603550532351077
0.14708258049655099 0.27829036364829696 0.05718398683236154
0.40113434842891654 0.70397503601651 0.2839828819927223
0.3083975196689868 0.36504611496370654 0.28644132509766584
0.7980022542692199 0.6980027718334985 -0.11603550532351077
0.4804159138298843 0.27829036364829696 0.05718398683236154
0.7344676817622499 0.70397503601651 0.2839828819927223
0.6417308530023201 0.36504611496370654 0.28644132509766584
1.1313355876025533 0.6980027718334985 -0.11603550532351077
-0.18625075283678233 0.6116236969816302 0.05718398683236154
0.06780101509558323 1.0373083693498433 0.2839828819927223
-0.024935813664346513 0.6983794482970398 0.28644132509766584
0.4646689209358866 1.0313361051668317 -0.11603550532351077
0.14708258049655099 0.6116236969816302 0.05718398683236154
0.40113434842891654 1.0373083693498433 0.2839828819927223
0.3083975196689868 0.6983794482970398 0.28644132509766584
0.7980022542692199 1.0313361051668317 -0.11603550532351077
0.4804159138298843 0.6116236969816302 0.05718398683236154
0.7344676817622499 1.0373083693498433 0.2839828819927223
0.6417308530023201 0.6983794482970398 0.28644132509766584
1.1313355876025533 1.0313361051668317 -0.11603550532351077
-0.18625075283678233 -0.055042969685036344 0.39051732016569485
0.06780101509558323 0.37064170268317664 0.6173162153260556
-0.024935813664346513 0.03171278163037317 0.6197746584309991
0.4646689209358866 0.3646694385001652 0.21729782800982256
0.14708258049655099 -0.055042969685036344 0.39051732016569485
0.40113434842891654 0.37064170268317664 0.6173162153260556
0.3083975196689868 0.03171278163037317 0.6197746584309991
0.7980022542692199 0.3646694385001652 0.21729782800982256
0.4804159138298843 -0.055042969685036344 0.39051732016569485
0.7344676817622499 0.37064170268317664 0.6173162153260556
0.6417308530023201 0.03171278163037317 0.6197746584309991
1.1313355876025533 0.3646694385001652 0.21729782800982256
-0.18625075283678233 0.27829036364829696 0.39051732016569485
0.06780101509558323 0.70397503601651 0.6173162153260556
-0.024935813664346513 0.36504611496370654 0.6197746584309991
0.4646689209358866 0.6980027718334985 0.21729782800982256
0.14708258049655099 0.27829036364829696 0.39051732016569485
0.40113434842891654 0.70397503601651 0.6173162153260556
0.3083975196689868 0.36504611496370654 0.6197746584309991
0.7980022542692199 0.6980027718334985 0.21729782800982256
0.4804159138298843 0.27829036364829696 0.39051732016569485
0.7344676817622499 0.70397503601651 0.6173162153260556
0.6417308530023201 0.36504611496370654 0.6197746584309991
1.1313355876025533 0.6980027718334985 0.21729782800982256
-0.18625075283678233 0.6116236969816302 0.39051732016569485
0.06780101509558323 1.0373083693498433 0.6173162153260556
-0.024935813664346513 0.6983794482970398 0.6197746584309991
0.4646689209358866 1.0313361051668317 0.21729782800982256
0.14708258049655099 0.6116236969816302 0.39051732016569485
0.40113434842891654 1.0373083693498433 0.6173162153260556
0.3083975196689868 0.6983794482970398 0.6197746584309991
0.7980022542692199 1.0313361051668317 0.21729782800982256
0.4804159138298843 0.6116236969816302 0.39051732016569485
0.7344676817622499 1.0373083693498433 0.6173162153260556
0.6417308530023201 0.6983794482970398 0.6197746584309991
1.1313355876025533 1.0313361051668317 0.21729782800982256
-0.18625075283678233 -0.055042969685036344 0.7238506534990281
0.06780101509558323 0.37064170268317664 0.950649548659389
-0.024935813664346513 0.03171278163037317 0.9531079917643324
0.4646689209358866 0.3646694385001652 0.5506311613431558
0.14708258049655099 -0.055042969685036344 0.7238506534990281
0.40113434842891654 0.37064170268317664 0.950649548659389
0.3083975196689868 0.03171278163037317 0.9531079917643324
0.7980022542692199 0.3646694385001652 0.5506311613431558
0.4804159138298843 -0.055042969685036344 0.7238506534990281
0.7344676817622499 0.37064170268317664 0.950649548659389
0.6417308530023201 0.03171278163037317 0.9531079917643324
1.1313355876025533 0.3646694385001652 0.5506311613431558
-0.18625075283678233 0.27829036364829696 0.7238506534990281
0.06780101509558323 0.70397503601651 0.950649548659389
-0.024935813664346513 0.36504611496370654 0.9531079917643324
0.4646689209358866 0.6980027718334985 0.5506311613431558
0.14708258049655099 0.27829036364829696 0.7238506534990281
0.40113434842891654 0.70397503601651 0.950649548659389
0.3083975196689868 0.36504611496370654 0.9531079917643324
0.7980022542692199 0.6980027718334985 0.5506311613431558
0.4804159138298843 0.27829036364829696 0.7238506534990281
0.7344676817622499 0.70397503601651 0.950649548659389
0.6417308530023201 0.36504611496370654 0.9531079917643324
1.1313355876025533 0.6980027718334985 0.5506311613431558
-0.18625075283678233 0.6116236969816302 0.7238506534990281
0.06780101509558323 1.0373083693498433 0.950649548659389
-0.024935813664346513 0.6983794482970398 0.9531079917643324
0.4646689209358866 1.0313361051668317 0.5506311613431558
0.14708258049655099 0.6116236969816302 0.7238506534990281
0.40113434842891654 1.0373083693498433 0.950649548659389
0.3083975196689868 0.6983794482970398 0.9531079917643324
0.7980022542692199 1.0313361051668317 0.5506311613431558
0.4804159138298843 0.6116236969816302 0.7238506534990281
0.7344676817622499 1.0373083693498433 0.950649548659389
0.6417308530023201 0.6983794482970398 0.9531079917643324
1.1313355876025533 1.0313361051668317 0.5506311613431558
0.21168074257597236 0.1219687246346545 0.0399916560786517
0.09592485158251048 0.11348119162314282 -0.10663285030713385
-0.29625352670901584 0.028505063868644764 0.3509022634347674
0.16568523915885774 0.16260698545658075 -0.05727551213888639
0.5450140759093056 0.1219687246346545 0.0399916560786517
0.4292581849158438 0.11348119162314282 -0.10663285030713385
0.03707980662431746 0.028505063868644764 0.3509022634347674
0.49901857249219106 0.16260698545658075 -0.05727551213888639
0.8783474092426389 0.1219687246346545 0.0399916560786517
0.762591518249177 0.11348119162314282 -0.10663285030713385
0.37041313995765074 0.028505063868644764 0.3509022634347674
0.8323519058255244 0.16260698545658075 -0.05727551213888639
0.21168074257597236 0.45530205796798784 0.0399916560786517
0.09592485158251048 0.44681452495647617 -0.10663285030713385
-0.29625352670901584 0.3618383972019781 0.3509022634347674
0.16568523915885774 0.49594031878991407 -0.05727551213888639
0.5450140759093056 0.45530205796798784 0.0399916560786517
0.4292581849158438 0.44681452495647617 -0.10663285030713385
0.03707980662431746 0.3618383972019781 0.3509022634347674
0.49901857249219106 0.49594031878991407 -0.05727551213888639
0.8783474092426389 0.45530205796798784 0.0399916560786517
0.762591518249177 0.44681452495647617 -0.10663285030713385
0.37041313995765074 0.3618383972019781 0.3509022634347674
0.8323519058255244 0.49594031878991407 -0.05727551213888639
0.21168074257597236 0.7886353913013211 0.0399916560786517
0.09592485158251048 0.7801478582898095 -0.10663285030713385
-0.29625352670901584 0.6951717305353113 0.3509022634347674
0.16568523915885774 0.8292736521232473 -0.05727551213888639
0.5450140759093056 0.7886353913013211 0.0399916560786517
0.4292581849158438 0.7801478582898095 -0.10663285030713385
0.03707980662431746 0.6951717305353113 0.3509022634347674
0.49901857249219106 0.8292736521232473 -0.05727551213888639
0.8783474092426389 0.7886353913013211 0.0399916560786517
0.762591518249177 0.7801478582898095 -0.10663285030713385
0.37041313995765074 0.6951717305353113 0.3509022634347674
0.8323519058255244 0.8292736521232473 -0.05727551213888639
0.21168074257597236 0.1219687246346545 0.373324989411985
0.09592485158251048 0.11348119162314282 0.22670048302619944
-0.29625352670901584 0.028505063868644764 0.6842355967681006
0.16568523915885774 0.16260698545658075 0.27605782119444694
0.5450140759093056 0.1219687246346545 0.373324989411985
0.4292581849158438 0.11348119162314282 0.22670048302619944
0.03707980662431746 0.028505063868644764 0.6842355967681006
0.49901857249219106 0.16260698545658075 0.27605782119444694
0.8783474092426389 0.1219687246346545 0.373324989411985
0.762591518249177 0.11348119162314282 0.22670048302619944
0.37041313995765074 0.028505063868644764 0.6842355967681006
0.8323519058255244 0.16260698545658075 0.27605782119444694
0.21168074257597236 0.45530205796798784 0.373324989411985
0.09592485158251048 0.44681452495647617 0.22670048302619944
-0.29625352670901584 0.3618383972019781 0.6842355967681006
0.16568523915885774 0.49594031878991407 0.27605782119444694
0.5450140759093056 0.45530205796798784 0.373324989411985
0.4292581849158438 0.44681452495647617 0.22670048302619944
0.03707980662431746 0.3618383972019781 0.6842355967681006
0.49901857249219106 0.49594031878991407 0.27605782119444694
0.8783474092426389 0.45530205796798784 0.373324989411985
0.762591518249177 0.44681452495647617 0.22670048302619944
0.37041313995765074 0.3618383972019781 0.6842355967681006
0.8323519058255244 0.49594031878991407 0.27605782119444694
0.21168074257597236 0.7886353913013211 0.373324989411985
0.09592485158251048 0.7801478582898095 0.22670048302619944
-0.29625352670901584 0.6951717305353113 0.6842355967681006
0.16568523915885774 0.8292736521232473 0.27605782119444694
0.5450140759093056 0.7886353913013211 0.373324989411985
0.4292581849158438 0.7801478582898095 0.22670048302619944
0.03707980662431746 0.6951717305353113 0.6842355967681006
0.49901857249219106 0.8292736521232473 0.27605782119444694
0.8783474092426389 0.7886353913013211 0.373324989411985
0.762591518249177 0.7801478582898095 0.22670048302619944
0.37041313995765074 0.6951717305353113 0.6842355967681006
0.8323519058255244 0.8292736521232473 0.27605782119444694
0.21168074257597236 0.1219687246346545 0.7066583227453183
0.09592485158251048 0.11348119162314282 0.5600338163595328
-0.29625352670901584 0.028505063868644764 1.017568930101434
0.16568523915885774 0.16260698545658075 0.6093911545277803
0.5450140759093056 0.1219687246346545 0.7066583227453183
0.4292581849158438 0.11348119162314282 0.5600338163595328
0.03707980662431746 0.028505063868644764 1.017568930101434
0.49901857249219106 0.16260698545658075 0.6093911545277803
0.8783474092426389 0.1219687246346545 0.7066583227453183
0.762591518249177 0.11348119162314282 0.5600338163595328
0.37041313995765074 0.028505063868644764 1.017568930101434
0.8323519058255244 0.16260698545658075 0.6093911545277803
0.21168074257597236 0.45530205796798784 0.7066583227453183
0.09592485158251048 0.44681452495647617 0.5600338163595328
-0.29625352670901584 0.3618383972019781 1.017568930101434
0.16568523915885774 0.49594031878991407 0.6093911545277803
0.5450140759093056 0.45530205796798784 0.7066583227453183
0.4292581849158438 0.44681452495647617 0.5600338163595328
0.03707980662431746 0.3618383972019781 1.017568930101434
0.49901857249219106 0.49594031878991407 0.6093911545277803
0.8783474092426389 0.45530205796798784 0.7066583227453183
0.762591518249177 0.44681452495647617 0.5600338163595328
0.37041313995765074 0.3618383972019781 1.017568930101434
0.8323519058255244 0.49594031878991407 0.6093911545277803
0.21168074257597236 0.7886353913013211 0.7066583227453183
0.09592485158251048 0.7801478582898095 0.5600338163595328
-0.29625352670901584 0.6951717305353113 1.017568930101434
0.16568523915885774 0.8292736521232473 0.6093911545277803
0.5450140759093056 0.7886353913013211 0.7066583227453183
0.4292581849158438 0.7801478582898095 0.5600338163595328
0.03707980662431746 0.6951717305353113 1.017568930101434
0.49901857249219106 0.8292736521232473 0.6093911545277803
0.8783474092426389 0.7886353913013211 0.7066583227453183
0.762591518249177 0.7801478582898095 0.5600338163595328
0.37041313995765074 0.6951717305353113 1.017568930101434
0.8323519058255244 0.8292736521232473 0.6093911545277803
