FCC BaO
3.971
5.0 0.0 0.0
0.0 5.0 0.0
0.0 0.0 5.0
Ba O 
500 500 
Direct
0.012973138670160209 -0.013399886061641345 0.02195481273149072
-0.0060289105379456275 0.08148747374120265 0.07448220389234883
0.07627675262783985 0.014339733771577429 0.09359649105344275
0.09793254410833933 0.12739490112209567 -0.0037283561417046232
0.2129731386701602 -0.013399886061641345 0.02195481273149072
0.19397108946205438 0.08148747374120265 0.07448220389234883
0.27627675262783985 0.014339733771577429 0.09359649105344275
0.2979325441083393 0.12739490112209567 -0.0037283561417046232
0.4129731386701602 -0.013399886061641345 0.02195481273149072
0.3939710894620544 0.08148747374120265 0.07448220389234883
0.4762767526278399 0.014339733771577429 0.09359649105344275
0.4979325441083393 0.12739490112209567 -0.0037283561417046232
0.6129731386701602 -0.013399886061641345 0.02195481273149072
0.5939710894620543 0.08148747374120265 0.07448220389234883
0.6762767526278399 0.014339733771577429 0.09359649105344275
0.6979325441083394 0.12739490112209567 -0.0037283561417046232
0.8129731386701602 -0.013399886061641345 0.02195481273149072
0.7939710894620544 0.08148747374120265 0.07448220389234883
0.8762767526278399 0.014339733771577429 0.09359649105344275
0.8979325441083393 0.12739490112209567 -0.0037283561417046232
0.012973138670160209 0.18660011393835865 0.02195481273149072
-0.0060289105379456275 0.28148747374120264 0.07448220389234883
0.07627675262783985 0.21433973377157745 0.09359649105344275
0.09793254410833933 0.3273949011220957 -0.0037283561417046232
0.2129731386701602 0.18660011393835865 0.02195481273149072
0.19397108946205438 0.28148747374120264 0.07448220389234883
0.27627675262783985 0.21433973377157745 0.09359649105344275
0.2979325441083393 0.3273949011220957 -0.0037283561417046232
0.4129731386701602 0.18660011393835865 0.02195481273149072
0.3939710894620544 0.28148747374120264 0.07448220389234883
0.4762767526278399 0.21433973377157745 0.09359649105344275
0.4979325441083393 0.3273949011220957 -0.0037283561417046232
0.6129731386701602 0.18660011393835865 0.02195481273149072
0.5939710894620543 0.28148747374120264 0.07448220389234883
0.6762767526278399 0.21433973377157745 0.09359649105344275
0.6979325441083394 0.3273949011220957 -0.0037283561417046232
0.8129731386701602 0.18660011393835865 0.02195481273149072
0.7939710894620544 0.28148747374120264 0.07448220389234883
0.8762767526278399 0.21433973377157745 0.09359649105344275
0.8979325441083393 0.3273949011220957 -0.0037283561417046232
0.012973138670160209 0.3866001139383587 0.02195481273149072
-0.0060289105379456275 0.48148747374120265 0.07448220389234883
0.07627675262783985 0.4143397337715775 0.09359649105344275
0.09793254410833933 0.5273949011220956 -0.0037283561417046232
0.2129731386701602 0.3866001139383587 0.02195481273149072
0.19397108946205438 0.48148747374120265 0.07448220389234883
0.27627675262783985 0.4143397337715775 0.09359649105344275
0.2979325441083393 0.5273949011220956 -0.0037283561417046232
0.4129731386701602 0.3866001139383587 0.02195481273149072
0.3939710894620544 0.48148747374120265 0.07448220389234883
0.4762767526278399 0.4143397337715775 0.09359649105344275
0.4979325441083393 0.5273949011220956 -0.0037283561417046232
0.6129731386701602 0.3866001139383587 0.02195481273149072
0.5939710894620543 0.48148747374120265 0.07448220389234883
0.6762767526278399 0.4143397337715775 0.09359649105344275
0.6979325441083394 0.5273949011220956 -0.0037283561417046232
0.8129731386701602 0.3866001139383587 0.02195481273149072
0.7939710894620544 0.48148747374120265 0.07448220389234883
0.8762767526278399 0.4143397337715775 0.09359649105344275
0.8979325441083393 0.5273949011220956 -0.0037283561417046232
0.012973138670160209 0.5866001139383586 0.02195481273149072
-0.0060289105379456275 0.6814874737412027 0.07448220389234883
0.07627675262783985 0.6143397337715775 0.09359649105344275
0.09793254410833933 0.7273949011220957 -0.0037283561417046232
0.2129731386701602 0.5866001139383586 0.02195481273149072
0.19397108946205438 0.6814874737412027 0.07448220389234883
0.27627675262783985 0.6143397337715775 0.09359649105344275
0.2979325441083393 0.7273949011220957 -0.0037283561417046232
0.4129731386701602 0.5866001139383586 0.02195481273149072
0.3939710894620544 0.6814874737412027 0.07448220389234883
0.4762767526278399 0.6143397337715775 0.09359649105344275
0.4979325441083393 0.7273949011220957 -0.0037283561417046232
0.6129731386701602 0.5866001139383586 0.02195481273149072
0.5939710894620543 0.6814874737412027 0.07448220389234883
0.6762767526278399 0.6143397337715775 0.09359649105344275
0.6979325441083394 0.7273949011220957 -0.0037283561417046232
0.8129731386701602 0.5866001139383586 0.02195481273149072
0.7939710894620544 0.6814874737412027 0.07448220389234883
0.8762767526278399 0.6143397337715775 0.09359649105344275
0.8979325441083393 0.7273949011220957 -0.0037283561417046232
0.012973138670160209 0.7866001139383587 0.02195481273149072
-0.0060289105379456275 0.8814874737412026 0.07448220389234883
0.07627675262783985 0.8143397337715774 0.09359649105344275
0.09793254410833933 0.9273949011220957 -0.0037283561417046232
0.2129731386701602 0.7866001139383587 0.02195481273149072
0.19397108946205438 0.8814874737412026 0.07448220389234883
0.27627675262783985 0.8143397337715774 0.09359649105344275
0.2979325441083393 0.9273949011220957 -0.0037283561417046232
0.4129731386701602 0.7866001139383587 0.02195481273149072
0.3939710894620544 0.8814874737412026 0.07448220389234883
0.4762767526278399 0.8143397337715774 0.09359649105344275
0.4979325441083393 0.9273949011220957 -0.0037283561417046232
0.6129731386701602 0.7866001139383587 0.02195481273149072
0.5939710894620543 0.8814874737412026 0.07448220389234883
0.6762767526278399 0.8143397337715774 0.09359649105344275
0.6979325441083394 0.9273949011220957 -0.0037283561417046232
0.8129731386701602 0.7866001139383587 0.02195481273149072
0.7939710894620544 0.8814874737412026 0.07448220389234883
0.8762767526278399 0.8143397337715774 0.09359649105344275
0.8979325441083393 0.9273949011220957 -0.0037283561417046232
0.012973138670160209 -0.013399886061641345 0.22195481273149073
-0.0060289105379456275 0.08148747374120265 0.27448220389234884
0.07627675262783985 0.014339733771577429 0.29359649105344277
0.09793254410833933 0.12739490112209567 0.1962716438582954
0.2129731386701602 -0.013399886061641345 0.22195481273149073
0.19397108946205438 0.08148747374120265 0.27448220389234884
0.27627675262783985 0.014339733771577429 0.29359649105344277
0.2979325441083393 0.12739490112209567 0.1962716438582954
0.4129731386701602 -0.013399886061641345 0.22195481273149073
0.3939710894620544 0.08148747374120265 0.27448220389234884
0.4762767526278399 0.014339733771577429 0.29359649105344277
0.4979325441083393 0.12739490112209567 0.1962716438582954
0.6129731386701602 -0.013399886061641345 0.22195481273149073
0.5939710894620543 0.08148747374120265 0.27448220389234884
0.6762767526278399 0.014339733771577429 0.29359649105344277
0.6979325441083394 0.12739490112209567 0.1962716438582954
0.8129731386701602 -0.013399886061641345 0.22195481273149073
0.7939710894620544 0.08148747374120265 0.27448220389234884
0.8762767526278399 0.014339733771577429 0.29359649105344277
0.8979325441083393 0.12739490112209567 0.1962716438582954
0.012973138670160209 0.18660011393835865 0.22195481273149073
-0.0060289105379456275 0.28148747374120264 0.27448220389234884
0.07627675262783985 0.21433973377157745 0.29359649105344277
0.09793254410833933 0.3273949011220957 0.1962716438582954
0.2129731386701602 0.18660011393835865 0.22195481273149073
0.19397108946205438 0.28148747374120264 0.27448220389234884
0.27627675262783985 0.21433973377157745 0.29359649105344277
0.2979325441083393 0.3273949011220957 0.1962716438582954
0.4129731386701602 0.18660011393835865 0.22195481273149073
0.3939710894620544 0.28148747374120264 0.27448220389234884
0.4762767526278399 0.21433973377157745 0.29359649105344277
0.4979325441083393 0.3273949011220957 0.1962716438582954
0.6129731386701602 0.18660011393835865 0.22195481273149073
0.5939710894620543 0.28148747374120264 0.27448220389234884
0.6762767526278399 0.21433973377157745 0.29359649105344277
0.6979325441083394 0.3273949011220957 0.1962716438582954
0.8129731386701602 0.18660011393835865 0.22195481273149073
0.7939710894620544 0.28148747374120264 0.27448220389234884
0.8762767526278399 0.21433973377157745 0.29359649105344277
0.8979325441083393 0.3273949011220957 0.1962716438582954
0.012973138670160209 0.3866001139383587 0.22195481273149073
-0.0060289105379456275 0.48148747374120265 0.27448220389234884
0.07627675262783985 0.4143397337715775 0.29359649105344277
0.09793254410833933 0.5273949011220956 0.1962716438582954
0.2129731386701602 0.3866001139383587 0.22195481273149073
0.19397108946205438 0.48148747374120265 0.27448220389234884
0.27627675262783985 0.4143397337715775 0.29359649105344277
0.2979325441083393 0.5273949011220956 0.1962716438582954
0.4129731386701602 0.3866001139383587 0.22195481273149073
0.3939710894620544 0.48148747374120265 0.27448220389234884
0.4762767526278399 0.4143397337715775 0.29359649105344277
0.4979325441083393 0.5273949011220956 0.1962716438582954
0.6129731386701602 0.3866001139383587 0.22195481273149073
0.5939710894620543 0.48148747374120265 0.27448220389234884
0.6762767526278399 0.4143397337715775 0.29359649105344277
0.6979325441083394 0.5273949011220956 0.1962716438582954
0.8129731386701602 0.3866001139383587 0.22195481273149073
0.7939710894620544 0.48148747374120265 0.27448220389234884
0.8762767526278399 0.4143397337715775 0.29359649105344277
0.8979325441083393 0.5273949011220956 0.1962716438582954
0.012973138670160209 0.5866001139383586 0.22195481273149073
-0.0060289105379456275 0.6814874737412027 0.27448220389234884
0.07627675262783985 0.6143397337715775 0.29359649105344277
0.09793254410833933 0.7273949011220957 0.1962716438582954
0.2129731386701602 0.5866001139383586 0.22195481273149073
0.19397108946205438 0.6814874737412027 0.27448220389234884
0.27627675262783985 0.6143397337715775 0.29359649105344277
0.2979325441083393 0.7273949011220957 0.1962716438582954
0.4129731386701602 0.5866001139383586 0.22195481273149073
0.3939710894620544 0.6814874737412027 0.27448220389234884
0.4762767526278399 0.6143397337715775 0.29359649105344277
0.4979325441083393 0.7273949011220957 0.1962716438582954
0.6129731386701602 0.5866001139383586 0.22195481273149073
0.5939710894620543 0.6814874737412027 0.27448220389234884
0.6762767526278399 0.6143397337715775 0.29359649105344277
0.6979325441083394 0.7273949011220957 0.1962716438582954
0.8129731386701602 0.5866001139383586 0.22195481273149073
0.7939710894620544 0.6814874737412027 0.27448220389234884
0.8762767526278399 0.6143397337715775 0.29359649105344277
0.8979325441083393 0.7273949011220957 0.1962716438582954
0.012973138670160209 0.7866001139383587 0.22195481273149073
-0.0060289105379456275 0.8814874737412026 0.27448220389234884
0.07627675262783985 0.8143397337715774 0.29359649105344277
0.09793254410833933 0.9273949011220957 0.1962716438582954
0.2129731386701602 0.7866001139383587 0.22195481273149073
0.19397108946205438 0.8814874737412026 0.27448220389234884
0.27627675262783985 0.8143397337715774 0.29359649105344277
0.2979325441083393 0.9273949011220957 0.1962716438582954
0.4129731386701602 0.7866001139383587 0.22195481273149073
0.3939710894620544 0.8814874737412026 0.27448220389234884
0.4762767526278399 0.8143397337715774 0.29359649105344277
0.4979325441083393 0.9273949011220957 0.1962716438582954
0.6129731386701602 0.7866001139383587 0.22195481273149073
0.5939710894620543 0.8814874737412026 0.27448220389234884
0.6762767526278399 0.8143397337715774 0.29359649105344277
0.6979325441083394 0.9273949011220957 0.1962716438582954
0.8129731386701602 0.7866001139383587 0.22195481273149073
0.7939710894620544 0.8814874737412026 0.27448220389234884
0.8762767526278399 0.8143397337715774 0.29359649105344277
0.8979325441083393 0.9273949011220957 0.1962716438582954
0.012973138670160209 -0.013399886061641345 0.42195481273149077
-0.0060289105379456275 0.08148747374120265 0.47448220389234885
0.07627675262783985 0.014339733771577429 0.4935964910534428
0.09793254410833933 0.12739490112209567 0.3962716438582954
0.2129731386701602 -0.013399886061641345 0.42195481273149077
0.19397108946205438 0.08148747374120265 0.47448220389234885
0.27627675262783985 0.014339733771577429 0.4935964910534428
0.2979325441083393 0.12739490112209567 0.3962716438582954
0.4129731386701602 -0.013399886061641345 0.42195481273149077
0.3939710894620544 0.08148747374120265 0.47448220389234885
0.4762767526278399 0.014339733771577429 0.4935964910534428
0.4979325441083393 0.12739490112209567 0.3962716438582954
0.6129731386701602 -0.013399886061641345 0.42195481273149077
0.5939710894620543 0.08148747374120265 0.47448220389234885
0.6762767526278399 0.014339733771577429 0.4935964910534428
0.6979325441083394 0.12739490112209567 0.3962716438582954
0.8129731386701602 -0.013399886061641345 0.42195481273149077
0.7939710894620544 0.08148747374120265 0.47448220389234885
0.8762767526278399 0.014339733771577429 0.4935964910534428
0.8979325441083393 0.12739490112209567 0.3962716438582954
0.012973138670160209 0.18660011393835865 0.42195481273149077
-0.0060289105379456275 0.28148747374120264 0.47448220389234885
0.07627675262783985 0.21433973377157745 0.4935964910534428
0.09793254410833933 0.3273949011220957 0.3962716438582954
0.2129731386701602 0.18660011393835865 0.42195481273149077
0.19397108946205438 0.28148747374120264 0.47448220389234885
0.27627675262783985 0.21433973377157745 0.4935964910534428
0.2979325441083393 0.3273949011220957 0.3962716438582954
0.4129731386701602 0.18660011393835865 0.42195481273149077
0.3939710894620544 0.28148747374120264 0.47448220389234885
0.4762767526278399 0.21433973377157745 0.4935964910534428
0.4979325441083393 0.3273949011220957 0.3962716438582954
0.6129731386701602 0.18660011393835865 0.42195481273149077
0.5939710894620543 0.28148747374120264 0.47448220389234885
0.6762767526278399 0.21433973377157745 0.4935964910534428
0.6979325441083394 0.3273949011220957 0.3962716438582954
0.8129731386701602 0.18660011393835865 0.42195481273149077
0.7939710894620544 0.28148747374120264 0.47448220389234885
0.8762767526278399 0.21433973377157745 0.4935964910534428
0.8979325441083393 0.3273949011220957 0.3962716438582954
0.012973138670160209 0.3866001139383587 0.42195481273149077
-0.0060289105379456275 0.48148747374120265 0.47448220389234885
0.07627675262783985 0.4143397337715775 0.4935964910534428
0.09793254410833933 0.5273949011220956 0.3962716438582954
0.2129731386701602 0.3866001139383587 0.42195481273149077
0.19397108946205438 0.48148747374120265 0.47448220389234885
0.27627675262783985 0.4143397337715775 0.4935964910534428
0.2979325441083393 0.5273949011220956 0.3962716438582954
0.4129731386701602 0.3866001139383587 0.42195481273149077
0.3939710894620544 0.48148747374120265 0.47448220389234885
0.4762767526278399 0.4143397337715775 0.4935964910534428
0.4979325441083393 0.5273949011220956 0.3962716438582954
0.6129731386701602 0.3866001139383587 0.42195481273149077
0.5939710894620543 0.48148747374120265 0.47448220389234885
0.6762767526278399 0.4143397337715775 0.4935964910534428
0.6979325441083394 0.5273949011220956 0.3962716438582954
0.8129731386701602 0.3866001139383587 0.42195481273149077
0.7939710894620544 0.48148747374120265 0.47448220389234885
0.8762767526278399 0.4143397337715775 0.4935964910534428
0.8979325441083393 0.5273949011220956 0.3962716438582954
0.012973138670160209 0.5866001139383586 0.42195481273149077
-0.0060289105379456275 0.6814874737412027 0.47448220389234885
0.07627675262783985 0.6143397337715775 0.4935964910534428
0.09793254410833933 0.7273949011220957 0.3962716438582954
0.2129731386701602 0.5866001139383586 0.42195481273149077
0.19397108946205438 0.6814874737412027 0.47448220389234885
0.27627675262783985 0.6143397337715775 0.4935964910534428
0.2979325441083393 0.7273949011220957 0.3962716438582954
0.4129731386701602 0.5866001139383586 0.42195481273149077
0.3939710894620544 0.6814874737412027 0.47448220389234885
0.4762767526278399 0.6143397337715775 0.4935964910534428
0.4979325441083393 0.7273949011220957 0.3962716438582954
0.6129731386701602 0.5866001139383586 0.42195481273149077
0.5939710894620543 0.6814874737412027 0.47448220389234885
0.6762767526278399 0.6143397337715775 0.4935964910534428
0.6979325441083394 0.7273949011220957 0.3962716438582954
0.8129731386701602 0.5866001139383586 0.42195481273149077
0.7939710894620544 0.6814874737412027 0.47448220389234885
0.8762767526278399 0.6143397337715775 0.4935964910534428
0.8979325441083393 0.7273949011220957 0.3962716438582954
0.012973138670160209 0.7866001139383587 0.42195481273149077
-0.0060289105379456275 0.8814874737412026 0.47448220389234885
0.07627675262783985 0.8143397337715774 0.4935964910534428
0.09793254410833933 0.9273949011220957 0.3962716438582954
0.2129731386701602 0.7866001139383587 0.42195481273149077
0.19397108946205438 0.8814874737412026 0.47448220389234885
0.27627675262783985 0.8143397337715774 0.4935964910534428
0.2979325441083393 0.9273949011220957 0.3962716438582954
0.4129731386701602 0.7866001139383587 0.42195481273149077
0.3939710894620544 0.8814874737412026 0.47448220389234885
0.4762767526278399 0.8143397337715774 0.4935964910534428
0.4979325441083393 0.9273949011220957 0.3962716438582954
0.6129731386701602 0.7866001139383587 0.42195481273149077
0.5939710894620543 0.8814874737412026 0.47448220389234885
0.6762767526278399 0.8143397337715774 0.4935964910534428
0.6979325441083394 0.9273949011220957 0.3962716438582954
0.8129731386701602 0.7866001139383587 0.42195481273149077
0.7939710894620544 0.8814874737412026 0.47448220389234885
0.8762767526278399 0.8143397337715774 0.4935964910534428
0.8979325441083393 0.9273949011220957 0.3962716438582954
0.012973138670160209 -0.013399886061641345 0.6219548127314908
-0.0060289105379456275 0.08148747374120265 0.6744822038923489
0.07627675262783985 0.014339733771577429 0.6935964910534428
0.09793254410833933 0.12739490112209567 0.5962716438582953
0.2129731386701602 -0.013399886061641345 0.6219548127314908
0.19397108946205438 0.08148747374120265 0.6744822038923489
0.27627675262783985 0.014339733771577429 0.6935964910534428
0.2979325441083393 0.12739490112209567 0.5962716438582953
0.4129731386701602 -0.013399886061641345 0.6219548127314908
0.3939710894620544 0.08148747374120265 0.6744822038923489
0.4762767526278399 0.014339733771577429 0.6935964910534428
0.4979325441083393 0.12739490112209567 0.5962716438582953
0.6129731386701602 -0.013399886061641345 0.6219548127314908
0.5939710894620543 0.08148747374120265 0.6744822038923489
0.6762767526278399 0.014339733771577429 0.6935964910534428
0.6979325441083394 0.12739490112209567 0.5962716438582953
0.8129731386701602 -0.013399886061641345 0.6219548127314908
0.7939710894620544 0.08148747374120265 0.6744822038923489
0.8762767526278399 0.014339733771577429 0.6935964910534428
0.8979325441083393 0.12739490112209567 0.5962716438582953
0.012973138670160209 0.18660011393835865 0.6219548127314908
-0.0060289105379456275 0.28148747374120264 0.6744822038923489
0.07627675262783985 0.21433973377157745 0.6935964910534428
0.09793254410833933 0.3273949011220957 0.5962716438582953
0.2129731386701602 0.18660011393835865 0.6219548127314908
0.19397108946205438 0.28148747374120264 0.6744822038923489
0.27627675262783985 0.21433973377157745 0.6935964910534428
0.2979325441083393 0.3273949011220957 0.5962716438582953
0.4129731386701602 0.18660011393835865 0.6219548127314908
0.3939710894620544 0.28148747374120264 0.6744822038923489
0.4762767526278399 0.21433973377157745 0.6935964910534428
0.4979325441083393 0.3273949011220957 0.5962716438582953
0.6129731386701602 0.18660011393835865 0.6219548127314908
0.5939710894620543 0.28148747374120264 0.6744822038923489
0.6762767526278399 0.21433973377157745 0.6935964910534428
0.6979325441083394 0.3273949011220957 0.5962716438582953
0.8129731386701602 0.18660011393835865 0.6219548127314908
0.7939710894620544 0.28148747374120264 0.6744822038923489
0.8762767526278399 0.21433973377157745 0.6935964910534428
0.8979325441083393 0.3273949011220957 0.5962716438582953
0.012973138670160209 0.3866001139383587 0.6219548127314908
-0.0060289105379456275 0.48148747374120265 0.6744822038923489
0.07627675262783985 0.4143397337715775 0.6935964910534428
0.09793254410833933 0.5273949011220956 0.5962716438582953
0.2129731386701602 0.3866001139383587 0.6219548127314908
0.19397108946205438 0.48148747374120265 0.6744822038923489
0.27627675262783985 0.4143397337715775 0.6935964910534428
0.2979325441083393 0.5273949011220956 0.5962716438582953
0.4129731386701602 0.3866001139383587 0.6219548127314908
0.3939710894620544 0.48148747374120265 0.6744822038923489
0.4762767526278399 0.4143397337715775 0.6935964910534428
0.4979325441083393 0.5273949011220956 0.5962716438582953
0.6129731386701602 0.3866001139383587 0.6219548127314908
0.5939710894620543 0.48148747374120265 0.6744822038923489
0.6762767526278399 0.4143397337715775 0.6935964910534428
0.6979325441083394 0.5273949011220956 0.5962716438582953
0.8129731386701602 0.3866001139383587 0.6219548127314908
0.7939710894620544 0.48148747374120265 0.6744822038923489
0.8762767526278399 0.4143397337715775 0.6935964910534428
0.8979325441083393 0.5273949011220956 0.5962716438582953
0.012973138670160209 0.5866001139383586 0.6219548127314908
-0.0060289105379456275 0.6814874737412027 0.6744822038923489
0.07627675262783985 0.6143397337715775 0.6935964910534428
0.09793254410833933 0.7273949011220957 0.5962716438582953
0.2129731386701602 0.5866001139383586 0.6219548127314908
0.19397108946205438 0.6814874737412027 0.6744822038923489
0.27627675262783985 0.6143397337715775 0.6935964910534428
0.2979325441083393 0.7273949011220957 0.5962716438582953
0.4129731386701602 0.5866001139383586 0.6219548127314908
0.3939710894620544 0.6814874737412027 0.6744822038923489
0.4762767526278399 0.6143397337715775 0.6935964910534428
0.4979325441083393 0.7273949011220957 0.5962716438582953
0.6129731386701602 0.5866001139383586 0.6219548127314908
0.5939710894620543 0.6814874737412027 0.6744822038923489
0.6762767526278399 0.6143397337715775 0.6935964910534428
0.6979325441083394 0.7273949011220957 0.5962716438582953
0.8129731386701602 0.5866001139383586 0.6219548127314908
0.7939710894620544 0.6814874737412027 0.6744822038923489
0.8762767526278399 0.6143397337715775 0.6935964910534428
0.8979325441083393 0.7273949011220957 0.5962716438582953
0.012973138670160209 0.7866001139383587 0.6219548127314908
-0.0060289105379456275 0.8814874737412026 0.6744822038923489
0.07627675262783985 0.8143397337715774 0.6935964910534428
0.09793254410833933 0.9273949011220957 0.5962716438582953
0.2129731386701602 0.7866001139383587 0.6219548127314908
0.19397108946205438 0.8814874737412026 0.6744822038923489
0.27627675262783985 0.8143397337715774 0.6935964910534428
0.2979325441083393 0.9273949011220957 0.5962716438582953
0.4129731386701602 0.7866001139383587 0.6219548127314908
0.3939710894620544 0.8814874737412026 0.6744822038923489
0.4762767526278399 0.8143397337715774 0.6935964910534428
0.4979325441083393 0.9273949011220957 0.5962716438582953
0.6129731386701602 0.7866001139383587 0.6219548127314908
0.5939710894620543 0.8814874737412026 0.6744822038923489
0.6762767526278399 0.8143397337715774 0.6935964910534428
0.6979325441083394 0.9273949011220957 0.5962716438582953
0.8129731386701602 0.7866001139383587 0.6219548127314908
0.7939710894620544 0.8814874737412026 0.6744822038923489
0.8762767526278399 0.8143397337715774 0.6935964910534428
0.8979325441083393 0.9273949011220957 0.5962716438582953
0.012973138670160209 -0.013399886061641345 0.8219548127314907
-0.0060289105379456275 0.08148747374120265 0.8744822038923488
0.07627675262783985 0.014339733771577429 0.8935964910534427
0.09793254410833933 0.12739490112209567 0.7962716438582954
0.2129731386701602 -0.013399886061641345 0.8219548127314907
0.19397108946205438 0.08148747374120265 0.8744822038923488
0.27627675262783985 0.014339733771577429 0.8935964910534427
0.2979325441083393 0.12739490112209567 0.7962716438582954
0.4129731386701602 -0.013399886061641345 0.8219548127314907
0.3939710894620544 0.08148747374120265 0.8744822038923488
0.4762767526278399 0.014339733771577429 0.8935964910534427
0.4979325441083393 0.12739490112209567 0.7962716438582954
0.6129731386701602 -0.013399886061641345 0.8219548127314907
0.5939710894620543 0.08148747374120265 0.8744822038923488
0.6762767526278399 0.014339733771577429 0.8935964910534427
0.6979325441083394 0.12739490112209567 0.7962716438582954
0.8129731386701602 -0.013399886061641345 0.8219548127314907
0.7939710894620544 0.08148747374120265 0.8744822038923488
0.8762767526278399 0.014339733771577429 0.8935964910534427
0.8979325441083393 0.12739490112209567 0.7962716438582954
0.012973138670160209 0.18660011393835865 0.8219548127314907
-0.0060289105379456275 0.28148747374120264 0.8744822038923488
0.07627675262783985 0.21433973377157745 0.8935964910534427
0.09793254410833933 0.3273949011220957 0.7962716438582954
0.2129731386701602 0.18660011393835865 0.8219548127314907
0.19397108946205438 0.28148747374120264 0.8744822038923488
0.27627675262783985 0.21433973377157745 0.8935964910534427
0.2979325441083393 0.3273949011220957 0.7962716438582954
0.4129731386701602 0.18660011393835865 0.8219548127314907
0.3939710894620544 0.28148747374120264 0.8744822038923488
0.4762767526278399 0.21433973377157745 0.8935964910534427
0.4979325441083393 0.3273949011220957 0.7962716438582954
0.6129731386701602 0.18660011393835865 0.8219548127314907
0.5939710894620543 0.28148747374120264 0.8744822038923488
0.6762767526278399 0.21433973377157745 0.8935964910534427
0.6979325441083394 0.3273949011220957 0.7962716438582954
0.8129731386701602 0.18660011393835865 0.8219548127314907
0.7939710894620544 0.28148747374120264 0.8744822038923488
0.8762767526278399 0.21433973377157745 0.8935964910534427
0.8979325441083393 0.3273949011220957 0.7962716438582954
0.012973138670160209 0.3866001139383587 0.8219548127314907
-0.0060289105379456275 0.48148747374120265 0.8744822038923488
0.07627675262783985 0.4143397337715775 0.8935964910534427
0.09793254410833933 0.5273949011220956 0.7962716438582954
0.2129731386701602 0.3866001139383587 0.8219548127314907
0.19397108946205438 0.48148747374120265 0.8744822038923488
0.27627675262783985 0.4143397337715775 0.8935964910534427
0.2979325441083393 0.5273949011220956 0.7962716438582954
0.4129731386701602 0.3866001139383587 0.8219548127314907
0.3939710894620544 0.48148747374120265 0.8744822038923488
0.4762767526278399 0.4143397337715775 0.8935964910534427
0.4979325441083393 0.5273949011220956 0.7962716438582954
0.6129731386701602 0.3866001139383587 0.8219548127314907
0.5939710894620543 0.48148747374120265 0.8744822038923488
0.6762767526278399 0.4143397337715775 0.8935964910534427
0.6979325441083394 0.5273949011220956 0.7962716438582954
0.8129731386701602 0.3866001139383587 0.8219548127314907
0.7939710894620544 0.48148747374120265 0.8744822038923488
0.8762767526278399 0.4143397337715775 0.8935964910534427
0.8979325441083393 0.5273949011220956 0.7962716438582954
0.012973138670160209 0.5866001139383586 0.8219548127314907
-0.0060289105379456275 0.6814874737412027 0.8744822038923488
0.07627675262783985 0.6143397337715775 0.8935964910534427
0.09793254410833933 0.7273949011220957 0.7962716438582954
0.2129731386701602 0.5866001139383586 0.8219548127314907
0.19397108946205438 0.6814874737412027 0.8744822038923488
0.27627675262783985 0.6143397337715775 0.8935964910534427
0.2979325441083393 0.7273949011220957 0.7962716438582954
0.4129731386701602 0.5866001139383586 0.8219548127314907
0.3939710894620544 0.6814874737412027 0.8744822038923488
0.4762767526278399 0.6143397337715775 0.8935964910534427
0.4979325441083393 0.7273949011220957 0.7962716438582954
0.6129731386701602 0.5866001139383586 0.8219548127314907
0.5939710894620543 0.6814874737412027 0.8744822038923488
0.6762767526278399 0.6143397337715775 0.8935964910534427
0.6979325441083394 0.7273949011220957 0.7962716438582954
0.8129731386701602 0.5866001139383586 0.8219548127314907
0.7939710894620544 0.6814874737412027 0.8744822038923488
0.8762767526278399 0.6143397337715775 0.8935964910534427
0.8979325441083393 0.7273949011220957 0.7962716438582954
0.012973138670160209 0.7866001139383587 0.8219548127314907
-0.0060289105379456275 0.8814874737412026 0.8744822038923488
0.07627675262783985 0.8143397337715774 0.8935964910534427
0.09793254410833933 0.9273949011220957 0.7962716438582954
0.2129731386701602 0.7866001139383587 0.8219548127314907
0.19397108946205438 0.8814874737412026 0.8744822038923488
0.27627675262783985 0.8143397337715774 0.8935964910534427
0.2979325441083393 0.9273949011220957 0.7962716438582954
0.4129731386701602 0.7866001139383587 0.8219548127314907
0.3939710894620544 0.8814874737412026 0.8744822038923488
0.4762767526278399 0.8143397337715774 0.8935964910534427
0.4979325441083393 0.9273949011220957 0.7962716438582954
0.6129731386701602 0.7866001139383587 0.8219548127314907
0.5939710894620543 0.8814874737412026 0.8744822038923488
0.6762767526278399 0.8143397337715774 0.8935964910534427
0.6979325441083394 0.9273949011220957 0.7962716438582954
0.8129731386701602 0.7866001139383587 0.8219548127314907
0.7939710894620544 0.8814874737412026 0.8744822038923488
0.8762767526278399 0.8143397337715774 0.8935964910534427
0.8979325441083393 0.9273949011220957 0.7962716438582954
0.08782116135622763 -0.021053065820422462 0.023508563973244953
-0.0274703194783585 0.12220539818446308 0.012111253506998935
0.014528459813432147 -0.014237768707800334 0.11775709515970503
0.10864115106296049 0.12430802857136168 0.09297579449642301
0.2878211613562276 -0.021053065820422462 0.023508563973244953
0.17252968052164153 0.12220539818446308 0.012111253506998935
0.21452845981343216 -0.014237768707800334 0.11775709515970503
0.30864115106296053 0.12430802857136168 0.09297579449642301
0.4878211613562276 -0.021053065820422462 0.023508563973244953
0.37252968052164154 0.12220539818446308 0.012111253506998935
0.4145284598134322 -0.014237768707800334 0.11775709515970503
0.5086411510629605 0.12430802857136168 0.09297579449642301
0.6878211613562276 -0.021053065820422462 0.023508563973244953
0.5725296805216414 0.12220539818446308 0.012111253506998935
0.6145284598134322 -0.014237768707800334 0.11775709515970503
0.7086411510629604 0.12430802857136168 0.09297579449642301
0.8878211613562277 -0.021053065820422462 0.023508563973244953
0.7725296805216415 0.12220539818446308 0.012111253506998935
0.8145284598134321 -0.014237768707800334 0.11775709515970503
0.9086411510629605 0.12430802857136168 0.09297579449642301
0.08782116135622763 0.17894693417957755 0.023508563973244953
-0.0274703194783585 0.3222053981844631 0.012111253506998935
0.014528459813432147 0.18576223129219968 0.11775709515970503
0.10864115106296049 0.3243080285713617 0.09297579449642301
0.2878211613562276 0.17894693417957755 0.023508563973244953
0.17252968052164153 0.3222053981844631 0.012111253506998935
0.21452845981343216 0.18576223129219968 0.11775709515970503
0.30864115106296053 0.3243080285713617 0.09297579449642301
0.4878211613562276 0.17894693417957755 0.023508563973244953
0.37252968052164154 0.3222053981844631 0.012111253506998935
0.4145284598134322 0.18576223129219968 0.11775709515970503
0.5086411510629605 0.3243080285713617 0.09297579449642301
0.6878211613562276 0.17894693417957755 0.023508563973244953
0.5725296805216414 0.3222053981844631 0.012111253506998935
0.6145284598134322 0.18576223129219968 0.11775709515970503
0.7086411510629604 0.3243080285713617 0.09297579449642301
0.8878211613562277 0.17894693417957755 0.023508563973244953
0.7725296805216415 0.3222053981844631 0.012111253506998935
0.8145284598134321 0.18576223129219968 0.11775709515970503
0.9086411510629605 0.3243080285713617 0.09297579449642301
0.08782116135622763 0.37894693417957753 0.023508563973244953
-0.0274703194783585 0.5222053981844631 0.012111253506998935
0.014528459813432147 0.3857622312921997 0.11775709515970503
0.10864115106296049 0.5243080285713617 0.09297579449642301
0.2878211613562276 0.37894693417957753 0.023508563973244953
0.17252968052164153 0.5222053981844631 0.012111253506998935
0.21452845981343216 0.3857622312921997 0.11775709515970503
0.30864115106296053 0.5243080285713617 0.09297579449642301
0.4878211613562276 0.37894693417957753 0.023508563973244953
0.37252968052164154 0.5222053981844631 0.012111253506998935
0.4145284598134322 0.3857622312921997 0.11775709515970503
0.5086411510629605 0.5243080285713617 0.09297579449642301
0.6878211613562276 0.37894693417957753 0.023508563973244953
0.5725296805216414 0.5222053981844631 0.012111253506998935
0.6145284598134322 0.3857622312921997 0.11775709515970503
0.7086411510629604 0.5243080285713617 0.09297579449642301
0.8878211613562277 0.37894693417957753 0.023508563973244953
0.7725296805216415 0.5222053981844631 0.012111253506998935
0.8145284598134321 0.3857622312921997 0.11775709515970503
0.9086411510629605 0.5243080285713617 0.09297579449642301
0.08782116135622763 0.5789469341795775 0.023508563973244953
-0.0274703194783585 0.7222053981844632 0.012111253506998935
0.014528459813432147 0.5857622312921997 0.11775709515970503
0.10864115106296049 0.7243080285713618 0.09297579449642301
0.2878211613562276 0.5789469341795775 0.023508563973244953
0.17252968052164153 0.7222053981844632 0.012111253506998935
0.21452845981343216 0.5857622312921997 0.11775709515970503
0.30864115106296053 0.7243080285713618 0.09297579449642301
0.4878211613562276 0.5789469341795775 0.023508563973244953
0.37252968052164154 0.7222053981844632 0.012111253506998935
0.4145284598134322 0.5857622312921997 0.11775709515970503
0.5086411510629605 0.7243080285713618 0.09297579449642301
0.6878211613562276 0.5789469341795775 0.023508563973244953
0.5725296805216414 0.7222053981844632 0.012111253506998935
0.6145284598134322 0.5857622312921997 0.11775709515970503
0.7086411510629604 0.7243080285713618 0.09297579449642301
0.8878211613562277 0.5789469341795775 0.023508563973244953
0.7725296805216415 0.7222053981844632 0.012111253506998935
0.8145284598134321 0.5857622312921997 0.11775709515970503
0.9086411510629605 0.7243080285713618 0.09297579449642301
0.08782116135622763 0.7789469341795776 0.023508563973244953
-0.0274703194783585 0.9222053981844631 0.012111253506998935
0.014528459813432147 0.7857622312921997 0.11775709515970503
0.10864115106296049 0.9243080285713617 0.09297579449642301
0.2878211613562276 0.7789469341795776 0.023508563973244953
0.17252968052164153 0.9222053981844631 0.012111253506998935
0.21452845981343216 0.7857622312921997 0.11775709515970503
0.30864115106296053 0.9243080285713617 0.09297579449642301
0.4878211613562276 0.7789469341795776 0.023508563973244953
0.37252968052164154 0.9222053981844631 0.012111253506998935
0.4145284598134322 0.7857622312921997 0.11775709515970503
0.5086411510629605 0.9243080285713617 0.09297579449642301
0.6878211613562276 0.7789469341795776 0.023508563973244953
0.5725296805216414 0.9222053981844631 0.012111253506998935
0.6145284598134322 0.7857622312921997 0.11775709515970503
0.7086411510629604 0.9243080285713617 0.09297579449642301
0.8878211613562277 0.7789469341795776 0.023508563973244953
0.7725296805216415 0.9222053981844631 0.012111253506998935
0.8145284598134321 0.7857622312921997 0.11775709515970503
0.9086411510629605 0.9243080285713617 0.09297579449642301
0.08782116135622763 -0.021053065820422462 0.22350856397324495
-0.0274703194783585 0.12220539818446308 0.21211125350699894
0.014528459813432147 -0.014237768707800334 0.31775709515970507
0.10864115106296049 0.12430802857136168 0.292975794496423
0.2878211613562276 -0.021053065820422462 0.22350856397324495
0.17252968052164153 0.12220539818446308 0.21211125350699894
0.21452845981343216 -0.014237768707800334 0.31775709515970507
0.30864115106296053 0.12430802857136168 0.292975794496423
0.4878211613562276 -0.021053065820422462 0.22350856397324495
0.37252968052164154 0.12220539818446308 0.21211125350699894
0.4145284598134322 -0.014237768707800334 0.31775709515970507
0.5086411510629605 0.12430802857136168 0.292975794496423
0.6878211613562276 -0.021053065820422462 0.22350856397324495
0.5725296805216414 0.12220539818446308 0.21211125350699894
0.6145284598134322 -0.014237768707800334 0.31775709515970507
0.7086411510629604 0.12430802857136168 0.292975794496423
0.8878211613562277 -0.021053065820422462 0.22350856397324495
0.7725296805216415 0.12220539818446308 0.21211125350699894
0.8145284598134321 -0.014237768707800334 0.31775709515970507
0.9086411510629605 0.12430802857136168 0.292975794496423
0.08782116135622763 0.17894693417957755 0.22350856397324495
-0.0274703194783585 0.3222053981844631 0.21211125350699894
0.014528459813432147 0.18576223129219968 0.31775709515970507
0.10864115106296049 0.3243080285713617 0.292975794496423
0.2878211613562276 0.17894693417957755 0.22350856397324495
0.17252968052164153 0.3222053981844631 0.21211125350699894
0.21452845981343216 0.18576223129219968 0.31775709515970507
0.30864115106296053 0.3243080285713617 0.292975794496423
0.4878211613562276 0.17894693417957755 0.22350856397324495
0.37252968052164154 0.3222053981844631 0.21211125350699894
0.4145284598134322 0.18576223129219968 0.31775709515970507
0.5086411510629605 0.3243080285713617 0.292975794496423
0.6878211613562276 0.17894693417957755 0.22350856397324495
0.5725296805216414 0.3222053981844631 0.21211125350699894
0.6145284598134322 0.18576223129219968 0.31775709515970507
0.7086411510629604 0.3243080285713617 0.292975794496423
0.8878211613562277 0.17894693417957755 0.22350856397324495
0.7725296805216415 0.3222053981844631 0.21211125350699894
0.8145284598134321 0.18576223129219968 0.31775709515970507
0.9086411510629605 0.3243080285713617 0.292975794496423
0.08782116135622763 0.37894693417957753 0.22350856397324495
-0.0274703194783585 0.5222053981844631 0.21211125350699894
0.014528459813432147 0.3857622312921997 0.31775709515970507
0.10864115106296049 0.5243080285713617 0.292975794496423
0.2878211613562276 0.37894693417957753 0.22350856397324495
0.17252968052164153 0.5222053981844631 0.21211125350699894
0.21452845981343216 0.3857622312921997 0.31775709515970507
0.30864115106296053 0.5243080285713617 0.292975794496423
0.4878211613562276 0.37894693417957753 0.22350856397324495
0.37252968052164154 0.5222053981844631 0.21211125350699894
0.4145284598134322 0.3857622312921997 0.31775709515970507
0.5086411510629605 0.5243080285713617 0.292975794496423
0.6878211613562276 0.37894693417957753 0.22350856397324495
0.5725296805216414 0.5222053981844631 0.21211125350699894
0.6145284598134322 0.3857622312921997 0.31775709515970507
0.7086411510629604 0.5243080285713617 0.292975794496423
0.8878211613562277 0.37894693417957753 0.22350856397324495
0.7725296805216415 0.5222053981844631 0.21211125350699894
0.8145284598134321 0.3857622312921997 0.31775709515970507
0.9086411510629605 0.5243080285713617 0.292975794496423
0.08782116135622763 0.5789469341795775 0.22350856397324495
-0.0274703194783585 0.7222053981844632 0.21211125350699894
0.014528459813432147 0.5857622312921997 0.31775709515970507
0.10864115106296049 0.7243080285713618 0.292975794496423
0.2878211613562276 0.5789469341795775 0.22350856397324495
0.17252968052164153 0.7222053981844632 0.21211125350699894
0.21452845981343216 0.5857622312921997 0.31775709515970507
0.30864115106296053 0.7243080285713618 0.292975794496423
0.4878211613562276 0.5789469341795775 0.22350856397324495
0.37252968052164154 0.7222053981844632 0.21211125350699894
0.4145284598134322 0.5857622312921997 0.31775709515970507
0.5086411510629605 0.7243080285713618 0.292975794496423
0.6878211613562276 0.5789469341795775 0.22350856397324495
0.5725296805216414 0.7222053981844632 0.21211125350699894
0.6145284598134322 0.5857622312921997 0.31775709515970507
0.7086411510629604 0.7243080285713618 0.292975794496423
0.8878211613562277 0.5789469341795775 0.22350856397324495
0.7725296805216415 0.7222053981844632 0.21211125350699894
0.8145284598134321 0.5857622312921997 0.31775709515970507
0.9086411510629605 0.7243080285713618 0.292975794496423
0.08782116135622763 0.7789469341795776 0.22350856397324495
-0.0274703194783585 0.9222053981844631 0.21211125350699894
0.014528459813432147 0.7857622312921997 0.31775709515970507
0.10864115106296049 0.9243080285713617 0.292975794496423
0.2878211613562276 0.7789469341795776 0.22350856397324495
0.17252968052164153 0.9222053981844631 0.21211125350699894
0.21452845981343216 0.7857622312921997 0.31775709515970507
0.30864115106296053 0.9243080285713617 0.292975794496423
0.4878211613562276 0.7789469341795776 0.22350856397324495
0.37252968052164154 0.9222053981844631 0.21211125350699894
0.4145284598134322 0.7857622312921997 0.31775709515970507
0.5086411510629605 0.9243080285713617 0.292975794496423
0.6878211613562276 0.7789469341795776 0.22350856397324495
0.5725296805216414 0.9222053981844631 0.21211125350699894
0.6145284598134322 0.7857622312921997 0.31775709515970507
0.7086411510629604 0.9243080285713617 0.292975794496423
0.8878211613562277 0.7789469341795776 0.22350856397324495
0.7725296805216415 0.9222053981844631 0.21211125350699894
0.8145284598134321 0.7857622312921997 0.31775709515970507
0.9086411510629605 0.9243080285713617 0.292975794496423
0.08782116135622763 -0.021053065820422462 0.423508563973245
-0.0274703194783585 0.12220539818446308 0.41211125350699895
0.014528459813432147 -0.014237768707800334 0.517757095159705
0.10864115106296049 0.12430802857136168 0.49297579449642304
0.2878211613562276 -0.021053065820422462 0.423508563973245
0.17252968052164153 0.12220539818446308 0.41211125350699895
0.21452845981343216 -0.014237768707800334 0.517757095159705
0.30864115106296053 0.12430802857136168 0.49297579449642304
0.4878211613562276 -0.021053065820422462 0.423508563973245
0.37252968052164154 0.12220539818446308 0.41211125350699895
0.4145284598134322 -0.014237768707800334 0.517757095159705
0.5086411510629605 0.12430802857136168 0.49297579449642304
0.6878211613562276 -0.021053065820422462 0.423508563973245
0.5725296805216414 0.12220539818446308 0.41211125350699895
0.6145284598134322 -0.014237768707800334 0.517757095159705
0.7086411510629604 0.12430802857136168 0.49297579449642304
0.8878211613562277 -0.021053065820422462 0.423508563973245
0.7725296805216415 0.12220539818446308 0.41211125350699895
0.8145284598134321 -0.014237768707800334 0.517757095159705
0.9086411510629605 0.12430802857136168 0.49297579449642304
0.08782116135622763 0.17894693417957755 0.423508563973245
-0.0274703194783585 0.3222053981844631 0.41211125350699895
0.014528459813432147 0.18576223129219968 0.517757095159705
0.10864115106296049 0.3243080285713617 0.49297579449642304
0.2878211613562276 0.17894693417957755 0.423508563973245
0.17252968052164153 0.3222053981844631 0.41211125350699895
0.21452845981343216 0.18576223129219968 0.517757095159705
0.30864115106296053 0.3243080285713617 0.49297579449642304
0.4878211613562276 0.17894693417957755 0.423508563973245
0.37252968052164154 0.3222053981844631 0.41211125350699895
0.4145284598134322 0.18576223129219968 0.517757095159705
0.5086411510629605 0.3243080285713617 0.49297579449642304
0.6878211613562276 0.17894693417957755 0.423508563973245
0.5725296805216414 0.3222053981844631 0.41211125350699895
0.6145284598134322 0.18576223129219968 0.517757095159705
0.7086411510629604 0.3243080285713617 0.49297579449642304
0.8878211613562277 0.17894693417957755 0.423508563973245
0.7725296805216415 0.3222053981844631 0.41211125350699895
0.8145284598134321 0.18576223129219968 0.517757095159705
0.9086411510629605 0.3243080285713617 0.49297579449642304
0.08782116135622763 0.37894693417957753 0.423508563973245
-0.0274703194783585 0.5222053981844631 0.41211125350699895
0.014528459813432147 0.3857622312921997 0.517757095159705
0.10864115106296049 0.5243080285713617 0.49297579449642304
0.2878211613562276 0.37894693417957753 0.423508563973245
0.17252968052164153 0.5222053981844631 0.41211125350699895
0.21452845981343216 0.3857622312921997 0.517757095159705
0.30864115106296053 0.5243080285713617 0.49297579449642304
0.4878211613562276 0.37894693417957753 0.423508563973245
0.37252968052164154 0.5222053981844631 0.41211125350699895
0.4145284598134322 0.3857622312921997 0.517757095159705
0.5086411510629605 0.5243080285713617 0.49297579449642304
0.6878211613562276 0.37894693417957753 0.423508563973245
0.5725296805216414 0.5222053981844631 0.41211125350699895
0.6145284598134322 0.3857622312921997 0.517757095159705
0.7086411510629604 0.5243080285713617 0.49297579449642304
0.8878211613562277 0.37894693417957753 0.423508563973245
0.7725296805216415 0.5222053981844631 0.41211125350699895
0.8145284598134321 0.3857622312921997 0.517757095159705
0.9086411510629605 0.5243080285713617 0.49297579449642304
0.08782116135622763 0.5789469341795775 0.423508563973245
-0.0274703194783585 0.7222053981844632 0.41211125350699895
0.014528459813432147 0.5857622312921997 0.517757095159705
0.10864115106296049 0.7243080285713618 0.49297579449642304
0.2878211613562276 0.5789469341795775 0.423508563973245
0.17252968052164153 0.7222053981844632 0.41211125350699895
0.21452845981343216 0.5857622312921997 0.517757095159705
0.30864115106296053 0.7243080285713618 0.49297579449642304
0.4878211613562276 0.5789469341795775 0.423508563973245
0.37252968052164154 0.7222053981844632 0.41211125350699895
0.4145284598134322 0.5857622312921997 0.517757095159705
0.5086411510629605 0.7243080285713618 0.49297579449642304
0.6878211613562276 0.5789469341795775 0.423508563973245
0.5725296805216414 0.7222053981844632 0.41211125350699895
0.6145284598134322 0.5857622312921997 0.517757095159705
0.7086411510629604 0.7243080285713618 0.49297579449642304
0.8878211613562277 0.5789469341795775 0.423508563973245
0.7725296805216415 0.7222053981844632 0.41211125350699895
0.8145284598134321 0.5857622312921997 0.517757095159705
0.9086411510629605 0.7243080285713618 0.49297579449642304
0.08782116135622763 0.7789469341795776 0.423508563973245
-0.0274703194783585 0.9222053981844631 0.41211125350699895
0.014528459813432147 0.7857622312921997 0.517757095159705
0.10864115106296049 0.9243080285713617 0.49297579449642304
0.2878211613562276 0.7789469341795776 0.423508563973245
0.17252968052164153 0.9222053981844631 0.41211125350699895
0.21452845981343216 0.7857622312921997 0.517757095159705
0.30864115106296053 0.9243080285713617 0.49297579449642304
0.4878211613562276 0.7789469341795776 0.423508563973245
0.37252968052164154 0.9222053981844631 0.41211125350699895
0.4145284598134322 0.7857622312921997 0.517757095159705
0.5086411510629605 0.9243080285713617 0.49297579449642304
0.6878211613562276 0.7789469341795776 0.423508563973245
0.5725296805216414 0.9222053981844631 0.41211125350699895
0.6145284598134322 0.7857622312921997 0.517757095159705
0.7086411510629604 0.9243080285713617 0.49297579449642304
0.8878211613562277 0.7789469341795776 0.423508563973245
0.7725296805216415 0.9222053981844631 0.41211125350699895
0.8145284598134321 0.7857622312921997 0.517757095159705
0.9086411510629605 0.9243080285713617 0.49297579449642304
0.08782116135622763 -0.021053065820422462 0.6235085639732451
-0.0274703194783585 0.12220539818446308 0.612111253506999
0.014528459813432147 -0.014237768707800334 0.7177570951597051
0.10864115106296049 0.12430802857136168 0.692975794496423
0.2878211613562276 -0.021053065820422462 0.6235085639732451
0.17252968052164153 0.12220539818446308 0.612111253506999
0.21452845981343216 -0.014237768707800334 0.7177570951597051
0.30864115106296053 0.12430802857136168 0.692975794496423
0.4878211613562276 -0.021053065820422462 0.6235085639732451
0.37252968052164154 0.12220539818446308 0.612111253506999
0.4145284598134322 -0.014237768707800334 0.7177570951597051
0.5086411510629605 0.12430802857136168 0.692975794496423
0.6878211613562276 -0.021053065820422462 0.6235085639732451
0.5725296805216414 0.12220539818446308 0.612111253506999
0.6145284598134322 -0.014237768707800334 0.7177570951597051
0.7086411510629604 0.12430802857136168 0.692975794496423
0.8878211613562277 -0.021053065820422462 0.6235085639732451
0.7725296805216415 0.12220539818446308 0.612111253506999
0.8145284598134321 -0.014237768707800334 0.7177570951597051
0.9086411510629605 0.12430802857136168 0.692975794496423
0.08782116135622763 0.17894693417957755 0.6235085639732451
-0.0274703194783585 0.3222053981844631 0.612111253506999
0.014528459813432147 0.18576223129219968 0.7177570951597051
0.10864115106296049 0.3243080285713617 0.692975794496423
0.2878211613562276 0.17894693417957755 0.6235085639732451
0.17252968052164153 0.3222053981844631 0.612111253506999
0.21452845981343216 0.18576223129219968 0.7177570951597051
0.30864115106296053 0.3243080285713617 0.692975794496423
0.4878211613562276 0.17894693417957755 0.6235085639732451
0.37252968052164154 0.3222053981844631 0.612111253506999
0.4145284598134322 0.18576223129219968 0.7177570951597051
0.5086411510629605 0.3243080285713617 0.692975794496423
0.6878211613562276 0.17894693417957755 0.6235085639732451
0.5725296805216414 0.3222053981844631 0.612111253506999
0.6145284598134322 0.18576223129219968 0.7177570951597051
0.7086411510629604 0.3243080285713617 0.692975794496423
0.8878211613562277 0.17894693417957755 0.6235085639732451
0.7725296805216415 0.3222053981844631 0.612111253506999
0.8145284598134321 0.18576223129219968 0.7177570951597051
0.9086411510629605 0.3243080285713617 0.692975794496423
0.08782116135622763 0.37894693417957753 0.6235085639732451
-0.0274703194783585 0.5222053981844631 0.612111253506999
0.014528459813432147 0.3857622312921997 0.7177570951597051
0.10864115106296049 0.5243080285713617 0.692975794496423
0.2878211613562276 0.37894693417957753 0.6235085639732451
0.17252968052164153 0.5222053981844631 0.612111253506999
0.21452845981343216 0.3857622312921997 0.7177570951597051
0.30864115106296053 0.5243080285713617 0.692975794496423
0.4878211613562276 0.37894693417957753 0.6235085639732451
0.37252968052164154 0.5222053981844631 0.612111253506999
0.4145284598134322 0.3857622312921997 0.7177570951597051
0.5086411510629605 0.5243080285713617 0.692975794496423
0.6878211613562276 0.37894693417957753 0.6235085639732451
0.5725296805216414 0.5222053981844631 0.612111253506999
0.6145284598134322 0.3857622312921997 0.7177570951597051
0.7086411510629604 0.5243080285713617 0.692975794496423
0.8878211613562277 0.37894693417957753 0.6235085639732451
0.7725296805216415 0.5222053981844631 0.612111253506999
0.8145284598134321 0.3857622312921997 0.7177570951597051
0.9086411510629605 0.5243080285713617 0.692975794496423
0.08782116135622763 0.5789469341795775 0.6235085639732451
-0.0274703194783585 0.7222053981844632 0.612111253506999
0.014528459813432147 0.5857622312921997 0.7177570951597051
0.10864115106296049 0.7243080285713618 0.692975794496423
0.2878211613562276 0.5789469341795775 0.6235085639732451
0.17252968052164153 0.7222053981844632 0.612111253506999
0.21452845981343216 0.5857622312921997 0.7177570951597051
0.30864115106296053 0.7243080285713618 0.692975794496423
0.4878211613562276 0.5789469341795775 0.6235085639732451
0.37252968052164154 0.7222053981844632 0.612111253506999
0.4145284598134322 0.5857622312921997 0.7177570951597051
0.5086411510629605 0.7243080285713618 0.692975794496423
0.6878211613562276 0.5789469341795775 0.6235085639732451
0.5725296805216414 0.7222053981844632 0.612111253506999
0.6145284598134322 0.5857622312921997 0.7177570951597051
0.7086411510629604 0.7243080285713618 0.692975794496423
0.8878211613562277 0.5789469341795775 0.6235085639732451
0.7725296805216415 0.7222053981844632 0.612111253506999
0.8145284598134321 0.5857622312921997 0.7177570951597051
0.9086411510629605 0.7243080285713618 0.692975794496423
0.08782116135622763 0.7789469341795776 0.6235085639732451
-0.0274703194783585 0.9222053981844631 0.612111253506999
0.014528459813432147 0.7857622312921997 0.7177570951597051
0.10864115106296049 0.9243080285713617 0.692975794496423
0.2878211613562276 0.7789469341795776 0.6235085639732451
0.17252968052164153 0.9222053981844631 0.612111253506999
0.21452845981343216 0.7857622312921997 0.7177570951597051
0.30864115106296053 0.9243080285713617 0.692975794496423
0.4878211613562276 0.7789469341795776 0.6235085639732451
0.37252968052164154 0.9222053981844631 0.612111253506999
0.4145284598134322 0.7857622312921997 0.7177570951597051
0.5086411510629605 0.9243080285713617 0.692975794496423
0.6878211613562276 0.7789469341795776 0.6235085639732451
0.5725296805216414 0.9222053981844631 0.612111253506999
0.6145284598134322 0.7857622312921997 0.7177570951597051
0.7086411510629604 0.9243080285713617 0.692975794496423
0.8878211613562277 0.7789469341795776 0.6235085639732451
0.7725296805216415 0.9222053981844631 0.612111253506999
0.8145284598134321 0.7857622312921997 0.7177570951597051
0.9086411510629605 0.9243080285713617 0.692975794496423
0.08782116135622763 -0.021053065820422462 0.823508563973245
-0.0274703194783585 0.12220539818446308 0.8121112535069991
0.014528459813432147 -0.014237768707800334 0.9177570951597052
0.10864115106296049 0.12430802857136168 0.8929757944964231
0.2878211613562276 -0.021053065820422462 0.823508563973245
0.17252968052164153 0.12220539818446308 0.8121112535069991
0.21452845981343216 -0.014237768707800334 0.9177570951597052
0.30864115106296053 0.12430802857136168 0.8929757944964231
0.4878211613562276 -0.021053065820422462 0.823508563973245
0.37252968052164154 0.12220539818446308 0.8121112535069991
0.4145284598134322 -0.014237768707800334 0.9177570951597052
0.5086411510629605 0.12430802857136168 0.8929757944964231
0.6878211613562276 -0.021053065820422462 0.823508563973245
0.5725296805216414 0.12220539818446308 0.8121112535069991
0.6145284598134322 -0.014237768707800334 0.9177570951597052
0.7086411510629604 0.12430802857136168 0.8929757944964231
0.8878211613562277 -0.021053065820422462 0.823508563973245
0.7725296805216415 0.12220539818446308 0.8121112535069991
0.8145284598134321 -0.014237768707800334 0.9177570951597052
0.9086411510629605 0.12430802857136168 0.8929757944964231
0.08782116135622763 0.17894693417957755 0.823508563973245
-0.0274703194783585 0.3222053981844631 0.8121112535069991
0.014528459813432147 0.18576223129219968 0.9177570951597052
0.10864115106296049 0.3243080285713617 0.8929757944964231
0.2878211613562276 0.17894693417957755 0.823508563973245
0.17252968052164153 0.3222053981844631 0.8121112535069991
0.21452845981343216 0.18576223129219968 0.9177570951597052
0.30864115106296053 0.3243080285713617 0.8929757944964231
0.4878211613562276 0.17894693417957755 0.823508563973245
0.37252968052164154 0.3222053981844631 0.8121112535069991
0.4145284598134322 0.18576223129219968 0.9177570951597052
0.5086411510629605 0.3243080285713617 0.8929757944964231
0.6878211613562276 0.17894693417957755 0.823508563973245
0.5725296805216414 0.3222053981844631 0.8121112535069991
0.6145284598134322 0.18576223129219968 0.9177570951597052
0.7086411510629604 0.3243080285713617 0.8929757944964231
0.8878211613562277 0.17894693417957755 0.823508563973245
0.7725296805216415 0.3222053981844631 0.8121112535069991
0.8145284598134321 0.18576223129219968 0.9177570951597052
0.9086411510629605 0.3243080285713617 0.8929757944964231
0.08782116135622763 0.37894693417957753 0.823508563973245
-0.0274703194783585 0.5222053981844631 0.8121112535069991
0.014528459813432147 0.3857622312921997 0.9177570951597052
0.10864115106296049 0.5243080285713617 0.8929757944964231
0.2878211613562276 0.37894693417957753 0.823508563973245
0.17252968052164153 0.5222053981844631 0.8121112535069991
0.21452845981343216 0.3857622312921997 0.9177570951597052
0.30864115106296053 0.5243080285713617 0.8929757944964231
0.4878211613562276 0.37894693417957753 0.823508563973245
0.37252968052164154 0.5222053981844631 0.8121112535069991
0.4145284598134322 0.3857622312921997 0.9177570951597052
0.5086411510629605 0.5243080285713617 0.8929757944964231
0.6878211613562276 0.37894693417957753 0.823508563973245
0.5725296805216414 0.5222053981844631 0.8121112535069991
0.6145284598134322 0.3857622312921997 0.9177570951597052
0.7086411510629604 0.5243080285713617 0.8929757944964231
0.8878211613562277 0.37894693417957753 0.823508563973245
0.7725296805216415 0.5222053981844631 0.8121112535069991
0.8145284598134321 0.3857622312921997 0.9177570951597052
0.9086411510629605 0.5243080285713617 0.8929757944964231
0.08782116135622763 0.5789469341795775 0.823508563973245
-0.0274703194783585 0.7222053981844632 0.8121112535069991
0.014528459813432147 0.5857622312921997 0.9177570951597052
0.10864115106296049 0.7243080285713618 0.8929757944964231
0.2878211613562276 0.5789469341795775 0.823508563973245
0.17252968052164153 0.7222053981844632 0.8121112535069991
0.21452845981343216 0.5857622312921997 0.9177570951597052
0.30864115106296053 0.7243080285713618 0.8929757944964231
0.4878211613562276 0.5789469341795775 0.823508563973245
0.37252968052164154 0.7222053981844632 0.8121112535069991
0.4145284598134322 0.5857622312921997 0.9177570951597052
0.5086411510629605 0.7243080285713618 0.8929757944964231
0.6878211613562276 0.5789469341795775 0.823508563973245
0.5725296805216414 0.7222053981844632 0.8121112535069991
0.6145284598134322 0.5857622312921997 0.9177570951597052
0.7086411510629604 0.7243080285713618 0.8929757944964231
0.8878211613562277 0.5789469341795775 0.823508563973245
0.7725296805216415 0.7222053981844632 0.8121112535069991
0.8145284598134321 0.5857622312921997 0.9177570951597052
0.9086411510629605 0.7243080285713618 0.8929757944964231
0.08782116135622763 0.7789469341795776 0.823508563973245
-0.0274703194783585 0.9222053981844631 0.8121112535069991
0.014528459813432147 0.7857622312921997 0.9177570951597052
0.10864115106296049 0.9243080285713617 0.8929757944964231
0.2878211613562276 0.7789469341795776 0.823508563973245
0.17252968052164153 0.9222053981844631 0.8121112535069991
0.21452845981343216 0.7857622312921997 0.9177570951597052
0.30864115106296053 0.9243080285713617 0.8929757944964231
0.4878211613562276 0.7789469341795776 0.823508563973245
0.37252968052164154 0.9222053981844631 0.8121112535069991
0.4145284598134322 0.7857622312921997 0.9177570951597052
0.5086411510629605 0.9243080285713617 0.8929757944964231
0.6878211613562276 0.7789469341795776 0.823508563973245
0.5725296805216414 0.9222053981844631 0.8121112535069991
0.6145284598134322 0.7857622312921997 0.9177570951597052
0.7086411510629604 0.9243080285713617 0.8929757944964231
0.8878211613562277 0.7789469341795776 0.823508563973245
0.7725296805216415 0.9222053981844631 0.8121112535069991
0.8145284598134321 0.7857622312921997 0.9177570951597052
0.9086411510629605 0.9243080285713617 0.8929757944964231
