FCC BaO
3.971
5.0 0.0 0.0
0.0 5.0 0.0
0.0 0.0 5.0
Ba O 
500 500 
Direct
-0.014156027849845546 -0.007057601014494545 0.008133847184562084
-0.02839404857743043 0.11482754854550783 0.12060685572857555
0.11454081734776303 -0.017138320494380348 0.09848998865317929
0.07434359931791434 0.1023979000878659 0.02110553537842236
0.18584397215015447 -0.007057601014494545 0.008133847184562084
0.1716059514225696 0.11482754854550783 0.12060685572857555
0.31454081734776307 -0.017138320494380348 0.09848998865317929
0.27434359931791436 0.1023979000878659 0.02110553537842236
0.3858439721501545 -0.007057601014494545 0.008133847184562084
0.3716059514225696 0.11482754854550783 0.12060685572857555
0.514540817347763 -0.017138320494380348 0.09848998865317929
0.47434359931791437 0.1023979000878659 0.02110553537842236
0.5858439721501545 -0.007057601014494545 0.008133847184562084
0.5716059514225695 0.11482754854550783 0.12060685572857555
0.7145408173477631 -0.017138320494380348 0.09848998865317929
0.6743435993179143 0.1023979000878659 0.02110553537842236
0.7858439721501544 -0.007057601014494545 0.008133847184562084
0.7716059514225696 0.11482754854550783 0.12060685572857555
0.914540817347763 -0.017138320494380348 0.09848998865317929
0.8743435993179145 0.1023979000878659 0.02110553537842236
-0.014156027849845546 0.19294239898550547 0.008133847184562084
-0.02839404857743043 0.3148275485455079 0.12060685572857555
0.11454081734776303 0.18286167950561966 0.09848998865317929
0.07434359931791434 0.3023979000878659 0.02110553537842236
0.18584397215015447 0.19294239898550547 0.008133847184562084
0.1716059514225696 0.3148275485455079 0.12060685572857555
0.31454081734776307 0.18286167950561966 0.09848998865317929
0.27434359931791436 0.3023979000878659 0.02110553537842236
0.3858439721501545 0.19294239898550547 0.008133847184562084
0.3716059514225696 0.3148275485455079 0.12060685572857555
0.514540817347763 0.18286167950561966 0.09848998865317929
0.47434359931791437 0.3023979000878659 0.02110553537842236
0.5858439721501545 0.19294239898550547 0.008133847184562084
0.5716059514225695 0.3148275485455079 0.12060685572857555
0.7145408173477631 0.18286167950561966 0.09848998865317929
0.6743435993179143 0.3023979000878659 0.02110553537842236
0.7858439721501544 0.19294239898550547 0.008133847184562084
0.7716059514225696 0.3148275485455079 0.12060685572857555
0.914540817347763 0.18286167950561966 0.09848998865317929
0.8743435993179145 0.3023979000878659 0.02110553537842236
-0.014156027849845546 0.3929423989855055 0.008133847184562084
-0.02839404857743043 0.5148275485455079 0.12060685572857555
0.11454081734776303 0.38286167950561967 0.09848998865317929
0.07434359931791434 0.5023979000878659 0.02110553537842236
0.18584397215015447 0.3929423989855055 0.008133847184562084
0.1716059514225696 0.5148275485455079 0.12060685572857555
0.31454081734776307 0.38286167950561967 0.09848998865317929
0.27434359931791436 0.5023979000878659 0.02110553537842236
0.3858439721501545 0.3929423989855055 0.008133847184562084
0.3716059514225696 0.5148275485455079 0.12060685572857555
0.514540817347763 0.38286167950561967 0.09848998865317929
0.47434359931791437 0.5023979000878659 0.02110553537842236
0.5858439721501545 0.3929423989855055 0.008133847184562084
0.5716059514225695 0.5148275485455079 0.12060685572857555
0.7145408173477631 0.38286167950561967 0.09848998865317929
0.6743435993179143 0.5023979000878659 0.02110553537842236
0.7858439721501544 0.3929423989855055 0.008133847184562084
0.7716059514225696 0.5148275485455079 0.12060685572857555
0.914540817347763 0.38286167950561967 0.09848998865317929
0.8743435993179145 0.5023979000878659 0.02110553537842236
-0.014156027849845546 0.5929423989855055 0.008133847184562084
-0.02839404857743043 0.7148275485455079 0.12060685572857555
0.11454081734776303 0.5828616795056196 0.09848998865317929
0.07434359931791434 0.702397900087866 0.02110553537842236
0.18584397215015447 0.5929423989855055 0.008133847184562084
0.1716059514225696 0.7148275485455079 0.12060685572857555
0.31454081734776307 0.5828616795056196 0.09848998865317929
0.27434359931791436 0.702397900087866 0.02110553537842236
0.3858439721501545 0.5929423989855055 0.008133847184562084
0.3716059514225696 0.7148275485455079 0.12060685572857555
0.514540817347763 0.5828616795056196 0.09848998865317929
0.47434359931791437 0.702397900087866 0.02110553537842236
0.5858439721501545 0.5929423989855055 0.008133847184562084
0.5716059514225695 0.7148275485455079 0.12060685572857555
0.7145408173477631 0.5828616795056196 0.09848998865317929
0.6743435993179143 0.702397900087866 0.02110553537842236
0.7858439721501544 0.5929423989855055 0.008133847184562084
0.7716059514225696 0.7148275485455079 0.12060685572857555
0.914540817347763 0.5828616795056196 0.09848998865317929
0.8743435993179145 0.702397900087866 0.02110553537842236
-0.014156027849845546 0.7929423989855056 0.008133847184562084
-0.02839404857743043 0.914827548545508 0.12060685572857555
0.11454081734776303 0.7828616795056197 0.09848998865317929
0.07434359931791434 0.902397900087866 0.02110553537842236
0.18584397215015447 0.7929423989855056 0.008133847184562084
0.1716059514225696 0.914827548545508 0.12060685572857555
0.31454081734776307 0.7828616795056197 0.09848998865317929
0.27434359931791436 0.902397900087866 0.02110553537842236
0.3858439721501545 0.7929423989855056 0.008133847184562084
0.3716059514225696 0.914827548545508 0.12060685572857555
0.514540817347763 0.7828616795056197 0.09848998865317929
0.47434359931791437 0.902397900087866 0.02110553537842236
0.5858439721501545 0.7929423989855056 0.008133847184562084
0.5716059514225695 0.914827548545508 0.12060685572857555
0.7145408173477631 0.7828616795056197 0.09848998865317929
0.6743435993179143 0.902397900087866 0.02110553537842236
0.7858439721501544 0.7929423989855056 0.008133847184562084
0.7716059514225696 0.914827548545508 0.12060685572857555
0.914540817347763 0.7828616795056197 0.09848998865317929
0.8743435993179145 0.902397900087866 0.02110553537842236
-0.014156027849845546 -0.007057601014494545 0.2081338471845621
-0.02839404857743043 0.11482754854550783 0.32060685572857556
0.11454081734776303 -0.017138320494380348 0.2984899886531793
0.07434359931791434 0.1023979000878659 0.22110553537842237
0.18584397215015447 -0.007057601014494545 0.2081338471845621
0.1716059514225696 0.11482754854550783 0.32060685572857556
0.31454081734776307 -0.017138320494380348 0.2984899886531793
0.27434359931791436 0.1023979000878659 0.22110553537842237
0.3858439721501545 -0.007057601014494545 0.2081338471845621
0.3716059514225696 0.11482754854550783 0.32060685572857556
0.514540817347763 -0.017138320494380348 0.2984899886531793
0.47434359931791437 0.1023979000878659 0.22110553537842237
0.5858439721501545 -0.007057601014494545 0.2081338471845621
0.5716059514225695 0.11482754854550783 0.32060685572857556
0.7145408173477631 -0.017138320494380348 0.2984899886531793
0.6743435993179143 0.1023979000878659 0.22110553537842237
0.7858439721501544 -0.007057601014494545 0.2081338471845621
0.7716059514225696 0.11482754854550783 0.32060685572857556
0.914540817347763 -0.017138320494380348 0.2984899886531793
0.8743435993179145 0.1023979000878659 0.22110553537842237
-0.014156027849845546 0.19294239898550547 0.2081338471845621
-0.02839404857743043 0.3148275485455079 0.32060685572857556
0.11454081734776303 0.18286167950561966 0.2984899886531793
0.07434359931791434 0.3023979000878659 0.22110553537842237
0.18584397215015447 0.19294239898550547 0.2081338471845621
0.1716059514225696 0.3148275485455079 0.32060685572857556
0.31454081734776307 0.18286167950561966 0.2984899886531793
0.27434359931791436 0.3023979000878659 0.22110553537842237
0.3858439721501545 0.19294239898550547 0.2081338471845621
0.3716059514225696 0.3148275485455079 0.32060685572857556
0.514540817347763 0.18286167950561966 0.2984899886531793
0.47434359931791437 0.3023979000878659 0.22110553537842237
0.5858439721501545 0.19294239898550547 0.2081338471845621
0.5716059514225695 0.3148275485455079 0.32060685572857556
0.7145408173477631 0.18286167950561966 0.2984899886531793
0.6743435993179143 0.3023979000878659 0.22110553537842237
0.7858439721501544 0.19294239898550547 0.2081338471845621
0.7716059514225696 0.3148275485455079 0.32060685572857556
0.914540817347763 0.18286167950561966 0.2984899886531793
0.8743435993179145 0.3023979000878659 0.22110553537842237
-0.014156027849845546 0.3929423989855055 0.2081338471845621
-0.02839404857743043 0.5148275485455079 0.32060685572857556
0.11454081734776303 0.38286167950561967 0.2984899886531793
0.07434359931791434 0.5023979000878659 0.22110553537842237
0.18584397215015447 0.3929423989855055 0.2081338471845621
0.1716059514225696 0.5148275485455079 0.32060685572857556
0.31454081734776307 0.38286167950561967 0.2984899886531793
0.27434359931791436 0.5023979000878659 0.22110553537842237
0.3858439721501545 0.3929423989855055 0.2081338471845621
0.3716059514225696 0.5148275485455079 0.32060685572857556
0.514540817347763 0.38286167950561967 0.2984899886531793
0.47434359931791437 0.5023979000878659 0.22110553537842237
0.5858439721501545 0.3929423989855055 0.2081338471845621
0.5716059514225695 0.5148275485455079 0.32060685572857556
0.7145408173477631 0.38286167950561967 0.2984899886531793
0.6743435993179143 0.5023979000878659 0.22110553537842237
0.7858439721501544 0.3929423989855055 0.2081338471845621
0.7716059514225696 0.5148275485455079 0.32060685572857556
0.914540817347763 0.38286167950561967 0.2984899886531793
0.8743435993179145 0.5023979000878659 0.22110553537842237
-0.014156027849845546 0.5929423989855055 0.2081338471845621
-0.02839404857743043 0.7148275485455079 0.32060685572857556
0.11454081734776303 0.5828616795056196 0.2984899886531793
0.07434359931791434 0.702397900087866 0.22110553537842237
0.18584397215015447 0.5929423989855055 0.2081338471845621
0.1716059514225696 0.7148275485455079 0.32060685572857556
0.31454081734776307 0.5828616795056196 0.2984899886531793
0.27434359931791436 0.702397900087866 0.22110553537842237
0.3858439721501545 0.5929423989855055 0.2081338471845621
0.3716059514225696 0.7148275485455079 0.32060685572857556
0.514540817347763 0.5828616795056196 0.2984899886531793
0.47434359931791437 0.702397900087866 0.22110553537842237
0.5858439721501545 0.5929423989855055 0.2081338471845621
0.5716059514225695 0.7148275485455079 0.32060685572857556
0.7145408173477631 0.5828616795056196 0.2984899886531793
0.6743435993179143 0.702397900087866 0.22110553537842237
0.7858439721501544 0.5929423989855055 0.2081338471845621
0.7716059514225696 0.7148275485455079 0.32060685572857556
0.914540817347763 0.5828616795056196 0.2984899886531793
0.8743435993179145 0.702397900087866 0.22110553537842237
-0.014156027849845546 0.7929423989855056 0.2081338471845621
-0.02839404857743043 0.914827548545508 0.32060685572857556
0.11454081734776303 0.7828616795056197 0.2984899886531793
0.07434359931791434 0.902397900087866 0.22110553537842237
0.18584397215015447 0.7929423989855056 0.2081338471845621
0.1716059514225696 0.914827548545508 0.32060685572857556
0.31454081734776307 0.7828616795056197 0.2984899886531793
0.27434359931791436 0.902397900087866 0.22110553537842237
0.3858439721501545 0.7929423989855056 0.2081338471845621
0.3716059514225696 0.914827548545508 0.32060685572857556
0.514540817347763 0.7828616795056197 0.2984899886531793
0.47434359931791437 0.902397900087866 0.22110553537842237
0.5858439721501545 0.7929423989855056 0.2081338471845621
0.5716059514225695 0.914827548545508 0.32060685572857556
0.7145408173477631 0.7828616795056197 0.2984899886531793
0.6743435993179143 0.902397900087866 0.22110553537842237
0.7858439721501544 0.7929423989855056 0.2081338471845621
0.7716059514225696 0.914827548545508 0.32060685572857556
0.914540817347763 0.7828616795056197 0.2984899886531793
0.8743435993179145 0.902397900087866 0.22110553537842237
-0.014156027849845546 -0.007057601014494545 0.40813384718456214
-0.02839404857743043 0.11482754854550783 0.5206068557285756
0.11454081734776303 -0.017138320494380348 0.4984899886531793
0.07434359931791434 0.1023979000878659 0.4211055353784223
0.18584397215015447 -0.007057601014494545 0.40813384718456214
0.1716059514225696 0.11482754854550783 0.5206068557285756
0.31454081734776307 -0.017138320494380348 0.4984899886531793
0.27434359931791436 0.1023979000878659 0.4211055353784223
0.3858439721501545 -0.007057601014494545 0.40813384718456214
0.3716059514225696 0.11482754854550783 0.5206068557285756
0.514540817347763 -0.017138320494380348 0.4984899886531793
0.47434359931791437 0.1023979000878659 0.4211055353784223
0.5858439721501545 -0.007057601014494545 0.40813384718456214
0.5716059514225695 0.11482754854550783 0.5206068557285756
0.7145408173477631 -0.017138320494380348 0.4984899886531793
0.6743435993179143 0.1023979000878659 0.4211055353784223
0.7858439721501544 -0.007057601014494545 0.40813384718456214
0.7716059514225696 0.11482754854550783 0.5206068557285756
0.914540817347763 -0.017138320494380348 0.4984899886531793
0.8743435993179145 0.1023979000878659 0.4211055353784223
-0.014156027849845546 0.19294239898550547 0.40813384718456214
-0.02839404857743043 0.3148275485455079 0.5206068557285756
0.11454081734776303 0.18286167950561966 0.4984899886531793
0.07434359931791434 0.3023979000878659 0.4211055353784223
0.18584397215015447 0.19294239898550547 0.40813384718456214
0.1716059514225696 0.3148275485455079 0.5206068557285756
0.31454081734776307 0.18286167950561966 0.4984899886531793
0.27434359931791436 0.3023979000878659 0.4211055353784223
0.3858439721501545 0.19294239898550547 0.40813384718456214
0.3716059514225696 0.3148275485455079 0.5206068557285756
0.514540817347763 0.18286167950561966 0.4984899886531793
0.47434359931791437 0.3023979000878659 0.4211055353784223
0.5858439721501545 0.19294239898550547 0.40813384718456214
0.5716059514225695 0.3148275485455079 0.5206068557285756
0.7145408173477631 0.18286167950561966 0.4984899886531793
0.6743435993179143 0.3023979000878659 0.4211055353784223
0.7858439721501544 0.19294239898550547 0.40813384718456214
0.7716059514225696 0.3148275485455079 0.5206068557285756
0.914540817347763 0.18286167950561966 0.4984899886531793
0.8743435993179145 0.3023979000878659 0.4211055353784223
-0.014156027849845546 0.3929423989855055 0.40813384718456214
-0.02839404857743043 0.5148275485455079 0.5206068557285756
0.11454081734776303 0.38286167950561967 0.4984899886531793
0.07434359931791434 0.5023979000878659 0.4211055353784223
0.18584397215015447 0.3929423989855055 0.40813384718456214
0.1716059514225696 0.5148275485455079 0.5206068557285756
0.31454081734776307 0.38286167950561967 0.4984899886531793
0.27434359931791436 0.5023979000878659 0.4211055353784223
0.3858439721501545 0.3929423989855055 0.40813384718456214
0.3716059514225696 0.5148275485455079 0.5206068557285756
0.514540817347763 0.38286167950561967 0.4984899886531793
0.47434359931791437 0.5023979000878659 0.4211055353784223
0.5858439721501545 0.3929423989855055 0.40813384718456214
0.5716059514225695 0.5148275485455079 0.5206068557285756
0.7145408173477631 0.38286167950561967 0.4984899886531793
0.6743435993179143 0.5023979000878659 0.4211055353784223
0.7858439721501544 0.3929423989855055 0.40813384718456214
0.7716059514225696 0.5148275485455079 0.5206068557285756
0.914540817347763 0.38286167950561967 0.4984899886531793
0.8743435993179145 0.5023979000878659 0.4211055353784223
-0.014156027849845546 0.5929423989855055 0.40813384718456214
-0.02839404857743043 0.7148275485455079 0.5206068557285756
0.11454081734776303 0.5828616795056196 0.4984899886531793
0.07434359931791434 0.702397900087866 0.4211055353784223
0.18584397215015447 0.5929423989855055 0.40813384718456214
0.1716059514225696 0.7148275485455079 0.5206068557285756
0.31454081734776307 0.5828616795056196 0.4984899886531793
0.27434359931791436 0.702397900087866 0.4211055353784223
0.3858439721501545 0.5929423989855055 0.40813384718456214
0.3716059514225696 0.7148275485455079 0.5206068557285756
0.514540817347763 0.5828616795056196 0.4984899886531793
0.47434359931791437 0.702397900087866 0.4211055353784223
0.5858439721501545 0.5929423989855055 0.40813384718456214
0.5716059514225695 0.7148275485455079 0.5206068557285756
0.7145408173477631 0.5828616795056196 0.4984899886531793
0.6743435993179143 0.702397900087866 0.4211055353784223
0.7858439721501544 0.5929423989855055 0.40813384718456214
0.7716059514225696 0.7148275485455079 0.5206068557285756
0.914540817347763 0.5828616795056196 0.4984899886531793
0.8743435993179145 0.702397900087866 0.4211055353784223
-0.014156027849845546 0.7929423989855056 0.40813384718456214
-0.02839404857743043 0.914827548545508 0.5206068557285756
0.11454081734776303 0.7828616795056197 0.4984899886531793
0.07434359931791434 0.902397900087866 0.4211055353784223
0.18584397215015447 0.7929423989855056 0.40813384718456214
0.1716059514225696 0.914827548545508 0.5206068557285756
0.31454081734776307 0.7828616795056197 0.4984899886531793
0.27434359931791436 0.902397900087866 0.4211055353784223
0.3858439721501545 0.7929423989855056 0.40813384718456214
0.3716059514225696 0.914827548545508 0.5206068557285756
0.514540817347763 0.7828616795056197 0.4984899886531793
0.47434359931791437 0.902397900087866 0.4211055353784223
0.5858439721501545 0.7929423989855056 0.40813384718456214
0.5716059514225695 0.914827548545508 0.5206068557285756
0.7145408173477631 0.7828616795056197 0.4984899886531793
0.6743435993179143 0.902397900087866 0.4211055353784223
0.7858439721501544 0.7929423989855056 0.40813384718456214
0.7716059514225696 0.914827548545508 0.5206068557285756
0.914540817347763 0.7828616795056197 0.4984899886531793
0.8743435993179145 0.902397900087866 0.4211055353784223
-0.014156027849845546 -0.007057601014494545 0.6081338471845621
-0.02839404857743043 0.11482754854550783 0.7206068557285756
0.11454081734776303 -0.017138320494380348 0.6984899886531792
0.07434359931791434 0.1023979000878659 0.6211055353784224
0.18584397215015447 -0.007057601014494545 0.6081338471845621
0.1716059514225696 0.11482754854550783 0.7206068557285756
0.31454081734776307 -0.017138320494380348 0.6984899886531792
0.27434359931791436 0.1023979000878659 0.6211055353784224
0.3858439721501545 -0.007057601014494545 0.6081338471845621
0.3716059514225696 0.11482754854550783 0.7206068557285756
0.514540817347763 -0.017138320494380348 0.6984899886531792
0.47434359931791437 0.1023979000878659 0.6211055353784224
0.5858439721501545 -0.007057601014494545 0.6081338471845621
0.5716059514225695 0.11482754854550783 0.7206068557285756
0.7145408173477631 -0.017138320494380348 0.6984899886531792
0.6743435993179143 0.1023979000878659 0.6211055353784224
0.7858439721501544 -0.007057601014494545 0.6081338471845621
0.7716059514225696 0.11482754854550783 0.7206068557285756
0.914540817347763 -0.017138320494380348 0.6984899886531792
0.8743435993179145 0.1023979000878659 0.6211055353784224
-0.014156027849845546 0.19294239898550547 0.6081338471845621
-0.02839404857743043 0.3148275485455079 0.7206068557285756
0.11454081734776303 0.18286167950561966 0.6984899886531792
0.07434359931791434 0.3023979000878659 0.6211055353784224
0.18584397215015447 0.19294239898550547 0.6081338471845621
0.1716059514225696 0.3148275485455079 0.7206068557285756
0.31454081734776307 0.18286167950561966 0.6984899886531792
0.27434359931791436 0.3023979000878659 0.6211055353784224
0.3858439721501545 0.19294239898550547 0.6081338471845621
0.3716059514225696 0.3148275485455079 0.7206068557285756
0.514540817347763 0.18286167950561966 0.6984899886531792
0.47434359931791437 0.3023979000878659 0.6211055353784224
0.5858439721501545 0.19294239898550547 0.6081338471845621
0.5716059514225695 0.3148275485455079 0.7206068557285756
0.7145408173477631 0.18286167950561966 0.6984899886531792
0.6743435993179143 0.3023979000878659 0.6211055353784224
0.7858439721501544 0.19294239898550547 0.6081338471845621
0.7716059514225696 0.3148275485455079 0.7206068557285756
0.914540817347763 0.18286167950561966 0.6984899886531792
0.8743435993179145 0.3023979000878659 0.6211055353784224
-0.014156027849845546 0.3929423989855055 0.6081338471845621
-0.02839404857743043 0.5148275485455079 0.7206068557285756
0.11454081734776303 0.38286167950561967 0.6984899886531792
0.07434359931791434 0.5023979000878659 0.6211055353784224
0.18584397215015447 0.3929423989855055 0.6081338471845621
0.1716059514225696 0.5148275485455079 0.7206068557285756
0.31454081734776307 0.38286167950561967 0.6984899886531792
0.27434359931791436 0.5023979000878659 0.6211055353784224
0.3858439721501545 0.3929423989855055 0.6081338471845621
0.3716059514225696 0.5148275485455079 0.7206068557285756
0.514540817347763 0.38286167950561967 0.6984899886531792
0.47434359931791437 0.5023979000878659 0.6211055353784224
0.5858439721501545 0.3929423989855055 0.6081338471845621
0.5716059514225695 0.5148275485455079 0.7206068557285756
0.7145408173477631 0.38286167950561967 0.6984899886531792
0.6743435993179143 0.5023979000878659 0.6211055353784224
0.7858439721501544 0.3929423989855055 0.6081338471845621
0.7716059514225696 0.5148275485455079 0.7206068557285756
0.914540817347763 0.38286167950561967 0.6984899886531792
0.8743435993179145 0.5023979000878659 0.6211055353784224
-0.014156027849845546 0.5929423989855055 0.6081338471845621
-0.02839404857743043 0.7148275485455079 0.7206068557285756
0.11454081734776303 0.5828616795056196 0.6984899886531792
0.07434359931791434 0.702397900087866 0.6211055353784224
0.18584397215015447 0.5929423989855055 0.6081338471845621
0.1716059514225696 0.7148275485455079 0.7206068557285756
0.31454081734776307 0.5828616795056196 0.6984899886531792
0.27434359931791436 0.702397900087866 0.6211055353784224
0.3858439721501545 0.5929423989855055 0.6081338471845621
0.3716059514225696 0.7148275485455079 0.7206068557285756
0.514540817347763 0.5828616795056196 0.6984899886531792
0.47434359931791437 0.702397900087866 0.6211055353784224
0.5858439721501545 0.5929423989855055 0.6081338471845621
0.5716059514225695 0.7148275485455079 0.7206068557285756
0.7145408173477631 0.5828616795056196 0.6984899886531792
0.6743435993179143 0.702397900087866 0.6211055353784224
0.7858439721501544 0.5929423989855055 0.6081338471845621
0.7716059514225696 0.7148275485455079 0.7206068557285756
0.914540817347763 0.5828616795056196 0.6984899886531792
0.8743435993179145 0.702397900087866 0.6211055353784224
-0.014156027849845546 0.7929423989855056 0.6081338471845621
-0.02839404857743043 0.914827548545508 0.7206068557285756
0.11454081734776303 0.7828616795056197 0.6984899886531792
0.07434359931791434 0.902397900087866 0.6211055353784224
0.18584397215015447 0.7929423989855056 0.6081338471845621
0.1716059514225696 0.914827548545508 0.7206068557285756
0.31454081734776307 0.7828616795056197 0.6984899886531792
0.27434359931791436 0.902397900087866 0.6211055353784224
0.3858439721501545 0.7929423989855056 0.6081338471845621
0.3716059514225696 0.914827548545508 0.7206068557285756
0.514540817347763 0.7828616795056197 0.6984899886531792
0.47434359931791437 0.902397900087866 0.6211055353784224
0.5858439721501545 0.7929423989855056 0.6081338471845621
0.5716059514225695 0.914827548545508 0.7206068557285756
0.7145408173477631 0.7828616795056197 0.6984899886531792
0.6743435993179143 0.902397900087866 0.6211055353784224
0.7858439721501544 0.7929423989855056 0.6081338471845621
0.7716059514225696 0.914827548545508 0.7206068557285756
0.914540817347763 0.7828616795056197 0.6984899886531792
0.8743435993179145 0.902397900087866 0.6211055353784224
-0.014156027849845546 -0.007057601014494545 0.8081338471845622
-0.02839404857743043 0.11482754854550783 0.9206068557285756
0.11454081734776303 -0.017138320494380348 0.8984899886531793
0.07434359931791434 0.1023979000878659 0.8211055353784223
0.18584397215015447 -0.007057601014494545 0.8081338471845622
0.1716059514225696 0.11482754854550783 0.9206068557285756
0.31454081734776307 -0.017138320494380348 0.8984899886531793
0.27434359931791436 0.1023979000878659 0.8211055353784223
0.3858439721501545 -0.007057601014494545 0.8081338471845622
0.3716059514225696 0.11482754854550783 0.9206068557285756
0.514540817347763 -0.017138320494380348 0.8984899886531793
0.47434359931791437 0.1023979000878659 0.8211055353784223
0.5858439721501545 -0.007057601014494545 0.8081338471845622
0.5716059514225695 0.11482754854550783 0.9206068557285756
0.7145408173477631 -0.017138320494380348 0.8984899886531793
0.6743435993179143 0.1023979000878659 0.8211055353784223
0.7858439721501544 -0.007057601014494545 0.8081338471845622
0.7716059514225696 0.11482754854550783 0.9206068557285756
0.914540817347763 -0.017138320494380348 0.8984899886531793
0.8743435993179145 0.1023979000878659 0.8211055353784223
-0.014156027849845546 0.19294239898550547 0.8081338471845622
-0.02839404857743043 0.3148275485455079 0.9206068557285756
0.11454081734776303 0.18286167950561966 0.8984899886531793
0.07434359931791434 0.3023979000878659 0.8211055353784223
0.18584397215015447 0.19294239898550547 0.8081338471845622
0.1716059514225696 0.3148275485455079 0.9206068557285756
0.31454081734776307 0.18286167950561966 0.8984899886531793
0.27434359931791436 0.3023979000878659 0.8211055353784223
0.3858439721501545 0.19294239898550547 0.8081338471845622
0.3716059514225696 0.3148275485455079 0.9206068557285756
0.514540817347763 0.18286167950561966 0.8984899886531793
0.47434359931791437 0.3023979000878659 0.8211055353784223
0.5858439721501545 0.19294239898550547 0.8081338471845622
0.5716059514225695 0.3148275485455079 0.9206068557285756
0.7145408173477631 0.18286167950561966 0.8984899886531793
0.6743435993179143 0.3023979000878659 0.8211055353784223
0.7858439721501544 0.19294239898550547 0.8081338471845622
0.7716059514225696 0.3148275485455079 0.9206068557285756
0.914540817347763 0.18286167950561966 0.8984899886531793
0.8743435993179145 0.3023979000878659 0.8211055353784223
-0.014156027849845546 0.3929423989855055 0.8081338471845622
-0.02839404857743043 0.5148275485455079 0.9206068557285756
0.11454081734776303 0.38286167950561967 0.8984899886531793
0.07434359931791434 0.5023979000878659 0.8211055353784223
0.18584397215015447 0.3929423989855055 0.8081338471845622
0.1716059514225696 0.5148275485455079 0.9206068557285756
0.31454081734776307 0.38286167950561967 0.8984899886531793
0.27434359931791436 0.5023979000878659 0.8211055353784223
0.3858439721501545 0.3929423989855055 0.8081338471845622
0.3716059514225696 0.5148275485455079 0.9206068557285756
0.514540817347763 0.38286167950561967 0.8984899886531793
0.47434359931791437 0.5023979000878659 0.8211055353784223
0.5858439721501545 0.3929423989855055 0.8081338471845622
0.5716059514225695 0.5148275485455079 0.9206068557285756
0.7145408173477631 0.38286167950561967 0.8984899886531793
0.6743435993179143 0.5023979000878659 0.8211055353784223
0.7858439721501544 0.3929423989855055 0.8081338471845622
0.7716059514225696 0.5148275485455079 0.9206068557285756
0.914540817347763 0.38286167950561967 0.8984899886531793
0.8743435993179145 0.5023979000878659 0.8211055353784223
-0.014156027849845546 0.5929423989855055 0.8081338471845622
-0.02839404857743043 0.7148275485455079 0.9206068557285756
0.11454081734776303 0.5828616795056196 0.8984899886531793
0.07434359931791434 0.702397900087866 0.8211055353784223
0.18584397215015447 0.5929423989855055 0.8081338471845622
0.1716059514225696 0.7148275485455079 0.9206068557285756
0.31454081734776307 0.5828616795056196 0.8984899886531793
0.27434359931791436 0.702397900087866 0.8211055353784223
0.3858439721501545 0.5929423989855055 0.8081338471845622
0.3716059514225696 0.7148275485455079 0.9206068557285756
0.514540817347763 0.5828616795056196 0.8984899886531793
0.47434359931791437 0.702397900087866 0.8211055353784223
0.5858439721501545 0.5929423989855055 0.8081338471845622
0.5716059514225695 0.7148275485455079 0.9206068557285756
0.7145408173477631 0.5828616795056196 0.8984899886531793
0.6743435993179143 0.702397900087866 0.8211055353784223
0.7858439721501544 0.5929423989855055 0.8081338471845622
0.7716059514225696 0.7148275485455079 0.9206068557285756
0.914540817347763 0.5828616795056196 0.8984899886531793
0.8743435993179145 0.702397900087866 0.8211055353784223
-0.014156027849845546 0.7929423989855056 0.8081338471845622
-0.02839404857743043 0.914827548545508 0.9206068557285756
0.11454081734776303 0.7828616795056197 0.8984899886531793
0.07434359931791434 0.902397900087866 0.8211055353784223
0.18584397215015447 0.7929423989855056 0.8081338471845622
0.1716059514225696 0.914827548545508 0.9206068557285756
0.31454081734776307 0.7828616795056197 0.8984899886531793
0.27434359931791436 0.902397900087866 0.8211055353784223
0.3858439721501545 0.7929423989855056 0.8081338471845622
0.3716059514225696 0.914827548545508 0.9206068557285756
0.514540817347763 0.7828616795056197 0.8984899886531793
0.47434359931791437 0.902397900087866 0.8211055353784223
0.5858439721501545 0.7929423989855056 0.8081338471845622
0.5716059514225695 0.914827548545508 0.9206068557285756
0.7145408173477631 0.7828616795056197 0.8984899886531793
0.6743435993179143 0.902397900087866 0.8211055353784223
0.7858439721501544 0.7929423989855056 0.8081338471845622
0.7716059514225696 0.914827548545508 0.9206068557285756
0.914540817347763 0.7828616795056197 0.8984899886531793
0.8743435993179145 0.902397900087866 0.8211055353784223
0.11539754458112766 0.026875960335263616 -0.01800815612980209
0.020551237993839445 0.07880232825524103 -0.019334761222249884
0.014593389555122361 -0.010371428565879665 0.09851303988428674
0.07644103639389677 0.1156216170998158 0.11094089000197892
0.3153975445811277 0.026875960335263616 -0.01800815612980209
0.22055123799383944 0.07880232825524103 -0.019334761222249884
0.2145933895551224 -0.010371428565879665 0.09851303988428674
0.2764410363938968 0.1156216170998158 0.11094089000197892
0.5153975445811277 0.026875960335263616 -0.01800815612980209
0.4205512379938394 0.07880232825524103 -0.019334761222249884
0.41459338955512237 -0.010371428565879665 0.09851303988428674
0.4764410363938968 0.1156216170998158 0.11094089000197892
0.7153975445811277 0.026875960335263616 -0.01800815612980209
0.6205512379938395 0.07880232825524103 -0.019334761222249884
0.6145933895551224 -0.010371428565879665 0.09851303988428674
0.6764410363938969 0.1156216170998158 0.11094089000197892
0.9153975445811278 0.026875960335263616 -0.01800815612980209
0.8205512379938394 0.07880232825524103 -0.019334761222249884
0.8145933895551224 -0.010371428565879665 0.09851303988428674
0.8764410363938968 0.1156216170998158 0.11094089000197892
0.11539754458112766 0.2268759603352636 -0.01800815612980209
0.020551237993839445 0.27880232825524104 -0.019334761222249884
0.014593389555122361 0.18962857143412035 0.09851303988428674
0.07644103639389677 0.31562161709981584 0.11094089000197892
0.3153975445811277 0.2268759603352636 -0.01800815612980209
0.22055123799383944 0.27880232825524104 -0.019334761222249884
0.2145933895551224 0.18962857143412035 0.09851303988428674
0.2764410363938968 0.31562161709981584 0.11094089000197892
0.5153975445811277 0.2268759603352636 -0.01800815612980209
0.4205512379938394 0.27880232825524104 -0.019334761222249884
0.41459338955512237 0.18962857143412035 0.09851303988428674
0.4764410363938968 0.31562161709981584 0.11094089000197892
0.7153975445811277 0.2268759603352636 -0.01800815612980209
0.6205512379938395 0.27880232825524104 -0.019334761222249884
0.6145933895551224 0.18962857143412035 0.09851303988428674
0.6764410363938969 0.31562161709981584 0.11094089000197892
0.9153975445811278 0.2268759603352636 -0.01800815612980209
0.8205512379938394 0.27880232825524104 -0.019334761222249884
0.8145933895551224 0.18962857143412035 0.09851303988428674
0.8764410363938968 0.31562161709981584 0.11094089000197892
0.11539754458112766 0.42687596033526365 -0.01800815612980209
0.020551237993839445 0.4788023282552411 -0.019334761222249884
0.014593389555122361 0.38962857143412033 0.09851303988428674
0.07644103639389677 0.5156216170998159 0.11094089000197892
0.3153975445811277 0.42687596033526365 -0.01800815612980209
0.22055123799383944 0.4788023282552411 -0.019334761222249884
0.2145933895551224 0.38962857143412033 0.09851303988428674
0.2764410363938968 0.5156216170998159 0.11094089000197892
0.5153975445811277 0.42687596033526365 -0.01800815612980209
0.4205512379938394 0.4788023282552411 -0.019334761222249884
0.41459338955512237 0.38962857143412033 0.09851303988428674
0.4764410363938968 0.5156216170998159 0.11094089000197892
0.7153975445811277 0.42687596033526365 -0.01800815612980209
0.6205512379938395 0.4788023282552411 -0.019334761222249884
0.6145933895551224 0.38962857143412033 0.09851303988428674
0.6764410363938969 0.5156216170998159 0.11094089000197892
0.9153975445811278 0.42687596033526365 -0.01800815612980209
0.8205512379938394 0.4788023282552411 -0.019334761222249884
0.8145933895551224 0.38962857143412033 0.09851303988428674
0.8764410363938968 0.5156216170998159 0.11094089000197892
0.11539754458112766 0.6268759603352637 -0.01800815612980209
0.020551237993839445 0.6788023282552411 -0.019334761222249884
0.014593389555122361 0.5896285714341204 0.09851303988428674
0.07644103639389677 0.7156216170998159 0.11094089000197892
0.3153975445811277 0.6268759603352637 -0.01800815612980209
0.22055123799383944 0.6788023282552411 -0.019334761222249884
0.2145933895551224 0.5896285714341204 0.09851303988428674
0.2764410363938968 0.7156216170998159 0.11094089000197892
0.5153975445811277 0.6268759603352637 -0.01800815612980209
0.4205512379938394 0.6788023282552411 -0.019334761222249884
0.41459338955512237 0.5896285714341204 0.09851303988428674
0.4764410363938968 0.7156216170998159 0.11094089000197892
0.7153975445811277 0.6268759603352637 -0.01800815612980209
0.6205512379938395 0.6788023282552411 -0.019334761222249884
0.6145933895551224 0.5896285714341204 0.09851303988428674
0.6764410363938969 0.7156216170998159 0.11094089000197892
0.9153975445811278 0.6268759603352637 -0.01800815612980209
0.8205512379938394 0.6788023282552411 -0.019334761222249884
0.8145933895551224 0.5896285714341204 0.09851303988428674
0.8764410363938968 0.7156216170998159 0.11094089000197892
0.11539754458112766 0.8268759603352637 -0.01800815612980209
0.020551237993839445 0.8788023282552411 -0.019334761222249884
0.014593389555122361 0.7896285714341205 0.09851303988428674
0.07644103639389677 0.9156216170998159 0.11094089000197892
0.3153975445811277 0.8268759603352637 -0.01800815612980209
0.22055123799383944 0.8788023282552411 -0.019334761222249884
0.2145933895551224 0.7896285714341205 0.09851303988428674
0.2764410363938968 0.9156216170998159 0.11094089000197892
0.5153975445811277 0.8268759603352637 -0.01800815612980209
0.4205512379938394 0.8788023282552411 -0.019334761222249884
0.41459338955512237 0.7896285714341205 0.09851303988428674
0.4764410363938968 0.9156216170998159 0.11094089000197892
0.7153975445811277 0.8268759603352637 -0.01800815612980209
0.6205512379938395 0.8788023282552411 -0.019334761222249884
0.6145933895551224 0.7896285714341205 0.09851303988428674
0.6764410363938969 0.9156216170998159 0.11094089000197892
0.9153975445811278 0.8268759603352637 -0.01800815612980209
0.8205512379938394 0.8788023282552411 -0.019334761222249884
0.8145933895551224 0.7896285714341205 0.09851303988428674
0.8764410363938968 0.9156216170998159 0.11094089000197892
0.11539754458112766 0.026875960335263616 0.18199184387019793
0.020551237993839445 0.07880232825524103 0.18066523877775012
0.014593389555122361 -0.010371428565879665 0.29851303988428673
0.07644103639389677 0.1156216170998158 0.31094089000197894
0.3153975445811277 0.026875960335263616 0.18199184387019793
0.22055123799383944 0.07880232825524103 0.18066523877775012
0.2145933895551224 -0.010371428565879665 0.29851303988428673
0.2764410363938968 0.1156216170998158 0.31094089000197894
0.5153975445811277 0.026875960335263616 0.18199184387019793
0.4205512379938394 0.07880232825524103 0.18066523877775012
0.41459338955512237 -0.010371428565879665 0.29851303988428673
0.4764410363938968 0.1156216170998158 0.31094089000197894
0.7153975445811277 0.026875960335263616 0.18199184387019793
0.6205512379938395 0.07880232825524103 0.18066523877775012
0.6145933895551224 -0.010371428565879665 0.29851303988428673
0.6764410363938969 0.1156216170998158 0.31094089000197894
0.9153975445811278 0.026875960335263616 0.18199184387019793
0.8205512379938394 0.07880232825524103 0.18066523877775012
0.8145933895551224 -0.010371428565879665 0.29851303988428673
0.8764410363938968 0.1156216170998158 0.31094089000197894
0.11539754458112766 0.2268759603352636 0.18199184387019793
0.020551237993839445 0.27880232825524104 0.18066523877775012
0.014593389555122361 0.18962857143412035 0.29851303988428673
0.07644103639389677 0.31562161709981584 0.31094089000197894
0.3153975445811277 0.2268759603352636 0.18199184387019793
0.22055123799383944 0.27880232825524104 0.18066523877775012
0.2145933895551224 0.18962857143412035 0.29851303988428673
0.2764410363938968 0.31562161709981584 0.31094089000197894
0.5153975445811277 0.2268759603352636 0.18199184387019793
0.4205512379938394 0.27880232825524104 0.18066523877775012
0.41459338955512237 0.18962857143412035 0.29851303988428673
0.4764410363938968 0.31562161709981584 0.31094089000197894
0.7153975445811277 0.2268759603352636 0.18199184387019793
0.6205512379938395 0.27880232825524104 0.18066523877775012
0.6145933895551224 0.18962857143412035 0.29851303988428673
0.6764410363938969 0.31562161709981584 0.31094089000197894
0.9153975445811278 0.2268759603352636 0.18199184387019793
0.8205512379938394 0.27880232825524104 0.18066523877775012
0.8145933895551224 0.18962857143412035 0.29851303988428673
0.8764410363938968 0.31562161709981584 0.31094089000197894
0.11539754458112766 0.42687596033526365 0.18199184387019793
0.020551237993839445 0.4788023282552411 0.18066523877775012
0.014593389555122361 0.38962857143412033 0.29851303988428673
0.07644103639389677 0.5156216170998159 0.31094089000197894
0.3153975445811277 0.42687596033526365 0.18199184387019793
0.22055123799383944 0.4788023282552411 0.18066523877775012
0.2145933895551224 0.38962857143412033 0.29851303988428673
0.2764410363938968 0.5156216170998159 0.31094089000197894
0.5153975445811277 0.42687596033526365 0.18199184387019793
0.4205512379938394 0.4788023282552411 0.18066523877775012
0.41459338955512237 0.38962857143412033 0.29851303988428673
0.4764410363938968 0.5156216170998159 0.31094089000197894
0.7153975445811277 0.42687596033526365 0.18199184387019793
0.6205512379938395 0.4788023282552411 0.18066523877775012
0.6145933895551224 0.38962857143412033 0.29851303988428673
0.6764410363938969 0.5156216170998159 0.31094089000197894
0.9153975445811278 0.42687596033526365 0.18199184387019793
0.8205512379938394 0.4788023282552411 0.18066523877775012
0.8145933895551224 0.38962857143412033 0.29851303988428673
0.8764410363938968 0.5156216170998159 0.31094089000197894
0.11539754458112766 0.6268759603352637 0.18199184387019793
0.020551237993839445 0.6788023282552411 0.18066523877775012
0.014593389555122361 0.5896285714341204 0.29851303988428673
0.07644103639389677 0.7156216170998159 0.31094089000197894
0.3153975445811277 0.6268759603352637 0.18199184387019793
0.22055123799383944 0.6788023282552411 0.18066523877775012
0.2145933895551224 0.5896285714341204 0.29851303988428673
0.2764410363938968 0.7156216170998159 0.31094089000197894
0.5153975445811277 0.6268759603352637 0.18199184387019793
0.4205512379938394 0.6788023282552411 0.18066523877775012
0.41459338955512237 0.5896285714341204 0.29851303988428673
0.4764410363938968 0.7156216170998159 0.31094089000197894
0.7153975445811277 0.6268759603352637 0.18199184387019793
0.6205512379938395 0.6788023282552411 0.18066523877775012
0.6145933895551224 0.5896285714341204 0.29851303988428673
0.6764410363938969 0.7156216170998159 0.31094089000197894
0.9153975445811278 0.6268759603352637 0.18199184387019793
0.8205512379938394 0.6788023282552411 0.18066523877775012
0.8145933895551224 0.5896285714341204 0.29851303988428673
0.8764410363938968 0.7156216170998159 0.31094089000197894
0.11539754458112766 0.8268759603352637 0.18199184387019793
0.020551237993839445 0.8788023282552411 0.18066523877775012
0.014593389555122361 0.7896285714341205 0.29851303988428673
0.07644103639389677 0.9156216170998159 0.31094089000197894
0.3153975445811277 0.8268759603352637 0.18199184387019793
0.22055123799383944 0.8788023282552411 0.18066523877775012
0.2145933895551224 0.7896285714341205 0.29851303988428673
0.2764410363938968 0.9156216170998159 0.31094089000197894
0.5153975445811277 0.8268759603352637 0.18199184387019793
0.4205512379938394 0.8788023282552411 0.18066523877775012
0.41459338955512237 0.7896285714341205 0.29851303988428673
0.4764410363938968 0.9156216170998159 0.31094089000197894
0.7153975445811277 0.8268759603352637 0.18199184387019793
0.6205512379938395 0.8788023282552411 0.18066523877775012
0.6145933895551224 0.7896285714341205 0.29851303988428673
0.6764410363938969 0.9156216170998159 0.31094089000197894
0.9153975445811278 0.8268759603352637 0.18199184387019793
0.8205512379938394 0.8788023282552411 0.18066523877775012
0.8145933895551224 0.7896285714341205 0.29851303988428673
0.8764410363938968 0.9156216170998159 0.31094089000197894
0.11539754458112766 0.026875960335263616 0.3819918438701979
0.020551237993839445 0.07880232825524103 0.38066523877775016
0.014593389555122361 -0.010371428565879665 0.49851303988428675
0.07644103639389677 0.1156216170998158 0.5109408900019788
0.3153975445811277 0.026875960335263616 0.3819918438701979
0.22055123799383944 0.07880232825524103 0.38066523877775016
0.2145933895551224 -0.010371428565879665 0.49851303988428675
0.2764410363938968 0.1156216170998158 0.5109408900019788
0.5153975445811277 0.026875960335263616 0.3819918438701979
0.4205512379938394 0.07880232825524103 0.38066523877775016
0.41459338955512237 -0.010371428565879665 0.49851303988428675
0.4764410363938968 0.1156216170998158 0.5109408900019788
0.7153975445811277 0.026875960335263616 0.3819918438701979
0.6205512379938395 0.07880232825524103 0.38066523877775016
0.6145933895551224 -0.010371428565879665 0.49851303988428675
0.6764410363938969 0.1156216170998158 0.5109408900019788
0.9153975445811278 0.026875960335263616 0.3819918438701979
0.8205512379938394 0.07880232825524103 0.38066523877775016
0.8145933895551224 -0.010371428565879665 0.49851303988428675
0.8764410363938968 0.1156216170998158 0.5109408900019788
0.11539754458112766 0.2268759603352636 0.3819918438701979
0.020551237993839445 0.27880232825524104 0.38066523877775016
0.014593389555122361 0.18962857143412035 0.49851303988428675
0.07644103639389677 0.31562161709981584 0.5109408900019788
0.3153975445811277 0.2268759603352636 0.3819918438701979
0.22055123799383944 0.27880232825524104 0.38066523877775016
0.2145933895551224 0.18962857143412035 0.49851303988428675
0.2764410363938968 0.31562161709981584 0.5109408900019788
0.5153975445811277 0.2268759603352636 0.3819918438701979
0.4205512379938394 0.27880232825524104 0.38066523877775016
0.41459338955512237 0.18962857143412035 0.49851303988428675
0.4764410363938968 0.31562161709981584 0.5109408900019788
0.7153975445811277 0.2268759603352636 0.3819918438701979
0.6205512379938395 0.27880232825524104 0.38066523877775016
0.6145933895551224 0.18962857143412035 0.49851303988428675
0.6764410363938969 0.31562161709981584 0.5109408900019788
0.9153975445811278 0.2268759603352636 0.3819918438701979
0.8205512379938394 0.27880232825524104 0.38066523877775016
0.8145933895551224 0.18962857143412035 0.49851303988428675
0.8764410363938968 0.31562161709981584 0.5109408900019788
0.11539754458112766 0.42687596033526365 0.3819918438701979
0.020551237993839445 0.4788023282552411 0.38066523877775016
0.014593389555122361 0.38962857143412033 0.49851303988428675
0.07644103639389677 0.5156216170998159 0.5109408900019788
0.3153975445811277 0.42687596033526365 0.3819918438701979
0.22055123799383944 0.4788023282552411 0.38066523877775016
0.2145933895551224 0.38962857143412033 0.49851303988428675
0.2764410363938968 0.5156216170998159 0.5109408900019788
0.5153975445811277 0.42687596033526365 0.3819918438701979
0.4205512379938394 0.4788023282552411 0.38066523877775016
0.41459338955512237 0.38962857143412033 0.49851303988428675
0.4764410363938968 0.5156216170998159 0.5109408900019788
0.7153975445811277 0.42687596033526365 0.3819918438701979
0.6205512379938395 0.4788023282552411 0.38066523877775016
0.6145933895551224 0.38962857143412033 0.49851303988428675
0.6764410363938969 0.5156216170998159 0.5109408900019788
0.9153975445811278 0.42687596033526365 0.3819918438701979
0.8205512379938394 0.4788023282552411 0.38066523877775016
0.8145933895551224 0.38962857143412033 0.49851303988428675
0.8764410363938968 0.5156216170998159 0.5109408900019788
0.11539754458112766 0.6268759603352637 0.3819918438701979
0.020551237993839445 0.6788023282552411 0.38066523877775016
0.014593389555122361 0.5896285714341204 0.49851303988428675
0.07644103639389677 0.7156216170998159 0.5109408900019788
0.3153975445811277 0.6268759603352637 0.3819918438701979
0.22055123799383944 0.6788023282552411 0.38066523877775016
0.2145933895551224 0.5896285714341204 0.49851303988428675
0.2764410363938968 0.7156216170998159 0.5109408900019788
0.5153975445811277 0.6268759603352637 0.3819918438701979
0.4205512379938394 0.6788023282552411 0.38066523877775016
0.41459338955512237 0.5896285714341204 0.49851303988428675
0.4764410363938968 0.7156216170998159 0.5109408900019788
0.7153975445811277 0.6268759603352637 0.3819918438701979
0.6205512379938395 0.6788023282552411 0.38066523877775016
0.6145933895551224 0.5896285714341204 0.49851303988428675
0.6764410363938969 0.7156216170998159 0.5109408900019788
0.9153975445811278 0.6268759603352637 0.3819918438701979
0.8205512379938394 0.6788023282552411 0.38066523877775016
0.8145933895551224 0.5896285714341204 0.49851303988428675
0.8764410363938968 0.7156216170998159 0.5109408900019788
0.11539754458112766 0.8268759603352637 0.3819918438701979
0.020551237993839445 0.8788023282552411 0.38066523877775016
0.014593389555122361 0.7896285714341205 0.49851303988428675
0.07644103639389677 0.9156216170998159 0.5109408900019788
0.3153975445811277 0.8268759603352637 0.3819918438701979
0.22055123799383944 0.8788023282552411 0.38066523877775016
0.2145933895551224 0.7896285714341205 0.49851303988428675
0.2764410363938968 0.9156216170998159 0.5109408900019788
0.5153975445811277 0.8268759603352637 0.3819918438701979
0.4205512379938394 0.8788023282552411 0.38066523877775016
0.41459338955512237 0.7896285714341205 0.49851303988428675
0.4764410363938968 0.9156216170998159 0.5109408900019788
0.7153975445811277 0.8268759603352637 0.3819918438701979
0.6205512379938395 0.8788023282552411 0.38066523877775016
0.6145933895551224 0.7896285714341205 0.49851303988428675
0.6764410363938969 0.9156216170998159 0.5109408900019788
0.9153975445811278 0.8268759603352637 0.3819918438701979
0.8205512379938394 0.8788023282552411 0.38066523877775016
0.8145933895551224 0.7896285714341205 0.49851303988428675
0.8764410363938968 0.9156216170998159 0.5109408900019788
0.11539754458112766 0.026875960335263616 0.581991843870198
0.020551237993839445 0.07880232825524103 0.5806652387777501
0.014593389555122361 -0.010371428565879665 0.6985130398842867
0.07644103639389677 0.1156216170998158 0.7109408900019789
0.3153975445811277 0.026875960335263616 0.581991843870198
0.22055123799383944 0.07880232825524103 0.5806652387777501
0.2145933895551224 -0.010371428565879665 0.6985130398842867
0.2764410363938968 0.1156216170998158 0.7109408900019789
0.5153975445811277 0.026875960335263616 0.581991843870198
0.4205512379938394 0.07880232825524103 0.5806652387777501
0.41459338955512237 -0.010371428565879665 0.6985130398842867
0.4764410363938968 0.1156216170998158 0.7109408900019789
0.7153975445811277 0.026875960335263616 0.581991843870198
0.6205512379938395 0.07880232825524103 0.5806652387777501
0.6145933895551224 -0.010371428565879665 0.6985130398842867
0.6764410363938969 0.1156216170998158 0.7109408900019789
0.9153975445811278 0.026875960335263616 0.581991843870198
0.8205512379938394 0.07880232825524103 0.5806652387777501
0.8145933895551224 -0.010371428565879665 0.6985130398842867
0.8764410363938968 0.1156216170998158 0.7109408900019789
0.11539754458112766 0.2268759603352636 0.581991843870198
0.020551237993839445 0.27880232825524104 0.5806652387777501
0.014593389555122361 0.18962857143412035 0.6985130398842867
0.07644103639389677 0.31562161709981584 0.7109408900019789
0.3153975445811277 0.2268759603352636 0.581991843870198
0.22055123799383944 0.27880232825524104 0.5806652387777501
0.2145933895551224 0.18962857143412035 0.6985130398842867
0.2764410363938968 0.31562161709981584 0.7109408900019789
0.5153975445811277 0.2268759603352636 0.581991843870198
0.4205512379938394 0.27880232825524104 0.5806652387777501
0.41459338955512237 0.18962857143412035 0.6985130398842867
0.4764410363938968 0.31562161709981584 0.7109408900019789
0.7153975445811277 0.2268759603352636 0.581991843870198
0.6205512379938395 0.27880232825524104 0.5806652387777501
0.6145933895551224 0.18962857143412035 0.6985130398842867
0.6764410363938969 0.31562161709981584 0.7109408900019789
0.9153975445811278 0.2268759603352636 0.581991843870198
0.8205512379938394 0.27880232825524104 0.5806652387777501
0.8145933895551224 0.18962857143412035 0.6985130398842867
0.8764410363938968 0.31562161709981584 0.7109408900019789
0.11539754458112766 0.42687596033526365 0.581991843870198
0.020551237993839445 0.4788023282552411 0.5806652387777501
0.014593389555122361 0.38962857143412033 0.6985130398842867
0.07644103639389677 0.5156216170998159 0.7109408900019789
0.3153975445811277 0.42687596033526365 0.581991843870198
0.22055123799383944 0.4788023282552411 0.5806652387777501
0.2145933895551224 0.38962857143412033 0.6985130398842867
0.2764410363938968 0.5156216170998159 0.7109408900019789
0.5153975445811277 0.42687596033526365 0.581991843870198
0.4205512379938394 0.4788023282552411 0.5806652387777501
0.41459338955512237 0.38962857143412033 0.6985130398842867
0.4764410363938968 0.5156216170998159 0.7109408900019789
0.7153975445811277 0.42687596033526365 0.581991843870198
0.6205512379938395 0.4788023282552411 0.5806652387777501
0.6145933895551224 0.38962857143412033 0.6985130398842867
0.6764410363938969 0.5156216170998159 0.7109408900019789
0.9153975445811278 0.42687596033526365 0.581991843870198
0.8205512379938394 0.4788023282552411 0.5806652387777501
0.8145933895551224 0.38962857143412033 0.6985130398842867
0.8764410363938968 0.5156216170998159 0.7109408900019789
0.11539754458112766 0.6268759603352637 0.581991843870198
0.020551237993839445 0.6788023282552411 0.5806652387777501
0.014593389555122361 0.5896285714341204 0.6985130398842867
0.07644103639389677 0.7156216170998159 0.7109408900019789
0.3153975445811277 0.6268759603352637 0.581991843870198
0.22055123799383944 0.6788023282552411 0.5806652387777501
0.2145933895551224 0.5896285714341204 0.6985130398842867
0.2764410363938968 0.7156216170998159 0.7109408900019789
0.5153975445811277 0.6268759603352637 0.581991843870198
0.4205512379938394 0.6788023282552411 0.5806652387777501
0.41459338955512237 0.5896285714341204 0.6985130398842867
0.4764410363938968 0.7156216170998159 0.7109408900019789
0.7153975445811277 0.6268759603352637 0.581991843870198
0.6205512379938395 0.6788023282552411 0.5806652387777501
0.6145933895551224 0.5896285714341204 0.6985130398842867
0.6764410363938969 0.7156216170998159 0.7109408900019789
0.9153975445811278 0.6268759603352637 0.581991843870198
0.8205512379938394 0.6788023282552411 0.5806652387777501
0.8145933895551224 0.5896285714341204 0.6985130398842867
0.8764410363938968 0.7156216170998159 0.7109408900019789
0.11539754458112766 0.8268759603352637 0.581991843870198
0.020551237993839445 0.8788023282552411 0.5806652387777501
0.014593389555122361 0.7896285714341205 0.6985130398842867
0.07644103639389677 0.9156216170998159 0.7109408900019789
0.3153975445811277 0.8268759603352637 0.581991843870198
0.22055123799383944 0.8788023282552411 0.5806652387777501
0.2145933895551224 0.7896285714341205 0.6985130398842867
0.2764410363938968 0.9156216170998159 0.7109408900019789
0.5153975445811277 0.8268759603352637 0.581991843870198
0.4205512379938394 0.8788023282552411 0.5806652387777501
0.41459338955512237 0.7896285714341205 0.6985130398842867
0.4764410363938968 0.9156216170998159 0.7109408900019789
0.7153975445811277 0.8268759603352637 0.581991843870198
0.6205512379938395 0.8788023282552411 0.5806652387777501
0.6145933895551224 0.7896285714341205 0.6985130398842867
0.6764410363938969 0.9156216170998159 0.7109408900019789
0.9153975445811278 0.8268759603352637 0.581991843870198
0.8205512379938394 0.8788023282552411 0.5806652387777501
0.8145933895551224 0.7896285714341205 0.6985130398842867
0.8764410363938968 0.9156216170998159 0.7109408900019789
0.11539754458112766 0.026875960335263616 0.7819918438701979
0.020551237993839445 0.07880232825524103 0.7806652387777502
0.014593389555122361 -0.010371428565879665 0.8985130398842869
0.07644103639389677 0.1156216170998158 0.9109408900019789
0.3153975445811277 0.026875960335263616 0.7819918438701979
0.22055123799383944 0.07880232825524103 0.7806652387777502
0.2145933895551224 -0.010371428565879665 0.8985130398842869
0.2764410363938968 0.1156216170998158 0.9109408900019789
0.5153975445811277 0.026875960335263616 0.7819918438701979
0.4205512379938394 0.07880232825524103 0.7806652387777502
0.41459338955512237 -0.010371428565879665 0.8985130398842869
0.4764410363938968 0.1156216170998158 0.9109408900019789
0.7153975445811277 0.026875960335263616 0.7819918438701979
0.6205512379938395 0.07880232825524103 0.7806652387777502
0.6145933895551224 -0.010371428565879665 0.8985130398842869
0.6764410363938969 0.1156216170998158 0.9109408900019789
0.9153975445811278 0.026875960335263616 0.7819918438701979
0.8205512379938394 0.07880232825524103 0.7806652387777502
0.8145933895551224 -0.010371428565879665 0.8985130398842869
0.8764410363938968 0.1156216170998158 0.9109408900019789
0.11539754458112766 0.2268759603352636 0.7819918438701979
0.020551237993839445 0.27880232825524104 0.7806652387777502
0.014593389555122361 0.18962857143412035 0.8985130398842869
0.07644103639389677 0.31562161709981584 0.9109408900019789
0.3153975445811277 0.2268759603352636 0.7819918438701979
0.22055123799383944 0.27880232825524104 0.7806652387777502
0.2145933895551224 0.18962857143412035 0.8985130398842869
0.2764410363938968 0.31562161709981584 0.9109408900019789
0.5153975445811277 0.2268759603352636 0.7819918438701979
0.4205512379938394 0.27880232825524104 0.7806652387777502
0.41459338955512237 0.18962857143412035 0.8985130398842869
0.4764410363938968 0.31562161709981584 0.9109408900019789
0.7153975445811277 0.2268759603352636 0.7819918438701979
0.6205512379938395 0.27880232825524104 0.7806652387777502
0.6145933895551224 0.18962857143412035 0.8985130398842869
0.6764410363938969 0.31562161709981584 0.9109408900019789
0.9153975445811278 0.2268759603352636 0.7819918438701979
0.8205512379938394 0.27880232825524104 0.7806652387777502
0.8145933895551224 0.18962857143412035 0.8985130398842869
0.8764410363938968 0.31562161709981584 0.9109408900019789
0.11539754458112766 0.42687596033526365 0.7819918438701979
0.020551237993839445 0.4788023282552411 0.7806652387777502
0.014593389555122361 0.38962857143412033 0.8985130398842869
0.07644103639389677 0.5156216170998159 0.9109408900019789
0.3153975445811277 0.42687596033526365 0.7819918438701979
0.22055123799383944 0.4788023282552411 0.7806652387777502
0.2145933895551224 0.38962857143412033 0.8985130398842869
0.2764410363938968 0.5156216170998159 0.9109408900019789
0.5153975445811277 0.42687596033526365 0.7819918438701979
0.4205512379938394 0.4788023282552411 0.7806652387777502
0.41459338955512237 0.38962857143412033 0.8985130398842869
0.4764410363938968 0.5156216170998159 0.9109408900019789
0.7153975445811277 0.42687596033526365 0.7819918438701979
0.6205512379938395 0.4788023282552411 0.7806652387777502
0.6145933895551224 0.38962857143412033 0.8985130398842869
0.6764410363938969 0.5156216170998159 0.9109408900019789
0.9153975445811278 0.42687596033526365 0.7819918438701979
0.8205512379938394 0.4788023282552411 0.7806652387777502
0.8145933895551224 0.38962857143412033 0.8985130398842869
0.8764410363938968 0.5156216170998159 0.9109408900019789
0.11539754458112766 0.6268759603352637 0.7819918438701979
0.020551237993839445 0.6788023282552411 0.7806652387777502
0.014593389555122361 0.5896285714341204 0.8985130398842869
0.07644103639389677 0.7156216170998159 0.9109408900019789
0.3153975445811277 0.6268759603352637 0.7819918438701979
0.22055123799383944 0.6788023282552411 0.7806652387777502
0.2145933895551224 0.5896285714341204 0.8985130398842869
0.2764410363938968 0.7156216170998159 0.9109408900019789
0.5153975445811277 0.6268759603352637 0.7819918438701979
0.4205512379938394 0.6788023282552411 0.7806652387777502
0.41459338955512237 0.5896285714341204 0.8985130398842869
0.4764410363938968 0.7156216170998159 0.9109408900019789
0.7153975445811277 0.6268759603352637 0.7819918438701979
0.6205512379938395 0.6788023282552411 0.7806652387777502
0.6145933895551224 0.5896285714341204 0.8985130398842869
0.6764410363938969 0.7156216170998159 0.9109408900019789
0.9153975445811278 0.6268759603352637 0.7819918438701979
0.8205512379938394 0.6788023282552411 0.7806652387777502
0.8145933895551224 0.5896285714341204 0.8985130398842869
0.8764410363938968 0.7156216170998159 0.9109408900019789
0.11539754458112766 0.8268759603352637 0.7819918438701979
0.020551237993839445 0.8788023282552411 0.7806652387777502
0.014593389555122361 0.7896285714341205 0.8985130398842869
0.07644103639389677 0.9156216170998159 0.9109408900019789
0.3153975445811277 0.8268759603352637 0.7819918438701979
0.22055123799383944 0.8788023282552411 0.7806652387777502
0.2145933895551224 0.7896285714341205 0.8985130398842869
0.2764410363938968 0.9156216170998159 0.9109408900019789
0.5153975445811277 0.8268759603352637 0.7819918438701979
0.4205512379938394 0.8788023282552411 0.7806652387777502
0.41459338955512237 0.7896285714341205 0.8985130398842869
0.4764410363938968 0.9156216170998159 0.9109408900019789
0.7153975445811277 0.8268759603352637 0.7819918438701979
0.6205512379938395 0.8788023282552411 0.7806652387777502
0.6145933895551224 0.7896285714341205 0.8985130398842869
0.6764410363938969 0.9156216170998159 0.9109408900019789
0.9153975445811278 0.8268759603352637 0.7819918438701979
0.8205512379938394 0.8788023282552411 0.7806652387777502
0.8145933895551224 0.7896285714341205 0.8985130398842869
0.8764410363938968 0.9156216170998159 0.9109408900019789
