FCC BaO
3.971
5.0 0.0 0.0
0.0 5.0 0.0
0.0 0.0 5.0
Ba O 
500 500 
Direct
0.005677033570596763 -0.001963040722724869 -0.02249238810425766
-0.01789767588414923 0.0768478096098833 0.11758328658681774
0.07985920384153516 0.005089368919874961 0.1220232911402778
0.12447964194988288 0.07513635996514745 0.007056501193601113
0.20567703357059677 -0.001963040722724869 -0.02249238810425766
0.18210232411585078 0.0768478096098833 0.11758328658681774
0.2798592038415352 0.005089368919874961 0.1220232911402778
0.3244796419498829 0.07513635996514745 0.007056501193601113
0.40567703357059676 -0.001963040722724869 -0.02249238810425766
0.38210232411585077 0.0768478096098833 0.11758328658681774
0.47985920384153524 0.005089368919874961 0.1220232911402778
0.5244796419498828 0.07513635996514745 0.007056501193601113
0.6056770335705968 -0.001963040722724869 -0.02249238810425766
0.5821023241158508 0.0768478096098833 0.11758328658681774
0.6798592038415352 0.005089368919874961 0.1220232911402778
0.7244796419498829 0.07513635996514745 0.007056501193601113
0.8056770335705968 -0.001963040722724869 -0.02249238810425766
0.7821023241158508 0.0768478096098833 0.11758328658681774
0.8798592038415353 0.005089368919874961 0.1220232911402778
0.924479641949883 0.07513635996514745 0.007056501193601113
0.005677033570596763 0.19803695927727516 -0.02249238810425766
-0.01789767588414923 0.2768478096098833 0.11758328658681774
0.07985920384153516 0.20508936891987495 0.1220232911402778
0.12447964194988288 0.27513635996514746 0.007056501193601113
0.20567703357059677 0.19803695927727516 -0.02249238810425766
0.18210232411585078 0.2768478096098833 0.11758328658681774
0.2798592038415352 0.20508936891987495 0.1220232911402778
0.3244796419498829 0.27513635996514746 0.007056501193601113
0.40567703357059676 0.19803695927727516 -0.02249238810425766
0.38210232411585077 0.2768478096098833 0.11758328658681774
0.47985920384153524 0.20508936891987495 0.1220232911402778
0.5244796419498828 0.27513635996514746 0.007056501193601113
0.6056770335705968 0.19803695927727516 -0.02249238810425766
0.5821023241158508 0.2768478096098833 0.11758328658681774
0.6798592038415352 0.20508936891987495 0.1220232911402778
0.7244796419498829 0.27513635996514746 0.007056501193601113
0.8056770335705968 0.19803695927727516 -0.02249238810425766
0.7821023241158508 0.2768478096098833 0.11758328658681774
0.8798592038415353 0.20508936891987495 0.1220232911402778
0.924479641949883 0.27513635996514746 0.007056501193601113
0.005677033570596763 0.39803695927727517 -0.02249238810425766
-0.01789767588414923 0.4768478096098833 0.11758328658681774
0.07985920384153516 0.405089368919875 0.1220232911402778
0.12447964194988288 0.47513635996514747 0.007056501193601113
0.20567703357059677 0.39803695927727517 -0.02249238810425766
0.18210232411585078 0.4768478096098833 0.11758328658681774
0.2798592038415352 0.405089368919875 0.1220232911402778
0.3244796419498829 0.47513635996514747 0.007056501193601113
0.40567703357059676 0.39803695927727517 -0.02249238810425766
0.38210232411585077 0.4768478096098833 0.11758328658681774
0.47985920384153524 0.405089368919875 0.1220232911402778
0.5244796419498828 0.47513635996514747 0.007056501193601113
0.6056770335705968 0.39803695927727517 -0.02249238810425766
0.5821023241158508 0.4768478096098833 0.11758328658681774
0.6798592038415352 0.405089368919875 0.1220232911402778
0.7244796419498829 0.47513635996514747 0.007056501193601113
0.8056770335705968 0.39803695927727517 -0.02249238810425766
0.7821023241158508 0.4768478096098833 0.11758328658681774
0.8798592038415353 0.405089368919875 0.1220232911402778
0.924479641949883 0.47513635996514747 0.007056501193601113
0.005677033570596763 0.5980369592772752 -0.02249238810425766
-0.01789767588414923 0.6768478096098833 0.11758328658681774
0.07985920384153516 0.6050893689198751 0.1220232911402778
0.12447964194988288 0.6751363599651475 0.007056501193601113
0.20567703357059677 0.5980369592772752 -0.02249238810425766
0.18210232411585078 0.6768478096098833 0.11758328658681774
0.2798592038415352 0.6050893689198751 0.1220232911402778
0.3244796419498829 0.6751363599651475 0.007056501193601113
0.40567703357059676 0.5980369592772752 -0.02249238810425766
0.38210232411585077 0.6768478096098833 0.11758328658681774
0.47985920384153524 0.6050893689198751 0.1220232911402778
0.5244796419498828 0.6751363599651475 0.007056501193601113
0.6056770335705968 0.5980369592772752 -0.02249238810425766
0.5821023241158508 0.6768478096098833 0.11758328658681774
0.6798592038415352 0.6050893689198751 0.1220232911402778
0.7244796419498829 0.6751363599651475 0.007056501193601113
0.8056770335705968 0.5980369592772752 -0.02249238810425766
0.7821023241158508 0.6768478096098833 0.11758328658681774
0.8798592038415353 0.6050893689198751 0.1220232911402778
0.924479641949883 0.6751363599651475 0.007056501193601113
0.005677033570596763 0.7980369592772751 -0.02249238810425766
-0.01789767588414923 0.8768478096098833 0.11758328658681774
0.07985920384153516 0.805089368919875 0.1220232911402778
0.12447964194988288 0.8751363599651475 0.007056501193601113
0.20567703357059677 0.7980369592772751 -0.02249238810425766
0.18210232411585078 0.8768478096098833 0.11758328658681774
0.2798592038415352 0.805089368919875 0.1220232911402778
0.3244796419498829 0.8751363599651475 0.007056501193601113
0.40567703357059676 0.7980369592772751 -0.02249238810425766
0.38210232411585077 0.8768478096098833 0.11758328658681774
0.47985920384153524 0.805089368919875 0.1220232911402778
0.5244796419498828 0.8751363599651475 0.007056501193601113
0.6056770335705968 0.7980369592772751 -0.02249238810425766
0.5821023241158508 0.8768478096098833 0.11758328658681774
0.6798592038415352 0.805089368919875 0.1220232911402778
0.7244796419498829 0.8751363599651475 0.007056501193601113
0.8056770335705968 0.7980369592772751 -0.02249238810425766
0.7821023241158508 0.8768478096098833 0.11758328658681774
0.8798592038415353 0.805089368919875 0.1220232911402778
0.924479641949883 0.8751363599651475 0.007056501193601113
0.005677033570596763 -0.001963040722724869 0.17750761189574235
-0.01789767588414923 0.0768478096098833 0.3175832865868178
0.07985920384153516 0.005089368919874961 0.32202329114027783
0.12447964194988288 0.07513635996514745 0.2070565011936011
0.20567703357059677 -0.001963040722724869 0.17750761189574235
0.18210232411585078 0.0768478096098833 0.3175832865868178
0.2798592038415352 0.005089368919874961 0.32202329114027783
0.3244796419498829 0.07513635996514745 0.2070565011936011
0.40567703357059676 -0.001963040722724869 0.17750761189574235
0.38210232411585077 0.0768478096098833 0.3175832865868178
0.47985920384153524 0.005089368919874961 0.32202329114027783
0.5244796419498828 0.07513635996514745 0.2070565011936011
0.6056770335705968 -0.001963040722724869 0.17750761189574235
0.5821023241158508 0.0768478096098833 0.3175832865868178
0.6798592038415352 0.005089368919874961 0.32202329114027783
0.7244796419498829 0.07513635996514745 0.2070565011936011
0.8056770335705968 -0.001963040722724869 0.17750761189574235
0.7821023241158508 0.0768478096098833 0.3175832865868178
0.8798592038415353 0.005089368919874961 0.32202329114027783
0.924479641949883 0.07513635996514745 0.2070565011936011
0.005677033570596763 0.19803695927727516 0.17750761189574235
-0.01789767588414923 0.2768478096098833 0.3175832865868178
0.07985920384153516 0.20508936891987495 0.32202329114027783
0.12447964194988288 0.27513635996514746 0.2070565011936011
0.20567703357059677 0.19803695927727516 0.17750761189574235
0.18210232411585078 0.2768478096098833 0.3175832865868178
0.2798592038415352 0.20508936891987495 0.32202329114027783
0.3244796419498829 0.27513635996514746 0.2070565011936011
0.40567703357059676 0.19803695927727516 0.17750761189574235
0.38210232411585077 0.2768478096098833 0.3175832865868178
0.47985920384153524 0.20508936891987495 0.32202329114027783
0.5244796419498828 0.27513635996514746 0.2070565011936011
0.6056770335705968 0.19803695927727516 0.17750761189574235
0.5821023241158508 0.2768478096098833 0.3175832865868178
0.6798592038415352 0.20508936891987495 0.32202329114027783
0.7244796419498829 0.27513635996514746 0.2070565011936011
0.8056770335705968 0.19803695927727516 0.17750761189574235
0.7821023241158508 0.2768478096098833 0.3175832865868178
0.8798592038415353 0.20508936891987495 0.32202329114027783
0.924479641949883 0.27513635996514746 0.2070565011936011
0.005677033570596763 0.39803695927727517 0.17750761189574235
-0.01789767588414923 0.4768478096098833 0.3175832865868178
0.07985920384153516 0.405089368919875 0.32202329114027783
0.12447964194988288 0.47513635996514747 0.2070565011936011
0.20567703357059677 0.39803695927727517 0.17750761189574235
0.18210232411585078 0.4768478096098833 0.3175832865868178
0.2798592038415352 0.405089368919875 0.32202329114027783
0.3244796419498829 0.47513635996514747 0.2070565011936011
0.40567703357059676 0.39803695927727517 0.17750761189574235
0.38210232411585077 0.4768478096098833 0.3175832865868178
0.47985920384153524 0.405089368919875 0.32202329114027783
0.5244796419498828 0.47513635996514747 0.2070565011936011
0.6056770335705968 0.39803695927727517 0.17750761189574235
0.5821023241158508 0.4768478096098833 0.3175832865868178
0.6798592038415352 0.405089368919875 0.32202329114027783
0.7244796419498829 0.47513635996514747 0.2070565011936011
0.8056770335705968 0.39803695927727517 0.17750761189574235
0.7821023241158508 0.4768478096098833 0.3175832865868178
0.8798592038415353 0.405089368919875 0.32202329114027783
0.924479641949883 0.47513635996514747 0.2070565011936011
0.005677033570596763 0.5980369592772752 0.17750761189574235
-0.01789767588414923 0.6768478096098833 0.3175832865868178
0.07985920384153516 0.6050893689198751 0.32202329114027783
0.12447964194988288 0.6751363599651475 0.2070565011936011
0.20567703357059677 0.5980369592772752 0.17750761189574235
0.18210232411585078 0.6768478096098833 0.3175832865868178
0.2798592038415352 0.6050893689198751 0.32202329114027783
0.3244796419498829 0.6751363599651475 0.2070565011936011
0.40567703357059676 0.5980369592772752 0.17750761189574235
0.38210232411585077 0.6768478096098833 0.3175832865868178
0.47985920384153524 0.6050893689198751 0.32202329114027783
0.5244796419498828 0.6751363599651475 0.2070565011936011
0.6056770335705968 0.5980369592772752 0.17750761189574235
0.5821023241158508 0.6768478096098833 0.3175832865868178
0.6798592038415352 0.6050893689198751 0.32202329114027783
0.7244796419498829 0.6751363599651475 0.2070565011936011
0.8056770335705968 0.5980369592772752 0.17750761189574235
0.7821023241158508 0.6768478096098833 0.3175832865868178
0.8798592038415353 0.6050893689198751 0.32202329114027783
0.924479641949883 0.6751363599651475 0.2070565011936011
0.005677033570596763 0.7980369592772751 0.17750761189574235
-0.01789767588414923 0.8768478096098833 0.3175832865868178
0.07985920384153516 0.805089368919875 0.32202329114027783
0.12447964194988288 0.8751363599651475 0.2070565011936011
0.20567703357059677 0.7980369592772751 0.17750761189574235
0.18210232411585078 0.8768478096098833 0.3175832865868178
0.2798592038415352 0.805089368919875 0.32202329114027783
0.3244796419498829 0.8751363599651475 0.2070565011936011
0.40567703357059676 0.7980369592772751 0.17750761189574235
0.38210232411585077 0.8768478096098833 0.3175832865868178
0.47985920384153524 0.805089368919875 0.32202329114027783
0.5244796419498828 0.8751363599651475 0.2070565011936011
0.6056770335705968 0.7980369592772751 0.17750761189574235
0.5821023241158508 0.8768478096098833 0.3175832865868178
0.6798592038415352 0.805089368919875 0.32202329114027783
0.7244796419498829 0.8751363599651475 0.2070565011936011
0.8056770335705968 0.7980369592772751 0.17750761189574235
0.7821023241158508 0.8768478096098833 0.3175832865868178
0.8798592038415353 0.805089368919875 0.32202329114027783
0.924479641949883 0.8751363599651475 0.2070565011936011
0.005677033570596763 -0.001963040722724869 0.37750761189574233
-0.01789767588414923 0.0768478096098833 0.5175832865868177
0.07985920384153516 0.005089368919874961 0.5220232911402779
0.12447964194988288 0.07513635996514745 0.40705650119360115
0.20567703357059677 -0.001963040722724869 0.37750761189574233
0.18210232411585078 0.0768478096098833 0.5175832865868177
0.2798592038415352 0.005089368919874961 0.5220232911402779
0.3244796419498829 0.07513635996514745 0.40705650119360115
0.40567703357059676 -0.001963040722724869 0.37750761189574233
0.38210232411585077 0.0768478096098833 0.5175832865868177
0.47985920384153524 0.005089368919874961 0.5220232911402779
0.5244796419498828 0.07513635996514745 0.40705650119360115
0.6056770335705968 -0.001963040722724869 0.37750761189574233
0.5821023241158508 0.0768478096098833 0.5175832865868177
0.6798592038415352 0.005089368919874961 0.5220232911402779
0.7244796419498829 0.07513635996514745 0.40705650119360115
0.8056770335705968 -0.001963040722724869 0.37750761189574233
0.7821023241158508 0.0768478096098833 0.5175832865868177
0.8798592038415353 0.005089368919874961 0.5220232911402779
0.924479641949883 0.07513635996514745 0.40705650119360115
0.005677033570596763 0.19803695927727516 0.37750761189574233
-0.01789767588414923 0.2768478096098833 0.5175832865868177
0.07985920384153516 0.20508936891987495 0.5220232911402779
0.12447964194988288 0.27513635996514746 0.40705650119360115
0.20567703357059677 0.19803695927727516 0.37750761189574233
0.18210232411585078 0.2768478096098833 0.5175832865868177
0.2798592038415352 0.20508936891987495 0.5220232911402779
0.3244796419498829 0.27513635996514746 0.40705650119360115
0.40567703357059676 0.19803695927727516 0.37750761189574233
0.38210232411585077 0.2768478096098833 0.5175832865868177
0.47985920384153524 0.20508936891987495 0.5220232911402779
0.5244796419498828 0.27513635996514746 0.40705650119360115
0.6056770335705968 0.19803695927727516 0.37750761189574233
0.5821023241158508 0.2768478096098833 0.5175832865868177
0.6798592038415352 0.20508936891987495 0.5220232911402779
0.7244796419498829 0.27513635996514746 0.40705650119360115
0.8056770335705968 0.19803695927727516 0.37750761189574233
0.7821023241158508 0.2768478096098833 0.5175832865868177
0.8798592038415353 0.20508936891987495 0.5220232911402779
0.924479641949883 0.27513635996514746 0.40705650119360115
0.005677033570596763 0.39803695927727517 0.37750761189574233
-0.01789767588414923 0.4768478096098833 0.5175832865868177
0.07985920384153516 0.405089368919875 0.5220232911402779
0.12447964194988288 0.47513635996514747 0.40705650119360115
0.20567703357059677 0.39803695927727517 0.37750761189574233
0.18210232411585078 0.4768478096098833 0.5175832865868177
0.2798592038415352 0.405089368919875 0.5220232911402779
0.3244796419498829 0.47513635996514747 0.40705650119360115
0.40567703357059676 0.39803695927727517 0.37750761189574233
0.38210232411585077 0.4768478096098833 0.5175832865868177
0.47985920384153524 0.405089368919875 0.5220232911402779
0.5244796419498828 0.47513635996514747 0.40705650119360115
0.6056770335705968 0.39803695927727517 0.37750761189574233
0.5821023241158508 0.4768478096098833 0.5175832865868177
0.6798592038415352 0.405089368919875 0.5220232911402779
0.7244796419498829 0.47513635996514747 0.40705650119360115
0.8056770335705968 0.39803695927727517 0.37750761189574233
0.7821023241158508 0.4768478096098833 0.5175832865868177
0.8798592038415353 0.405089368919875 0.5220232911402779
0.924479641949883 0.47513635996514747 0.40705650119360115
0.005677033570596763 0.5980369592772752 0.37750761189574233
-0.01789767588414923 0.6768478096098833 0.5175832865868177
0.07985920384153516 0.6050893689198751 0.5220232911402779
0.12447964194988288 0.6751363599651475 0.40705650119360115
0.20567703357059677 0.5980369592772752 0.37750761189574233
0.18210232411585078 0.6768478096098833 0.5175832865868177
0.2798592038415352 0.6050893689198751 0.5220232911402779
0.3244796419498829 0.6751363599651475 0.40705650119360115
0.40567703357059676 0.5980369592772752 0.37750761189574233
0.38210232411585077 0.6768478096098833 0.5175832865868177
0.47985920384153524 0.6050893689198751 0.5220232911402779
0.5244796419498828 0.6751363599651475 0.40705650119360115
0.6056770335705968 0.5980369592772752 0.37750761189574233
0.5821023241158508 0.6768478096098833 0.5175832865868177
0.6798592038415352 0.6050893689198751 0.5220232911402779
0.7244796419498829 0.6751363599651475 0.40705650119360115
0.8056770335705968 0.5980369592772752 0.37750761189574233
0.7821023241158508 0.6768478096098833 0.5175832865868177
0.8798592038415353 0.6050893689198751 0.5220232911402779
0.924479641949883 0.6751363599651475 0.40705650119360115
0.005677033570596763 0.7980369592772751 0.37750761189574233
-0.01789767588414923 0.8768478096098833 0.5175832865868177
0.07985920384153516 0.805089368919875 0.5220232911402779
0.12447964194988288 0.8751363599651475 0.40705650119360115
0.20567703357059677 0.7980369592772751 0.37750761189574233
0.18210232411585078 0.8768478096098833 0.5175832865868177
0.2798592038415352 0.805089368919875 0.5220232911402779
0.3244796419498829 0.8751363599651475 0.40705650119360115
0.40567703357059676 0.7980369592772751 0.37750761189574233
0.38210232411585077 0.8768478096098833 0.5175832865868177
0.47985920384153524 0.805089368919875 0.5220232911402779
0.5244796419498828 0.8751363599651475 0.40705650119360115
0.6056770335705968 0.7980369592772751 0.37750761189574233
0.5821023241158508 0.8768478096098833 0.5175832865868177
0.6798592038415352 0.805089368919875 0.5220232911402779
0.7244796419498829 0.8751363599651475 0.40705650119360115
0.8056770335705968 0.7980369592772751 0.37750761189574233
0.7821023241158508 0.8768478096098833 0.5175832865868177
0.8798592038415353 0.805089368919875 0.5220232911402779
0.924479641949883 0.8751363599651475 0.40705650119360115
0.005677033570596763 -0.001963040722724869 0.5775076118957424
-0.01789767588414923 0.0768478096098833 0.7175832865868177
0.07985920384153516 0.005089368919874961 0.7220232911402779
0.12447964194988288 0.07513635996514745 0.6070565011936012
0.20567703357059677 -0.001963040722724869 0.5775076118957424
0.18210232411585078 0.0768478096098833 0.7175832865868177
0.2798592038415352 0.005089368919874961 0.7220232911402779
0.3244796419498829 0.07513635996514745 0.6070565011936012
0.40567703357059676 -0.001963040722724869 0.5775076118957424
0.38210232411585077 0.0768478096098833 0.7175832865868177
0.47985920384153524 0.005089368919874961 0.7220232911402779
0.5244796419498828 0.07513635996514745 0.6070565011936012
0.6056770335705968 -0.001963040722724869 0.5775076118957424
0.5821023241158508 0.0768478096098833 0.7175832865868177
0.6798592038415352 0.005089368919874961 0.7220232911402779
0.7244796419498829 0.07513635996514745 0.6070565011936012
0.8056770335705968 -0.001963040722724869 0.5775076118957424
0.7821023241158508 0.0768478096098833 0.7175832865868177
0.8798592038415353 0.005089368919874961 0.7220232911402779
0.924479641949883 0.07513635996514745 0.6070565011936012
0.005677033570596763 0.19803695927727516 0.5775076118957424
-0.01789767588414923 0.2768478096098833 0.7175832865868177
0.07985920384153516 0.20508936891987495 0.7220232911402779
0.12447964194988288 0.27513635996514746 0.6070565011936012
0.20567703357059677 0.19803695927727516 0.5775076118957424
0.18210232411585078 0.2768478096098833 0.7175832865868177
0.2798592038415352 0.20508936891987495 0.7220232911402779
0.3244796419498829 0.27513635996514746 0.6070565011936012
0.40567703357059676 0.19803695927727516 0.5775076118957424
0.38210232411585077 0.2768478096098833 0.7175832865868177
0.47985920384153524 0.20508936891987495 0.7220232911402779
0.5244796419498828 0.27513635996514746 0.6070565011936012
0.6056770335705968 0.19803695927727516 0.5775076118957424
0.5821023241158508 0.2768478096098833 0.7175832865868177
0.6798592038415352 0.20508936891987495 0.7220232911402779
0.7244796419498829 0.27513635996514746 0.6070565011936012
0.8056770335705968 0.19803695927727516 0.5775076118957424
0.7821023241158508 0.2768478096098833 0.7175832865868177
0.8798592038415353 0.20508936891987495 0.7220232911402779
0.924479641949883 0.27513635996514746 0.6070565011936012
0.005677033570596763 0.39803695927727517 0.5775076118957424
-0.01789767588414923 0.4768478096098833 0.7175832865868177
0.07985920384153516 0.405089368919875 0.7220232911402779
0.12447964194988288 0.47513635996514747 0.6070565011936012
0.20567703357059677 0.39803695927727517 0.5775076118957424
0.18210232411585078 0.4768478096098833 0.7175832865868177
0.2798592038415352 0.405089368919875 0.7220232911402779
0.3244796419498829 0.47513635996514747 0.6070565011936012
0.40567703357059676 0.39803695927727517 0.5775076118957424
0.38210232411585077 0.4768478096098833 0.7175832865868177
0.47985920384153524 0.405089368919875 0.7220232911402779
0.5244796419498828 0.47513635996514747 0.6070565011936012
0.6056770335705968 0.39803695927727517 0.5775076118957424
0.5821023241158508 0.4768478096098833 0.7175832865868177
0.6798592038415352 0.405089368919875 0.7220232911402779
0.7244796419498829 0.47513635996514747 0.6070565011936012
0.8056770335705968 0.39803695927727517 0.5775076118957424
0.7821023241158508 0.4768478096098833 0.7175832865868177
0.8798592038415353 0.405089368919875 0.7220232911402779
0.924479641949883 0.47513635996514747 0.6070565011936012
0.005677033570596763 0.5980369592772752 0.5775076118957424
-0.01789767588414923 0.6768478096098833 0.7175832865868177
0.07985920384153516 0.6050893689198751 0.7220232911402779
0.12447964194988288 0.6751363599651475 0.6070565011936012
0.20567703357059677 0.5980369592772752 0.5775076118957424
0.18210232411585078 0.6768478096098833 0.7175832865868177
0.2798592038415352 0.6050893689198751 0.7220232911402779
0.3244796419498829 0.6751363599651475 0.6070565011936012
0.40567703357059676 0.5980369592772752 0.5775076118957424
0.38210232411585077 0.6768478096098833 0.7175832865868177
0.47985920384153524 0.6050893689198751 0.7220232911402779
0.5244796419498828 0.6751363599651475 0.6070565011936012
0.6056770335705968 0.5980369592772752 0.5775076118957424
0.5821023241158508 0.6768478096098833 0.7175832865868177
0.6798592038415352 0.6050893689198751 0.7220232911402779
0.7244796419498829 0.6751363599651475 0.6070565011936012
0.8056770335705968 0.5980369592772752 0.5775076118957424
0.7821023241158508 0.6768478096098833 0.7175832865868177
0.8798592038415353 0.6050893689198751 0.7220232911402779
0.924479641949883 0.6751363599651475 0.6070565011936012
0.005677033570596763 0.7980369592772751 0.5775076118957424
-0.01789767588414923 0.8768478096098833 0.7175832865868177
0.07985920384153516 0.805089368919875 0.7220232911402779
0.12447964194988288 0.8751363599651475 0.6070565011936012
0.20567703357059677 0.7980369592772751 0.5775076118957424
0.18210232411585078 0.8768478096098833 0.7175832865868177
0.2798592038415352 0.805089368919875 0.7220232911402779
0.3244796419498829 0.8751363599651475 0.6070565011936012
0.40567703357059676 0.7980369592772751 0.5775076118957424
0.38210232411585077 0.8768478096098833 0.7175832865868177
0.47985920384153524 0.805089368919875 0.7220232911402779
0.5244796419498828 0.8751363599651475 0.6070565011936012
0.6056770335705968 0.7980369592772751 0.5775076118957424
0.5821023241158508 0.8768478096098833 0.7175832865868177
0.6798592038415352 0.805089368919875 0.7220232911402779
0.7244796419498829 0.8751363599651475 0.6070565011936012
0.8056770335705968 0.7980369592772751 0.5775076118957424
0.7821023241158508 0.8768478096098833 0.7175832865868177
0.8798592038415353 0.805089368919875 0.7220232911402779
0.924479641949883 0.8751363599651475 0.6070565011936012
0.005677033570596763 -0.001963040722724869 0.7775076118957425
-0.01789767588414923 0.0768478096098833 0.9175832865868178
0.07985920384153516 0.005089368919874961 0.9220232911402779
0.12447964194988288 0.07513635996514745 0.8070565011936012
0.20567703357059677 -0.001963040722724869 0.7775076118957425
0.18210232411585078 0.0768478096098833 0.9175832865868178
0.2798592038415352 0.005089368919874961 0.9220232911402779
0.3244796419498829 0.07513635996514745 0.8070565011936012
0.40567703357059676 -0.001963040722724869 0.7775076118957425
0.38210232411585077 0.0768478096098833 0.9175832865868178
0.47985920384153524 0.005089368919874961 0.9220232911402779
0.5244796419498828 0.07513635996514745 0.8070565011936012
0.6056770335705968 -0.001963040722724869 0.7775076118957425
0.5821023241158508 0.0768478096098833 0.9175832865868178
0.6798592038415352 0.005089368919874961 0.9220232911402779
0.7244796419498829 0.07513635996514745 0.8070565011936012
0.8056770335705968 -0.001963040722724869 0.7775076118957425
0.7821023241158508 0.0768478096098833 0.9175832865868178
0.8798592038415353 0.005089368919874961 0.9220232911402779
0.924479641949883 0.07513635996514745 0.8070565011936012
0.005677033570596763 0.19803695927727516 0.7775076118957425
-0.01789767588414923 0.2768478096098833 0.9175832865868178
0.07985920384153516 0.20508936891987495 0.9220232911402779
0.12447964194988288 0.27513635996514746 0.8070565011936012
0.20567703357059677 0.19803695927727516 0.7775076118957425
0.18210232411585078 0.2768478096098833 0.9175832865868178
0.2798592038415352 0.20508936891987495 0.9220232911402779
0.3244796419498829 0.27513635996514746 0.8070565011936012
0.40567703357059676 0.19803695927727516 0.7775076118957425
0.38210232411585077 0.2768478096098833 0.9175832865868178
0.47985920384153524 0.20508936891987495 0.9220232911402779
0.5244796419498828 0.27513635996514746 0.8070565011936012
0.6056770335705968 0.19803695927727516 0.7775076118957425
0.5821023241158508 0.2768478096098833 0.9175832865868178
0.6798592038415352 0.20508936891987495 0.9220232911402779
0.7244796419498829 0.27513635996514746 0.8070565011936012
0.8056770335705968 0.19803695927727516 0.7775076118957425
0.7821023241158508 0.2768478096098833 0.9175832865868178
0.8798592038415353 0.20508936891987495 0.9220232911402779
0.924479641949883 0.27513635996514746 0.8070565011936012
0.005677033570596763 0.39803695927727517 0.7775076118957425
-0.01789767588414923 0.4768478096098833 0.9175832865868178
0.07985920384153516 0.405089368919875 0.9220232911402779
0.12447964194988288 0.47513635996514747 0.8070565011936012
0.20567703357059677 0.39803695927727517 0.7775076118957425
0.18210232411585078 0.4768478096098833 0.9175832865868178
0.2798592038415352 0.405089368919875 0.9220232911402779
0.3244796419498829 0.47513635996514747 0.8070565011936012
0.40567703357059676 0.39803695927727517 0.7775076118957425
0.38210232411585077 0.4768478096098833 0.9175832865868178
0.47985920384153524 0.405089368919875 0.9220232911402779
0.5244796419498828 0.47513635996514747 0.8070565011936012
0.6056770335705968 0.39803695927727517 0.7775076118957425
0.5821023241158508 0.4768478096098833 0.9175832865868178
0.6798592038415352 0.405089368919875 0.9220232911402779
0.7244796419498829 0.47513635996514747 0.8070565011936012
0.8056770335705968 0.39803695927727517 0.7775076118957425
0.7821023241158508 0.4768478096098833 0.9175832865868178
0.8798592038415353 0.405089368919875 0.9220232911402779
0.924479641949883 0.47513635996514747 0.8070565011936012
0.005677033570596763 0.5980369592772752 0.7775076118957425
-0.01789767588414923 0.6768478096098833 0.9175832865868178
0.07985920384153516 0.6050893689198751 0.9220232911402779
0.12447964194988288 0.6751363599651475 0.8070565011936012
0.20567703357059677 0.5980369592772752 0.7775076118957425
0.18210232411585078 0.6768478096098833 0.9175832865868178
0.2798592038415352 0.6050893689198751 0.9220232911402779
0.3244796419498829 0.6751363599651475 0.8070565011936012
0.40567703357059676 0.5980369592772752 0.7775076118957425
0.38210232411585077 0.6768478096098833 0.9175832865868178
0.47985920384153524 0.6050893689198751 0.9220232911402779
0.5244796419498828 0.6751363599651475 0.8070565011936012
0.6056770335705968 0.5980369592772752 0.7775076118957425
0.5821023241158508 0.6768478096098833 0.9175832865868178
0.6798592038415352 0.6050893689198751 0.9220232911402779
0.7244796419498829 0.6751363599651475 0.8070565011936012
0.8056770335705968 0.5980369592772752 0.7775076118957425
0.7821023241158508 0.6768478096098833 0.9175832865868178
0.8798592038415353 0.6050893689198751 0.9220232911402779
0.924479641949883 0.6751363599651475 0.8070565011936012
0.005677033570596763 0.7980369592772751 0.7775076118957425
-0.01789767588414923 0.8768478096098833 0.9175832865868178
0.07985920384153516 0.805089368919875 0.9220232911402779
0.12447964194988288 0.8751363599651475 0.8070565011936012
0.20567703357059677 0.7980369592772751 0.7775076118957425
0.18210232411585078 0.8768478096098833 0.9175832865868178
0.2798592038415352 0.805089368919875 0.9220232911402779
0.3244796419498829 0.8751363599651475 0.8070565011936012
0.40567703357059676 0.7980369592772751 0.7775076118957425
0.38210232411585077 0.8768478096098833 0.9175832865868178
0.47985920384153524 0.805089368919875 0.9220232911402779
0.5244796419498828 0.8751363599651475 0.8070565011936012
0.6056770335705968 0.7980369592772751 0.7775076118957425
0.5821023241158508 0.8768478096098833 0.9175832865868178
0.6798592038415352 0.805089368919875 0.9220232911402779
0.7244796419498829 0.8751363599651475 0.8070565011936012
0.8056770335705968 0.7980369592772751 0.7775076118957425
0.7821023241158508 0.8768478096098833 0.9175832865868178
0.8798592038415353 0.805089368919875 0.9220232911402779
0.924479641949883 0.8751363599651475 0.8070565011936012
0.07413740910307141 0.012556650157978237 -0.0231877190245651
0.02225054343699588 0.12757302933284942 -0.008771880125329676
0.0011229044784708598 0.02648612686543944 0.07331313411483197
0.08746622869590948 0.12674320154901494 0.09044850684078705
0.27413740910307144 0.012556650157978237 -0.0231877190245651
0.22225054343699588 0.12757302933284942 -0.008771880125329676
0.20112290447847087 0.02648612686543944 0.07331313411483197
0.2874662286959095 0.12674320154901494 0.09044850684078705
0.47413740910307145 0.012556650157978237 -0.0231877190245651
0.42225054343699586 0.12757302933284942 -0.008771880125329676
0.4011229044784709 0.02648612686543944 0.07331313411483197
0.4874662286959095 0.12674320154901494 0.09044850684078705
0.6741374091030714 0.012556650157978237 -0.0231877190245651
0.6222505434369959 0.12757302933284942 -0.008771880125329676
0.6011229044784709 0.02648612686543944 0.07331313411483197
0.6874662286959095 0.12674320154901494 0.09044850684078705
0.8741374091030715 0.012556650157978237 -0.0231877190245651
0.8222505434369959 0.12757302933284942 -0.008771880125329676
0.801122904478471 0.02648612686543944 0.07331313411483197
0.8874662286959096 0.12674320154901494 0.09044850684078705
0.07413740910307141 0.21255665015797823 -0.0231877190245651
0.02225054343699588 0.32757302933284943 -0.008771880125329676
0.0011229044784708598 0.22648612686543945 0.07331313411483197
0.08746622869590948 0.326743201549015 0.09044850684078705
0.27413740910307144 0.21255665015797823 -0.0231877190245651
0.22225054343699588 0.32757302933284943 -0.008771880125329676
0.20112290447847087 0.22648612686543945 0.07331313411483197
0.2874662286959095 0.326743201549015 0.09044850684078705
0.47413740910307145 0.21255665015797823 -0.0231877190245651
0.42225054343699586 0.32757302933284943 -0.008771880125329676
0.4011229044784709 0.22648612686543945 0.07331313411483197
0.4874662286959095 0.326743201549015 0.09044850684078705
0.6741374091030714 0.21255665015797823 -0.0231877190245651
0.6222505434369959 0.32757302933284943 -0.008771880125329676
0.6011229044784709 0.22648612686543945 0.07331313411483197
0.6874662286959095 0.326743201549015 0.09044850684078705
0.8741374091030715 0.21255665015797823 -0.0231877190245651
0.8222505434369959 0.32757302933284943 -0.008771880125329676
0.801122904478471 0.22648612686543945 0.07331313411483197
0.8874662286959096 0.326743201549015 0.09044850684078705
0.07413740910307141 0.41255665015797827 -0.0231877190245651
0.02225054343699588 0.5275730293328494 -0.008771880125329676
0.0011229044784708598 0.42648612686543946 0.07331313411483197
0.08746622869590948 0.5267432015490149 0.09044850684078705
0.27413740910307144 0.41255665015797827 -0.0231877190245651
0.22225054343699588 0.5275730293328494 -0.008771880125329676
0.20112290447847087 0.42648612686543946 0.07331313411483197
0.2874662286959095 0.5267432015490149 0.09044850684078705
0.47413740910307145 0.41255665015797827 -0.0231877190245651
0.42225054343699586 0.5275730293328494 -0.008771880125329676
0.4011229044784709 0.42648612686543946 0.07331313411483197
0.4874662286959095 0.5267432015490149 0.09044850684078705
0.6741374091030714 0.41255665015797827 -0.0231877190245651
0.6222505434369959 0.5275730293328494 -0.008771880125329676
0.6011229044784709 0.42648612686543946 0.07331313411483197
0.6874662286959095 0.5267432015490149 0.09044850684078705
0.8741374091030715 0.41255665015797827 -0.0231877190245651
0.8222505434369959 0.5275730293328494 -0.008771880125329676
0.801122904478471 0.42648612686543946 0.07331313411483197
0.8874662286959096 0.5267432015490149 0.09044850684078705
0.07413740910307141 0.6125566501579782 -0.0231877190245651
0.02225054343699588 0.7275730293328495 -0.008771880125329676
0.0011229044784708598 0.6264861268654395 0.07331313411483197
0.08746622869590948 0.726743201549015 0.09044850684078705
0.27413740910307144 0.6125566501579782 -0.0231877190245651
0.22225054343699588 0.7275730293328495 -0.008771880125329676
0.20112290447847087 0.6264861268654395 0.07331313411483197
0.2874662286959095 0.726743201549015 0.09044850684078705
0.47413740910307145 0.6125566501579782 -0.0231877190245651
0.42225054343699586 0.7275730293328495 -0.008771880125329676
0.4011229044784709 0.6264861268654395 0.07331313411483197
0.4874662286959095 0.726743201549015 0.09044850684078705
0.6741374091030714 0.6125566501579782 -0.0231877190245651
0.6222505434369959 0.7275730293328495 -0.008771880125329676
0.6011229044784709 0.6264861268654395 0.07331313411483197
0.6874662286959095 0.726743201549015 0.09044850684078705
0.8741374091030715 0.6125566501579782 -0.0231877190245651
0.8222505434369959 0.7275730293328495 -0.008771880125329676
0.801122904478471 0.6264861268654395 0.07331313411483197
0.8874662286959096 0.726743201549015 0.09044850684078705
0.07413740910307141 0.8125566501579784 -0.0231877190245651
0.02225054343699588 0.9275730293328494 -0.008771880125329676
0.0011229044784708598 0.8264861268654395 0.07331313411483197
0.08746622869590948 0.9267432015490149 0.09044850684078705
0.27413740910307144 0.8125566501579784 -0.0231877190245651
0.22225054343699588 0.9275730293328494 -0.008771880125329676
0.20112290447847087 0.8264861268654395 0.07331313411483197
0.2874662286959095 0.9267432015490149 0.09044850684078705
0.47413740910307145 0.8125566501579784 -0.0231877190245651
0.42225054343699586 0.9275730293328494 -0.008771880125329676
0.4011229044784709 0.8264861268654395 0.07331313411483197
0.4874662286959095 0.9267432015490149 0.09044850684078705
0.6741374091030714 0.8125566501579784 -0.0231877190245651
0.6222505434369959 0.9275730293328494 -0.008771880125329676
0.6011229044784709 0.8264861268654395 0.07331313411483197
0.6874662286959095 0.9267432015490149 0.09044850684078705
0.8741374091030715 0.8125566501579784 -0.0231877190245651
0.8222505434369959 0.9275730293328494 -0.008771880125329676
0.801122904478471 0.8264861268654395 0.07331313411483197
0.8874662286959096 0.9267432015490149 0.09044850684078705
0.07413740910307141 0.012556650157978237 0.17681228097543492
0.02225054343699588 0.12757302933284942 0.19122811987467034
0.0011229044784708598 0.02648612686543944 0.273313134114832
0.08746622869590948 0.12674320154901494 0.2904485068407871
0.27413740910307144 0.012556650157978237 0.17681228097543492
0.22225054343699588 0.12757302933284942 0.19122811987467034
0.20112290447847087 0.02648612686543944 0.273313134114832
0.2874662286959095 0.12674320154901494 0.2904485068407871
0.47413740910307145 0.012556650157978237 0.17681228097543492
0.42225054343699586 0.12757302933284942 0.19122811987467034
0.4011229044784709 0.02648612686543944 0.273313134114832
0.4874662286959095 0.12674320154901494 0.2904485068407871
0.6741374091030714 0.012556650157978237 0.17681228097543492
0.6222505434369959 0.12757302933284942 0.19122811987467034
0.6011229044784709 0.02648612686543944 0.273313134114832
0.6874662286959095 0.12674320154901494 0.2904485068407871
0.8741374091030715 0.012556650157978237 0.17681228097543492
0.8222505434369959 0.12757302933284942 0.19122811987467034
0.801122904478471 0.02648612686543944 0.273313134114832
0.8874662286959096 0.12674320154901494 0.2904485068407871
0.07413740910307141 0.21255665015797823 0.17681228097543492
0.02225054343699588 0.32757302933284943 0.19122811987467034
0.0011229044784708598 0.22648612686543945 0.273313134114832
0.08746622869590948 0.326743201549015 0.2904485068407871
0.27413740910307144 0.21255665015797823 0.17681228097543492
0.22225054343699588 0.32757302933284943 0.19122811987467034
0.20112290447847087 0.22648612686543945 0.273313134114832
0.2874662286959095 0.326743201549015 0.2904485068407871
0.47413740910307145 0.21255665015797823 0.17681228097543492
0.42225054343699586 0.32757302933284943 0.19122811987467034
0.4011229044784709 0.22648612686543945 0.273313134114832
0.4874662286959095 0.326743201549015 0.2904485068407871
0.6741374091030714 0.21255665015797823 0.17681228097543492
0.6222505434369959 0.32757302933284943 0.19122811987467034
0.6011229044784709 0.22648612686543945 0.273313134114832
0.6874662286959095 0.326743201549015 0.2904485068407871
0.8741374091030715 0.21255665015797823 0.17681228097543492
0.8222505434369959 0.32757302933284943 0.19122811987467034
0.801122904478471 0.22648612686543945 0.273313134114832
0.8874662286959096 0.326743201549015 0.2904485068407871
0.07413740910307141 0.41255665015797827 0.17681228097543492
0.02225054343699588 0.5275730293328494 0.19122811987467034
0.0011229044784708598 0.42648612686543946 0.273313134114832
0.08746622869590948 0.5267432015490149 0.2904485068407871
0.27413740910307144 0.41255665015797827 0.17681228097543492
0.22225054343699588 0.5275730293328494 0.19122811987467034
0.20112290447847087 0.42648612686543946 0.273313134114832
0.2874662286959095 0.5267432015490149 0.2904485068407871
0.47413740910307145 0.41255665015797827 0.17681228097543492
0.42225054343699586 0.5275730293328494 0.19122811987467034
0.4011229044784709 0.42648612686543946 0.273313134114832
0.4874662286959095 0.5267432015490149 0.2904485068407871
0.6741374091030714 0.41255665015797827 0.17681228097543492
0.6222505434369959 0.5275730293328494 0.19122811987467034
0.6011229044784709 0.42648612686543946 0.273313134114832
0.6874662286959095 0.5267432015490149 0.2904485068407871
0.8741374091030715 0.41255665015797827 0.17681228097543492
0.8222505434369959 0.5275730293328494 0.19122811987467034
0.801122904478471 0.42648612686543946 0.273313134114832
0.8874662286959096 0.5267432015490149 0.2904485068407871
0.07413740910307141 0.6125566501579782 0.17681228097543492
0.02225054343699588 0.7275730293328495 0.19122811987467034
0.0011229044784708598 0.6264861268654395 0.273313134114832
0.08746622869590948 0.726743201549015 0.2904485068407871
0.27413740910307144 0.6125566501579782 0.17681228097543492
0.22225054343699588 0.7275730293328495 0.19122811987467034
0.20112290447847087 0.6264861268654395 0.273313134114832
0.2874662286959095 0.726743201549015 0.2904485068407871
0.47413740910307145 0.6125566501579782 0.17681228097543492
0.42225054343699586 0.7275730293328495 0.19122811987467034
0.4011229044784709 0.6264861268654395 0.273313134114832
0.4874662286959095 0.726743201549015 0.2904485068407871
0.6741374091030714 0.6125566501579782 0.17681228097543492
0.6222505434369959 0.7275730293328495 0.19122811987467034
0.6011229044784709 0.6264861268654395 0.273313134114832
0.6874662286959095 0.726743201549015 0.2904485068407871
0.8741374091030715 0.6125566501579782 0.17681228097543492
0.8222505434369959 0.7275730293328495 0.19122811987467034
0.801122904478471 0.6264861268654395 0.273313134114832
0.8874662286959096 0.726743201549015 0.2904485068407871
0.07413740910307141 0.8125566501579784 0.17681228097543492
0.02225054343699588 0.9275730293328494 0.19122811987467034
0.0011229044784708598 0.8264861268654395 0.273313134114832
0.08746622869590948 0.9267432015490149 0.2904485068407871
0.27413740910307144 0.8125566501579784 0.17681228097543492
0.22225054343699588 0.9275730293328494 0.19122811987467034
0.20112290447847087 0.8264861268654395 0.273313134114832
0.2874662286959095 0.9267432015490149 0.2904485068407871
0.47413740910307145 0.8125566501579784 0.17681228097543492
0.42225054343699586 0.9275730293328494 0.19122811987467034
0.4011229044784709 0.8264861268654395 0.273313134114832
0.4874662286959095 0.9267432015490149 0.2904485068407871
0.6741374091030714 0.8125566501579784 0.17681228097543492
0.6222505434369959 0.9275730293328494 0.19122811987467034
0.6011229044784709 0.8264861268654395 0.273313134114832
0.6874662286959095 0.9267432015490149 0.2904485068407871
0.8741374091030715 0.8125566501579784 0.17681228097543492
0.8222505434369959 0.9275730293328494 0.19122811987467034
0.801122904478471 0.8264861268654395 0.273313134114832
0.8874662286959096 0.9267432015490149 0.2904485068407871
0.07413740910307141 0.012556650157978237 0.3768122809754349
0.02225054343699588 0.12757302933284942 0.3912281198746703
0.0011229044784708598 0.02648612686543944 0.473313134114832
0.08746622869590948 0.12674320154901494 0.4904485068407871
0.27413740910307144 0.012556650157978237 0.3768122809754349
0.22225054343699588 0.12757302933284942 0.3912281198746703
0.20112290447847087 0.02648612686543944 0.473313134114832
0.2874662286959095 0.12674320154901494 0.4904485068407871
0.47413740910307145 0.012556650157978237 0.3768122809754349
0.42225054343699586 0.12757302933284942 0.3912281198746703
0.4011229044784709 0.02648612686543944 0.473313134114832
0.4874662286959095 0.12674320154901494 0.4904485068407871
0.6741374091030714 0.012556650157978237 0.3768122809754349
0.6222505434369959 0.12757302933284942 0.3912281198746703
0.6011229044784709 0.02648612686543944 0.473313134114832
0.6874662286959095 0.12674320154901494 0.4904485068407871
0.8741374091030715 0.012556650157978237 0.3768122809754349
0.8222505434369959 0.12757302933284942 0.3912281198746703
0.801122904478471 0.02648612686543944 0.473313134114832
0.8874662286959096 0.12674320154901494 0.4904485068407871
0.07413740910307141 0.21255665015797823 0.3768122809754349
0.02225054343699588 0.32757302933284943 0.3912281198746703
0.0011229044784708598 0.22648612686543945 0.473313134114832
0.08746622869590948 0.326743201549015 0.4904485068407871
0.27413740910307144 0.21255665015797823 0.3768122809754349
0.22225054343699588 0.32757302933284943 0.3912281198746703
0.20112290447847087 0.22648612686543945 0.473313134114832
0.2874662286959095 0.326743201549015 0.4904485068407871
0.47413740910307145 0.21255665015797823 0.3768122809754349
0.42225054343699586 0.32757302933284943 0.3912281198746703
0.4011229044784709 0.22648612686543945 0.473313134114832
0.4874662286959095 0.326743201549015 0.4904485068407871
0.6741374091030714 0.21255665015797823 0.3768122809754349
0.6222505434369959 0.32757302933284943 0.3912281198746703
0.6011229044784709 0.22648612686543945 0.473313134114832
0.6874662286959095 0.326743201549015 0.4904485068407871
0.8741374091030715 0.21255665015797823 0.3768122809754349
0.8222505434369959 0.32757302933284943 0.3912281198746703
0.801122904478471 0.22648612686543945 0.473313134114832
0.8874662286959096 0.326743201549015 0.4904485068407871
0.07413740910307141 0.41255665015797827 0.3768122809754349
0.02225054343699588 0.5275730293328494 0.3912281198746703
0.0011229044784708598 0.42648612686543946 0.473313134114832
0.08746622869590948 0.5267432015490149 0.4904485068407871
0.27413740910307144 0.41255665015797827 0.3768122809754349
0.22225054343699588 0.5275730293328494 0.3912281198746703
0.20112290447847087 0.42648612686543946 0.473313134114832
0.2874662286959095 0.5267432015490149 0.4904485068407871
0.47413740910307145 0.41255665015797827 0.3768122809754349
0.42225054343699586 0.5275730293328494 0.3912281198746703
0.4011229044784709 0.42648612686543946 0.473313134114832
0.4874662286959095 0.5267432015490149 0.4904485068407871
0.6741374091030714 0.41255665015797827 0.3768122809754349
0.6222505434369959 0.5275730293328494 0.3912281198746703
0.6011229044784709 0.42648612686543946 0.473313134114832
0.6874662286959095 0.5267432015490149 0.4904485068407871
0.8741374091030715 0.41255665015797827 0.3768122809754349
0.8222505434369959 0.5275730293328494 0.3912281198746703
0.801122904478471 0.42648612686543946 0.473313134114832
0.8874662286959096 0.5267432015490149 0.4904485068407871
0.07413740910307141 0.6125566501579782 0.3768122809754349
0.02225054343699588 0.7275730293328495 0.3912281198746703
0.0011229044784708598 0.6264861268654395 0.473313134114832
0.08746622869590948 0.726743201549015 0.4904485068407871
0.27413740910307144 0.6125566501579782 0.3768122809754349
0.22225054343699588 0.7275730293328495 0.3912281198746703
0.20112290447847087 0.6264861268654395 0.473313134114832
0.2874662286959095 0.726743201549015 0.4904485068407871
0.47413740910307145 0.6125566501579782 0.3768122809754349
0.42225054343699586 0.7275730293328495 0.3912281198746703
0.4011229044784709 0.6264861268654395 0.473313134114832
0.4874662286959095 0.726743201549015 0.4904485068407871
0.6741374091030714 0.6125566501579782 0.3768122809754349
0.6222505434369959 0.7275730293328495 0.3912281198746703
0.6011229044784709 0.6264861268654395 0.473313134114832
0.6874662286959095 0.726743201549015 0.4904485068407871
0.8741374091030715 0.6125566501579782 0.3768122809754349
0.8222505434369959 0.7275730293328495 0.3912281198746703
0.801122904478471 0.6264861268654395 0.473313134114832
0.8874662286959096 0.726743201549015 0.4904485068407871
0.07413740910307141 0.8125566501579784 0.3768122809754349
0.02225054343699588 0.9275730293328494 0.3912281198746703
0.0011229044784708598 0.8264861268654395 0.473313134114832
0.08746622869590948 0.9267432015490149 0.4904485068407871
0.27413740910307144 0.8125566501579784 0.3768122809754349
0.22225054343699588 0.9275730293328494 0.3912281198746703
0.20112290447847087 0.8264861268654395 0.473313134114832
0.2874662286959095 0.9267432015490149 0.4904485068407871
0.47413740910307145 0.8125566501579784 0.3768122809754349
0.42225054343699586 0.9275730293328494 0.3912281198746703
0.4011229044784709 0.8264861268654395 0.473313134114832
0.4874662286959095 0.9267432015490149 0.4904485068407871
0.6741374091030714 0.8125566501579784 0.3768122809754349
0.6222505434369959 0.9275730293328494 0.3912281198746703
0.6011229044784709 0.8264861268654395 0.473313134114832
0.6874662286959095 0.9267432015490149 0.4904485068407871
0.8741374091030715 0.8125566501579784 0.3768122809754349
0.8222505434369959 0.9275730293328494 0.3912281198746703
0.801122904478471 0.8264861268654395 0.473313134114832
0.8874662286959096 0.9267432015490149 0.4904485068407871
0.07413740910307141 0.012556650157978237 0.5768122809754349
0.02225054343699588 0.12757302933284942 0.5912281198746704
0.0011229044784708598 0.02648612686543944 0.673313134114832
0.08746622869590948 0.12674320154901494 0.6904485068407871
0.27413740910307144 0.012556650157978237 0.5768122809754349
0.22225054343699588 0.12757302933284942 0.5912281198746704
0.20112290447847087 0.02648612686543944 0.673313134114832
0.2874662286959095 0.12674320154901494 0.6904485068407871
0.47413740910307145 0.012556650157978237 0.5768122809754349
0.42225054343699586 0.12757302933284942 0.5912281198746704
0.4011229044784709 0.02648612686543944 0.673313134114832
0.4874662286959095 0.12674320154901494 0.6904485068407871
0.6741374091030714 0.012556650157978237 0.5768122809754349
0.6222505434369959 0.12757302933284942 0.5912281198746704
0.6011229044784709 0.02648612686543944 0.673313134114832
0.6874662286959095 0.12674320154901494 0.6904485068407871
0.8741374091030715 0.012556650157978237 0.5768122809754349
0.8222505434369959 0.12757302933284942 0.5912281198746704
0.801122904478471 0.02648612686543944 0.673313134114832
0.8874662286959096 0.12674320154901494 0.6904485068407871
0.07413740910307141 0.21255665015797823 0.5768122809754349
0.02225054343699588 0.32757302933284943 0.5912281198746704
0.0011229044784708598 0.22648612686543945 0.673313134114832
0.08746622869590948 0.326743201549015 0.6904485068407871
0.27413740910307144 0.21255665015797823 0.5768122809754349
0.22225054343699588 0.32757302933284943 0.5912281198746704
0.20112290447847087 0.22648612686543945 0.673313134114832
0.2874662286959095 0.326743201549015 0.6904485068407871
0.47413740910307145 0.21255665015797823 0.5768122809754349
0.42225054343699586 0.32757302933284943 0.5912281198746704
0.4011229044784709 0.22648612686543945 0.673313134114832
0.4874662286959095 0.326743201549015 0.6904485068407871
0.6741374091030714 0.21255665015797823 0.5768122809754349
0.6222505434369959 0.32757302933284943 0.5912281198746704
0.6011229044784709 0.22648612686543945 0.673313134114832
0.6874662286959095 0.326743201549015 0.6904485068407871
0.8741374091030715 0.21255665015797823 0.5768122809754349
0.8222505434369959 0.32757302933284943 0.5912281198746704
0.801122904478471 0.22648612686543945 0.673313134114832
0.8874662286959096 0.326743201549015 0.6904485068407871
0.07413740910307141 0.41255665015797827 0.5768122809754349
0.02225054343699588 0.5275730293328494 0.5912281198746704
0.0011229044784708598 0.42648612686543946 0.673313134114832
0.08746622869590948 0.5267432015490149 0.6904485068407871
0.27413740910307144 0.41255665015797827 0.5768122809754349
0.22225054343699588 0.5275730293328494 0.5912281198746704
0.20112290447847087 0.42648612686543946 0.673313134114832
0.2874662286959095 0.5267432015490149 0.6904485068407871
0.47413740910307145 0.41255665015797827 0.5768122809754349
0.42225054343699586 0.5275730293328494 0.5912281198746704
0.4011229044784709 0.42648612686543946 0.673313134114832
0.4874662286959095 0.5267432015490149 0.6904485068407871
0.6741374091030714 0.41255665015797827 0.5768122809754349
0.6222505434369959 0.5275730293328494 0.5912281198746704
0.6011229044784709 0.42648612686543946 0.673313134114832
0.6874662286959095 0.5267432015490149 0.6904485068407871
0.8741374091030715 0.41255665015797827 0.5768122809754349
0.8222505434369959 0.5275730293328494 0.5912281198746704
0.801122904478471 0.42648612686543946 0.673313134114832
0.8874662286959096 0.5267432015490149 0.6904485068407871
0.07413740910307141 0.6125566501579782 0.5768122809754349
0.02225054343699588 0.7275730293328495 0.5912281198746704
0.0011229044784708598 0.6264861268654395 0.673313134114832
0.08746622869590948 0.726743201549015 0.6904485068407871
0.27413740910307144 0.6125566501579782 0.5768122809754349
0.22225054343699588 0.7275730293328495 0.5912281198746704
0.20112290447847087 0.6264861268654395 0.673313134114832
0.2874662286959095 0.726743201549015 0.6904485068407871
0.47413740910307145 0.6125566501579782 0.5768122809754349
0.42225054343699586 0.7275730293328495 0.5912281198746704
0.4011229044784709 0.6264861268654395 0.673313134114832
0.4874662286959095 0.726743201549015 0.6904485068407871
0.6741374091030714 0.6125566501579782 0.5768122809754349
0.6222505434369959 0.7275730293328495 0.5912281198746704
0.6011229044784709 0.6264861268654395 0.673313134114832
0.6874662286959095 0.726743201549015 0.6904485068407871
0.8741374091030715 0.6125566501579782 0.5768122809754349
0.8222505434369959 0.7275730293328495 0.5912281198746704
0.801122904478471 0.6264861268654395 0.673313134114832
0.8874662286959096 0.726743201549015 0.6904485068407871
0.07413740910307141 0.8125566501579784 0.5768122809754349
0.02225054343699588 0.9275730293328494 0.5912281198746704
0.0011229044784708598 0.8264861268654395 0.673313134114832
0.08746622869590948 0.9267432015490149 0.6904485068407871
0.27413740910307144 0.8125566501579784 0.5768122809754349
0.22225054343699588 0.9275730293328494 0.5912281198746704
0.20112290447847087 0.8264861268654395 0.673313134114832
0.2874662286959095 0.9267432015490149 0.6904485068407871
0.47413740910307145 0.8125566501579784 0.5768122809754349
0.42225054343699586 0.9275730293328494 0.5912281198746704
0.4011229044784709 0.8264861268654395 0.673313134114832
0.4874662286959095 0.9267432015490149 0.6904485068407871
0.6741374091030714 0.8125566501579784 0.5768122809754349
0.6222505434369959 0.9275730293328494 0.5912281198746704
0.6011229044784709 0.8264861268654395 0.673313134114832
0.6874662286959095 0.9267432015490149 0.6904485068407871
0.8741374091030715 0.8125566501579784 0.5768122809754349
0.8222505434369959 0.9275730293328494 0.5912281198746704
0.801122904478471 0.8264861268654395 0.673313134114832
0.8874662286959096 0.9267432015490149 0.6904485068407871
0.07413740910307141 0.012556650157978237 0.776812280975435
0.02225054343699588 0.12757302933284942 0.7912281198746705
0.0011229044784708598 0.02648612686543944 0.8733131341148319
0.08746622869590948 0.12674320154901494 0.8904485068407871
0.27413740910307144 0.012556650157978237 0.776812280975435
0.22225054343699588 0.12757302933284942 0.7912281198746705
0.20112290447847087 0.02648612686543944 0.8733131341148319
0.2874662286959095 0.12674320154901494 0.8904485068407871
0.47413740910307145 0.012556650157978237 0.776812280975435
0.42225054343699586 0.12757302933284942 0.7912281198746705
0.4011229044784709 0.02648612686543944 0.8733131341148319
0.4874662286959095 0.12674320154901494 0.8904485068407871
0.6741374091030714 0.012556650157978237 0.776812280975435
0.6222505434369959 0.12757302933284942 0.7912281198746705
0.6011229044784709 0.02648612686543944 0.8733131341148319
0.6874662286959095 0.12674320154901494 0.8904485068407871
0.8741374091030715 0.012556650157978237 0.776812280975435
0.8222505434369959 0.12757302933284942 0.7912281198746705
0.801122904478471 0.02648612686543944 0.8733131341148319
0.8874662286959096 0.12674320154901494 0.8904485068407871
0.07413740910307141 0.21255665015797823 0.776812280975435
0.02225054343699588 0.32757302933284943 0.7912281198746705
0.0011229044784708598 0.22648612686543945 0.8733131341148319
0.08746622869590948 0.326743201549015 0.8904485068407871
0.27413740910307144 0.21255665015797823 0.776812280975435
0.22225054343699588 0.32757302933284943 0.7912281198746705
0.20112290447847087 0.22648612686543945 0.8733131341148319
0.2874662286959095 0.326743201549015 0.8904485068407871
0.47413740910307145 0.21255665015797823 0.776812280975435
0.42225054343699586 0.32757302933284943 0.7912281198746705
0.4011229044784709 0.22648612686543945 0.8733131341148319
0.4874662286959095 0.326743201549015 0.8904485068407871
0.6741374091030714 0.21255665015797823 0.776812280975435
0.6222505434369959 0.32757302933284943 0.7912281198746705
0.6011229044784709 0.22648612686543945 0.8733131341148319
0.6874662286959095 0.326743201549015 0.8904485068407871
0.8741374091030715 0.21255665015797823 0.776812280975435
0.8222505434369959 0.32757302933284943 0.7912281198746705
0.801122904478471 0.22648612686543945 0.8733131341148319
0.8874662286959096 0.326743201549015 0.8904485068407871
0.07413740910307141 0.41255665015797827 0.776812280975435
0.02225054343699588 0.5275730293328494 0.7912281198746705
0.0011229044784708598 0.42648612686543946 0.8733131341148319
0.08746622869590948 0.5267432015490149 0.8904485068407871
0.27413740910307144 0.41255665015797827 0.776812280975435
0.22225054343699588 0.5275730293328494 0.7912281198746705
0.20112290447847087 0.42648612686543946 0.8733131341148319
0.2874662286959095 0.5267432015490149 0.8904485068407871
0.47413740910307145 0.41255665015797827 0.776812280975435
0.42225054343699586 0.5275730293328494 0.7912281198746705
0.4011229044784709 0.42648612686543946 0.8733131341148319
0.4874662286959095 0.5267432015490149 0.8904485068407871
0.6741374091030714 0.41255665015797827 0.776812280975435
0.6222505434369959 0.5275730293328494 0.7912281198746705
0.6011229044784709 0.42648612686543946 0.8733131341148319
0.6874662286959095 0.5267432015490149 0.8904485068407871
0.8741374091030715 0.41255665015797827 0.776812280975435
0.8222505434369959 0.5275730293328494 0.7912281198746705
0.801122904478471 0.42648612686543946 0.8733131341148319
0.8874662286959096 0.5267432015490149 0.8904485068407871
0.07413740910307141 0.6125566501579782 0.776812280975435
0.02225054343699588 0.7275730293328495 0.7912281198746705
0.0011229044784708598 0.6264861268654395 0.8733131341148319
0.08746622869590948 0.726743201549015 0.8904485068407871
0.27413740910307144 0.6125566501579782 0.776812280975435
0.22225054343699588 0.7275730293328495 0.7912281198746705
0.20112290447847087 0.6264861268654395 0.8733131341148319
0.2874662286959095 0.726743201549015 0.8904485068407871
0.47413740910307145 0.6125566501579782 0.776812280975435
0.42225054343699586 0.7275730293328495 0.7912281198746705
0.4011229044784709 0.6264861268654395 0.8733131341148319
0.4874662286959095 0.726743201549015 0.8904485068407871
0.6741374091030714 0.6125566501579782 0.776812280975435
0.6222505434369959 0.7275730293328495 0.7912281198746705
0.6011229044784709 0.6264861268654395 0.8733131341148319
0.6874662286959095 0.726743201549015 0.8904485068407871
0.8741374091030715 0.6125566501579782 0.776812280975435
0.8222505434369959 0.7275730293328495 0.7912281198746705
0.801122904478471 0.6264861268654395 0.8733131341148319
0.8874662286959096 0.726743201549015 0.8904485068407871
0.07413740910307141 0.8125566501579784 0.776812280975435
0.02225054343699588 0.9275730293328494 0.7912281198746705
0.0011229044784708598 0.8264861268654395 0.8733131341148319
0.08746622869590948 0.9267432015490149 0.8904485068407871
0.27413740910307144 0.8125566501579784 0.776812280975435
0.22225054343699588 0.9275730293328494 0.7912281198746705
0.20112290447847087 0.8264861268654395 0.8733131341148319
0.2874662286959095 0.9267432015490149 0.8904485068407871
0.47413740910307145 0.8125566501579784 0.776812280975435
0.42225054343699586 0.9275730293328494 0.7912281198746705
0.4011229044784709 0.8264861268654395 0.8733131341148319
0.4874662286959095 0.9267432015490149 0.8904485068407871
0.6741374091030714 0.8125566501579784 0.776812280975435
0.6222505434369959 0.9275730293328494 0.7912281198746705
0.6011229044784709 0.8264861268654395 0.8733131341148319
0.6874662286959095 0.9267432015490149 0.8904485068407871
0.8741374091030715 0.8125566501579784 0.776812280975435
0.8222505434369959 0.9275730293328494 0.7912281198746705
0.801122904478471 0.8264861268654395 0.8733131341148319
0.8874662286959096 0.9267432015490149 0.8904485068407871
