FCC BaO
3.971
5.0 0.0 0.0
0.0 5.0 0.0
0.0 0.0 5.0
Ba O 
500 500 
Direct
0.02431454388667746 -0.023455870526059804 -0.012547360507354333
0.02360387208081832 0.08870342171305606 0.07812164076991984
0.07672791914531228 -0.02868256026748622 0.10418642405253692
0.12986005365255718 0.12895134184049387 -0.025247262827839092
0.2243145438866775 -0.023455870526059804 -0.012547360507354333
0.22360387208081833 0.08870342171305606 0.07812164076991984
0.2767279191453123 -0.02868256026748622 0.10418642405253692
0.3298600536525572 0.12895134184049387 -0.025247262827839092
0.42431454388667744 -0.023455870526059804 -0.012547360507354333
0.4236038720808184 0.08870342171305606 0.07812164076991984
0.4767279191453123 -0.02868256026748622 0.10418642405253692
0.5298600536525572 0.12895134184049387 -0.025247262827839092
0.6243145438866775 -0.023455870526059804 -0.012547360507354333
0.6236038720808184 0.08870342171305606 0.07812164076991984
0.6767279191453124 -0.02868256026748622 0.10418642405253692
0.7298600536525572 0.12895134184049387 -0.025247262827839092
0.8243145438866775 -0.023455870526059804 -0.012547360507354333
0.8236038720808184 0.08870342171305606 0.07812164076991984
0.8767279191453122 -0.02868256026748622 0.10418642405253692
0.9298600536525572 0.12895134184049387 -0.025247262827839092
0.02431454388667746 0.17654412947394021 -0.012547360507354333
0.02360387208081832 0.2887034217130561 0.07812164076991984
0.07672791914531228 0.1713174397325138 0.10418642405253692
0.12986005365255718 0.3289513418404939 -0.025247262827839092
0.2243145438866775 0.17654412947394021 -0.012547360507354333
0.22360387208081833 0.2887034217130561 0.07812164076991984
0.2767279191453123 0.1713174397325138 0.10418642405253692
0.3298600536525572 0.3289513418404939 -0.025247262827839092
0.42431454388667744 0.17654412947394021 -0.012547360507354333
0.4236038720808184 0.2887034217130561 0.07812164076991984
0.4767279191453123 0.1713174397325138 0.10418642405253692
0.5298600536525572 0.3289513418404939 -0.025247262827839092
0.6243145438866775 0.17654412947394021 -0.012547360507354333
0.6236038720808184 0.2887034217130561 0.07812164076991984
0.6767279191453124 0.1713174397325138 0.10418642405253692
0.7298600536525572 0.3289513418404939 -0.025247262827839092
0.8243145438866775 0.17654412947394021 -0.012547360507354333
0.8236038720808184 0.2887034217130561 0.07812164076991984
0.8767279191453122 0.1713174397325138 0.10418642405253692
0.9298600536525572 0.3289513418404939 -0.025247262827839092
0.02431454388667746 0.3765441294739402 -0.012547360507354333
0.02360387208081832 0.4887034217130561 0.07812164076991984
0.07672791914531228 0.3713174397325138 0.10418642405253692
0.12986005365255718 0.5289513418404939 -0.025247262827839092
0.2243145438866775 0.3765441294739402 -0.012547360507354333
0.22360387208081833 0.4887034217130561 0.07812164076991984
0.2767279191453123 0.3713174397325138 0.10418642405253692
0.3298600536525572 0.5289513418404939 -0.025247262827839092
0.42431454388667744 0.3765441294739402 -0.012547360507354333
0.4236038720808184 0.4887034217130561 0.07812164076991984
0.4767279191453123 0.3713174397325138 0.10418642405253692
0.5298600536525572 0.5289513418404939 -0.025247262827839092
0.6243145438866775 0.3765441294739402 -0.012547360507354333
0.6236038720808184 0.4887034217130561 0.07812164076991984
0.6767279191453124 0.3713174397325138 0.10418642405253692
0.7298600536525572 0.5289513418404939 -0.025247262827839092
0.8243145438866775 0.3765441294739402 -0.012547360507354333
0.8236038720808184 0.4887034217130561 0.07812164076991984
0.8767279191453122 0.3713174397325138 0.10418642405253692
0.9298600536525572 0.5289513418404939 -0.025247262827839092
0.02431454388667746 0.5765441294739402 -0.012547360507354333
0.02360387208081832 0.6887034217130561 0.07812164076991984
0.07672791914531228 0.5713174397325138 0.10418642405253692
0.12986005365255718 0.7289513418404939 -0.025247262827839092
0.2243145438866775 0.5765441294739402 -0.012547360507354333
0.22360387208081833 0.6887034217130561 0.07812164076991984
0.2767279191453123 0.5713174397325138 0.10418642405253692
0.3298600536525572 0.7289513418404939 -0.025247262827839092
0.42431454388667744 0.5765441294739402 -0.012547360507354333
0.4236038720808184 0.6887034217130561 0.07812164076991984
0.4767279191453123 0.5713174397325138 0.10418642405253692
0.5298600536525572 0.7289513418404939 -0.025247262827839092
0.6243145438866775 0.5765441294739402 -0.012547360507354333
0.6236038720808184 0.6887034217130561 0.07812164076991984
0.6767279191453124 0.5713174397325138 0.10418642405253692
0.7298600536525572 0.7289513418404939 -0.025247262827839092
0.8243145438866775 0.5765441294739402 -0.012547360507354333
0.8236038720808184 0.6887034217130561 0.07812164076991984
0.8767279191453122 0.5713174397325138 0.10418642405253692
0.9298600536525572 0.7289513418404939 -0.025247262827839092
0.02431454388667746 0.7765441294739402 -0.012547360507354333
0.02360387208081832 0.888703421713056 0.07812164076991984
0.07672791914531228 0.7713174397325138 0.10418642405253692
0.12986005365255718 0.9289513418404939 -0.025247262827839092
0.2243145438866775 0.7765441294739402 -0.012547360507354333
0.22360387208081833 0.888703421713056 0.07812164076991984
0.2767279191453123 0.7713174397325138 0.10418642405253692
0.3298600536525572 0.9289513418404939 -0.025247262827839092
0.42431454388667744 0.7765441294739402 -0.012547360507354333
0.4236038720808184 0.888703421713056 0.07812164076991984
0.4767279191453123 0.7713174397325138 0.10418642405253692
0.5298600536525572 0.9289513418404939 -0.025247262827839092
0.6243145438866775 0.7765441294739402 -0.012547360507354333
0.6236038720808184 0.888703421713056 0.07812164076991984
0.6767279191453124 0.7713174397325138 0.10418642405253692
0.7298600536525572 0.9289513418404939 -0.025247262827839092
0.8243145438866775 0.7765441294739402 -0.012547360507354333
0.8236038720808184 0.888703421713056 0.07812164076991984
0.8767279191453122 0.7713174397325138 0.10418642405253692
0.9298600536525572 0.9289513418404939 -0.025247262827839092
0.02431454388667746 -0.023455870526059804 0.18745263949264568
0.02360387208081832 0.08870342171305606 0.27812164076991985
0.07672791914531228 -0.02868256026748622 0.30418642405253693
0.12986005365255718 0.12895134184049387 0.17475273717216092
0.2243145438866775 -0.023455870526059804 0.18745263949264568
0.22360387208081833 0.08870342171305606 0.27812164076991985
0.2767279191453123 -0.02868256026748622 0.30418642405253693
0.3298600536525572 0.12895134184049387 0.17475273717216092
0.42431454388667744 -0.023455870526059804 0.18745263949264568
0.4236038720808184 0.08870342171305606 0.27812164076991985
0.4767279191453123 -0.02868256026748622 0.30418642405253693
0.5298600536525572 0.12895134184049387 0.17475273717216092
0.6243145438866775 -0.023455870526059804 0.18745263949264568
0.6236038720808184 0.08870342171305606 0.27812164076991985
0.6767279191453124 -0.02868256026748622 0.30418642405253693
0.7298600536525572 0.12895134184049387 0.17475273717216092
0.8243145438866775 -0.023455870526059804 0.18745263949264568
0.8236038720808184 0.08870342171305606 0.27812164076991985
0.8767279191453122 -0.02868256026748622 0.30418642405253693
0.9298600536525572 0.12895134184049387 0.17475273717216092
0.02431454388667746 0.17654412947394021 0.18745263949264568
0.02360387208081832 0.2887034217130561 0.27812164076991985
0.07672791914531228 0.1713174397325138 0.30418642405253693
0.12986005365255718 0.3289513418404939 0.17475273717216092
0.2243145438866775 0.17654412947394021 0.18745263949264568
0.22360387208081833 0.2887034217130561 0.27812164076991985
0.2767279191453123 0.1713174397325138 0.30418642405253693
0.3298600536525572 0.3289513418404939 0.17475273717216092
0.42431454388667744 0.17654412947394021 0.18745263949264568
0.4236038720808184 0.2887034217130561 0.27812164076991985
0.4767279191453123 0.1713174397325138 0.30418642405253693
0.5298600536525572 0.3289513418404939 0.17475273717216092
0.6243145438866775 0.17654412947394021 0.18745263949264568
0.6236038720808184 0.2887034217130561 0.27812164076991985
0.6767279191453124 0.1713174397325138 0.30418642405253693
0.7298600536525572 0.3289513418404939 0.17475273717216092
0.8243145438866775 0.17654412947394021 0.18745263949264568
0.8236038720808184 0.2887034217130561 0.27812164076991985
0.8767279191453122 0.1713174397325138 0.30418642405253693
0.9298600536525572 0.3289513418404939 0.17475273717216092
0.02431454388667746 0.3765441294739402 0.18745263949264568
0.02360387208081832 0.4887034217130561 0.27812164076991985
0.07672791914531228 0.3713174397325138 0.30418642405253693
0.12986005365255718 0.5289513418404939 0.17475273717216092
0.2243145438866775 0.3765441294739402 0.18745263949264568
0.22360387208081833 0.4887034217130561 0.27812164076991985
0.2767279191453123 0.3713174397325138 0.30418642405253693
0.3298600536525572 0.5289513418404939 0.17475273717216092
0.42431454388667744 0.3765441294739402 0.18745263949264568
0.4236038720808184 0.4887034217130561 0.27812164076991985
0.4767279191453123 0.3713174397325138 0.30418642405253693
0.5298600536525572 0.5289513418404939 0.17475273717216092
0.6243145438866775 0.3765441294739402 0.18745263949264568
0.6236038720808184 0.4887034217130561 0.27812164076991985
0.6767279191453124 0.3713174397325138 0.30418642405253693
0.7298600536525572 0.5289513418404939 0.17475273717216092
0.8243145438866775 0.3765441294739402 0.18745263949264568
0.8236038720808184 0.4887034217130561 0.27812164076991985
0.8767279191453122 0.3713174397325138 0.30418642405253693
0.9298600536525572 0.5289513418404939 0.17475273717216092
0.02431454388667746 0.5765441294739402 0.18745263949264568
0.02360387208081832 0.6887034217130561 0.27812164076991985
0.07672791914531228 0.5713174397325138 0.30418642405253693
0.12986005365255718 0.7289513418404939 0.17475273717216092
0.2243145438866775 0.5765441294739402 0.18745263949264568
0.22360387208081833 0.6887034217130561 0.27812164076991985
0.2767279191453123 0.5713174397325138 0.30418642405253693
0.3298600536525572 0.7289513418404939 0.17475273717216092
0.42431454388667744 0.5765441294739402 0.18745263949264568
0.4236038720808184 0.6887034217130561 0.27812164076991985
0.4767279191453123 0.5713174397325138 0.30418642405253693
0.5298600536525572 0.7289513418404939 0.17475273717216092
0.6243145438866775 0.5765441294739402 0.18745263949264568
0.6236038720808184 0.6887034217130561 0.27812164076991985
0.6767279191453124 0.5713174397325138 0.30418642405253693
0.7298600536525572 0.7289513418404939 0.17475273717216092
0.8243145438866775 0.5765441294739402 0.18745263949264568
0.8236038720808184 0.6887034217130561 0.27812164076991985
0.8767279191453122 0.5713174397325138 0.30418642405253693
0.9298600536525572 0.7289513418404939 0.17475273717216092
0.02431454388667746 0.7765441294739402 0.18745263949264568
0.02360387208081832 0.888703421713056 0.27812164076991985
0.07672791914531228 0.7713174397325138 0.30418642405253693
0.12986005365255718 0.9289513418404939 0.17475273717216092
0.2243145438866775 0.7765441294739402 0.18745263949264568
0.22360387208081833 0.888703421713056 0.27812164076991985
0.2767279191453123 0.7713174397325138 0.30418642405253693
0.3298600536525572 0.9289513418404939 0.17475273717216092
0.42431454388667744 0.7765441294739402 0.18745263949264568
0.4236038720808184 0.888703421713056 0.27812164076991985
0.4767279191453123 0.7713174397325138 0.30418642405253693
0.5298600536525572 0.9289513418404939 0.17475273717216092
0.6243145438866775 0.7765441294739402 0.18745263949264568
0.6236038720808184 0.888703421713056 0.27812164076991985
0.6767279191453124 0.7713174397325138 0.30418642405253693
0.7298600536525572 0.9289513418404939 0.17475273717216092
0.8243145438866775 0.7765441294739402 0.18745263949264568
0.8236038720808184 0.888703421713056 0.27812164076991985
0.8767279191453122 0.7713174397325138 0.30418642405253693
0.9298600536525572 0.9289513418404939 0.17475273717216092
0.02431454388667746 -0.023455870526059804 0.3874526394926457
0.02360387208081832 0.08870342171305606 0.47812164076991986
0.07672791914531228 -0.02868256026748622 0.5041864240525369
0.12986005365255718 0.12895134184049387 0.3747527371721609
0.2243145438866775 -0.023455870526059804 0.3874526394926457
0.22360387208081833 0.08870342171305606 0.47812164076991986
0.2767279191453123 -0.02868256026748622 0.5041864240525369
0.3298600536525572 0.12895134184049387 0.3747527371721609
0.42431454388667744 -0.023455870526059804 0.3874526394926457
0.4236038720808184 0.08870342171305606 0.47812164076991986
0.4767279191453123 -0.02868256026748622 0.5041864240525369
0.5298600536525572 0.12895134184049387 0.3747527371721609
0.6243145438866775 -0.023455870526059804 0.3874526394926457
0.6236038720808184 0.08870342171305606 0.47812164076991986
0.6767279191453124 -0.02868256026748622 0.5041864240525369
0.7298600536525572 0.12895134184049387 0.3747527371721609
0.8243145438866775 -0.023455870526059804 0.3874526394926457
0.8236038720808184 0.08870342171305606 0.47812164076991986
0.8767279191453122 -0.02868256026748622 0.5041864240525369
0.9298600536525572 0.12895134184049387 0.3747527371721609
0.02431454388667746 0.17654412947394021 0.3874526394926457
0.02360387208081832 0.2887034217130561 0.47812164076991986
0.07672791914531228 0.1713174397325138 0.5041864240525369
0.12986005365255718 0.3289513418404939 0.3747527371721609
0.2243145438866775 0.17654412947394021 0.3874526394926457
0.22360387208081833 0.2887034217130561 0.47812164076991986
0.2767279191453123 0.1713174397325138 0.5041864240525369
0.3298600536525572 0.3289513418404939 0.3747527371721609
0.42431454388667744 0.17654412947394021 0.3874526394926457
0.4236038720808184 0.2887034217130561 0.47812164076991986
0.4767279191453123 0.1713174397325138 0.5041864240525369
0.5298600536525572 0.3289513418404939 0.3747527371721609
0.6243145438866775 0.17654412947394021 0.3874526394926457
0.6236038720808184 0.2887034217130561 0.47812164076991986
0.6767279191453124 0.1713174397325138 0.5041864240525369
0.7298600536525572 0.3289513418404939 0.3747527371721609
0.8243145438866775 0.17654412947394021 0.3874526394926457
0.8236038720808184 0.2887034217130561 0.47812164076991986
0.8767279191453122 0.1713174397325138 0.5041864240525369
0.9298600536525572 0.3289513418404939 0.3747527371721609
0.02431454388667746 0.3765441294739402 0.3874526394926457
0.02360387208081832 0.4887034217130561 0.47812164076991986
0.07672791914531228 0.3713174397325138 0.5041864240525369
0.12986005365255718 0.5289513418404939 0.3747527371721609
0.2243145438866775 0.3765441294739402 0.3874526394926457
0.22360387208081833 0.4887034217130561 0.47812164076991986
0.2767279191453123 0.3713174397325138 0.5041864240525369
0.3298600536525572 0.5289513418404939 0.3747527371721609
0.42431454388667744 0.3765441294739402 0.3874526394926457
0.4236038720808184 0.4887034217130561 0.47812164076991986
0.4767279191453123 0.3713174397325138 0.5041864240525369
0.5298600536525572 0.5289513418404939 0.3747527371721609
0.6243145438866775 0.3765441294739402 0.3874526394926457
0.6236038720808184 0.4887034217130561 0.47812164076991986
0.6767279191453124 0.3713174397325138 0.5041864240525369
0.7298600536525572 0.5289513418404939 0.3747527371721609
0.8243145438866775 0.3765441294739402 0.3874526394926457
0.8236038720808184 0.4887034217130561 0.47812164076991986
0.8767279191453122 0.3713174397325138 0.5041864240525369
0.9298600536525572 0.5289513418404939 0.3747527371721609
0.02431454388667746 0.5765441294739402 0.3874526394926457
0.02360387208081832 0.6887034217130561 0.47812164076991986
0.07672791914531228 0.5713174397325138 0.5041864240525369
0.12986005365255718 0.7289513418404939 0.3747527371721609
0.2243145438866775 0.5765441294739402 0.3874526394926457
0.22360387208081833 0.6887034217130561 0.47812164076991986
0.2767279191453123 0.5713174397325138 0.5041864240525369
0.3298600536525572 0.7289513418404939 0.3747527371721609
0.42431454388667744 0.5765441294739402 0.3874526394926457
0.4236038720808184 0.6887034217130561 0.47812164076991986
0.4767279191453123 0.5713174397325138 0.5041864240525369
0.5298600536525572 0.7289513418404939 0.3747527371721609
0.6243145438866775 0.5765441294739402 0.3874526394926457
0.6236038720808184 0.6887034217130561 0.47812164076991986
0.6767279191453124 0.5713174397325138 0.5041864240525369
0.7298600536525572 0.7289513418404939 0.3747527371721609
0.8243145438866775 0.5765441294739402 0.3874526394926457
0.8236038720808184 0.6887034217130561 0.47812164076991986
0.8767279191453122 0.5713174397325138 0.5041864240525369
0.9298600536525572 0.7289513418404939 0.3747527371721609
0.02431454388667746 0.7765441294739402 0.3874526394926457
0.02360387208081832 0.888703421713056 0.47812164076991986
0.07672791914531228 0.7713174397325138 0.5041864240525369
0.12986005365255718 0.9289513418404939 0.3747527371721609
0.2243145438866775 0.7765441294739402 0.3874526394926457
0.22360387208081833 0.888703421713056 0.47812164076991986
0.2767279191453123 0.7713174397325138 0.5041864240525369
0.3298600536525572 0.9289513418404939 0.3747527371721609
0.42431454388667744 0.7765441294739402 0.3874526394926457
0.4236038720808184 0.888703421713056 0.47812164076991986
0.4767279191453123 0.7713174397325138 0.5041864240525369
0.5298600536525572 0.9289513418404939 0.3747527371721609
0.6243145438866775 0.7765441294739402 0.3874526394926457
0.6236038720808184 0.888703421713056 0.47812164076991986
0.6767279191453124 0.7713174397325138 0.5041864240525369
0.7298600536525572 0.9289513418404939 0.3747527371721609
0.8243145438866775 0.7765441294739402 0.3874526394926457
0.8236038720808184 0.888703421713056 0.47812164076991986
0.8767279191453122 0.7713174397325138 0.5041864240525369
0.9298600536525572 0.9289513418404939 0.3747527371721609
0.02431454388667746 -0.023455870526059804 0.5874526394926457
0.02360387208081832 0.08870342171305606 0.6781216407699199
0.07672791914531228 -0.02868256026748622 0.704186424052537
0.12986005365255718 0.12895134184049387 0.5747527371721609
0.2243145438866775 -0.023455870526059804 0.5874526394926457
0.22360387208081833 0.08870342171305606 0.6781216407699199
0.2767279191453123 -0.02868256026748622 0.704186424052537
0.3298600536525572 0.12895134184049387 0.5747527371721609
0.42431454388667744 -0.023455870526059804 0.5874526394926457
0.4236038720808184 0.08870342171305606 0.6781216407699199
0.4767279191453123 -0.02868256026748622 0.704186424052537
0.5298600536525572 0.12895134184049387 0.5747527371721609
0.6243145438866775 -0.023455870526059804 0.5874526394926457
0.6236038720808184 0.08870342171305606 0.6781216407699199
0.6767279191453124 -0.02868256026748622 0.704186424052537
0.7298600536525572 0.12895134184049387 0.5747527371721609
0.8243145438866775 -0.023455870526059804 0.5874526394926457
0.8236038720808184 0.08870342171305606 0.6781216407699199
0.8767279191453122 -0.02868256026748622 0.704186424052537
0.9298600536525572 0.12895134184049387 0.5747527371721609
0.02431454388667746 0.17654412947394021 0.5874526394926457
0.02360387208081832 0.2887034217130561 0.6781216407699199
0.07672791914531228 0.1713174397325138 0.704186424052537
0.12986005365255718 0.3289513418404939 0.5747527371721609
0.2243145438866775 0.17654412947394021 0.5874526394926457
0.22360387208081833 0.2887034217130561 0.6781216407699199
0.2767279191453123 0.1713174397325138 0.704186424052537
0.3298600536525572 0.3289513418404939 0.5747527371721609
0.42431454388667744 0.17654412947394021 0.5874526394926457
0.4236038720808184 0.2887034217130561 0.6781216407699199
0.4767279191453123 0.1713174397325138 0.704186424052537
0.5298600536525572 0.3289513418404939 0.5747527371721609
0.6243145438866775 0.17654412947394021 0.5874526394926457
0.6236038720808184 0.2887034217130561 0.6781216407699199
0.6767279191453124 0.1713174397325138 0.704186424052537
0.7298600536525572 0.3289513418404939 0.5747527371721609
0.8243145438866775 0.17654412947394021 0.5874526394926457
0.8236038720808184 0.2887034217130561 0.6781216407699199
0.8767279191453122 0.1713174397325138 0.704186424052537
0.9298600536525572 0.3289513418404939 0.5747527371721609
0.02431454388667746 0.3765441294739402 0.5874526394926457
0.02360387208081832 0.4887034217130561 0.6781216407699199
0.07672791914531228 0.3713174397325138 0.704186424052537
0.12986005365255718 0.5289513418404939 0.5747527371721609
0.2243145438866775 0.3765441294739402 0.5874526394926457
0.22360387208081833 0.4887034217130561 0.6781216407699199
0.2767279191453123 0.3713174397325138 0.704186424052537
0.3298600536525572 0.5289513418404939 0.5747527371721609
0.42431454388667744 0.3765441294739402 0.5874526394926457
0.4236038720808184 0.4887034217130561 0.6781216407699199
0.4767279191453123 0.3713174397325138 0.704186424052537
0.5298600536525572 0.5289513418404939 0.5747527371721609
0.6243145438866775 0.3765441294739402 0.5874526394926457
0.6236038720808184 0.4887034217130561 0.6781216407699199
0.6767279191453124 0.3713174397325138 0.704186424052537
0.7298600536525572 0.5289513418404939 0.5747527371721609
0.8243145438866775 0.3765441294739402 0.5874526394926457
0.8236038720808184 0.4887034217130561 0.6781216407699199
0.8767279191453122 0.3713174397325138 0.704186424052537
0.9298600536525572 0.5289513418404939 0.5747527371721609
0.02431454388667746 0.5765441294739402 0.5874526394926457
0.02360387208081832 0.6887034217130561 0.6781216407699199
0.07672791914531228 0.5713174397325138 0.704186424052537
0.12986005365255718 0.7289513418404939 0.5747527371721609
0.2243145438866775 0.5765441294739402 0.5874526394926457
0.22360387208081833 0.6887034217130561 0.6781216407699199
0.2767279191453123 0.5713174397325138 0.704186424052537
0.3298600536525572 0.7289513418404939 0.5747527371721609
0.42431454388667744 0.5765441294739402 0.5874526394926457
0.4236038720808184 0.6887034217130561 0.6781216407699199
0.4767279191453123 0.5713174397325138 0.704186424052537
0.5298600536525572 0.7289513418404939 0.5747527371721609
0.6243145438866775 0.5765441294739402 0.5874526394926457
0.6236038720808184 0.6887034217130561 0.6781216407699199
0.6767279191453124 0.5713174397325138 0.704186424052537
0.7298600536525572 0.7289513418404939 0.5747527371721609
0.8243145438866775 0.5765441294739402 0.5874526394926457
0.8236038720808184 0.6887034217130561 0.6781216407699199
0.8767279191453122 0.5713174397325138 0.704186424052537
0.9298600536525572 0.7289513418404939 0.5747527371721609
0.02431454388667746 0.7765441294739402 0.5874526394926457
0.02360387208081832 0.888703421713056 0.6781216407699199
0.07672791914531228 0.7713174397325138 0.704186424052537
0.12986005365255718 0.9289513418404939 0.5747527371721609
0.2243145438866775 0.7765441294739402 0.5874526394926457
0.22360387208081833 0.888703421713056 0.6781216407699199
0.2767279191453123 0.7713174397325138 0.704186424052537
0.3298600536525572 0.9289513418404939 0.5747527371721609
0.42431454388667744 0.7765441294739402 0.5874526394926457
0.4236038720808184 0.888703421713056 0.6781216407699199
0.4767279191453123 0.7713174397325138 0.704186424052537
0.5298600536525572 0.9289513418404939 0.5747527371721609
0.6243145438866775 0.7765441294739402 0.5874526394926457
0.6236038720808184 0.888703421713056 0.6781216407699199
0.6767279191453124 0.7713174397325138 0.704186424052537
0.7298600536525572 0.9289513418404939 0.5747527371721609
0.8243145438866775 0.7765441294739402 0.5874526394926457
0.8236038720808184 0.888703421713056 0.6781216407699199
0.8767279191453122 0.7713174397325138 0.704186424052537
0.9298600536525572 0.9289513418404939 0.5747527371721609
0.02431454388667746 -0.023455870526059804 0.7874526394926457
0.02360387208081832 0.08870342171305606 0.8781216407699198
0.07672791914531228 -0.02868256026748622 0.9041864240525369
0.12986005365255718 0.12895134184049387 0.774752737172161
0.2243145438866775 -0.023455870526059804 0.7874526394926457
0.22360387208081833 0.08870342171305606 0.8781216407699198
0.2767279191453123 -0.02868256026748622 0.9041864240525369
0.3298600536525572 0.12895134184049387 0.774752737172161
0.42431454388667744 -0.023455870526059804 0.7874526394926457
0.4236038720808184 0.08870342171305606 0.8781216407699198
0.4767279191453123 -0.02868256026748622 0.9041864240525369
0.5298600536525572 0.12895134184049387 0.774752737172161
0.6243145438866775 -0.023455870526059804 0.7874526394926457
0.6236038720808184 0.08870342171305606 0.8781216407699198
0.6767279191453124 -0.02868256026748622 0.9041864240525369
0.7298600536525572 0.12895134184049387 0.774752737172161
0.8243145438866775 -0.023455870526059804 0.7874526394926457
0.8236038720808184 0.08870342171305606 0.8781216407699198
0.8767279191453122 -0.02868256026748622 0.9041864240525369
0.9298600536525572 0.12895134184049387 0.774752737172161
0.02431454388667746 0.17654412947394021 0.7874526394926457
0.02360387208081832 0.2887034217130561 0.8781216407699198
0.07672791914531228 0.1713174397325138 0.9041864240525369
0.12986005365255718 0.3289513418404939 0.774752737172161
0.2243145438866775 0.17654412947394021 0.7874526394926457
0.22360387208081833 0.2887034217130561 0.8781216407699198
0.2767279191453123 0.1713174397325138 0.9041864240525369
0.3298600536525572 0.3289513418404939 0.774752737172161
0.42431454388667744 0.17654412947394021 0.7874526394926457
0.4236038720808184 0.2887034217130561 0.8781216407699198
0.4767279191453123 0.1713174397325138 0.9041864240525369
0.5298600536525572 0.3289513418404939 0.774752737172161
0.6243145438866775 0.17654412947394021 0.7874526394926457
0.6236038720808184 0.2887034217130561 0.8781216407699198
0.6767279191453124 0.1713174397325138 0.9041864240525369
0.7298600536525572 0.3289513418404939 0.774752737172161
0.8243145438866775 0.17654412947394021 0.7874526394926457
0.8236038720808184 0.2887034217130561 0.8781216407699198
0.8767279191453122 0.1713174397325138 0.9041864240525369
0.9298600536525572 0.3289513418404939 0.774752737172161
0.02431454388667746 0.3765441294739402 0.7874526394926457
0.02360387208081832 0.4887034217130561 0.8781216407699198
0.07672791914531228 0.3713174397325138 0.9041864240525369
0.12986005365255718 0.5289513418404939 0.774752737172161
0.2243145438866775 0.3765441294739402 0.7874526394926457
0.22360387208081833 0.4887034217130561 0.8781216407699198
0.2767279191453123 0.3713174397325138 0.9041864240525369
0.3298600536525572 0.5289513418404939 0.774752737172161
0.42431454388667744 0.3765441294739402 0.7874526394926457
0.4236038720808184 0.4887034217130561 0.8781216407699198
0.4767279191453123 0.3713174397325138 0.9041864240525369
0.5298600536525572 0.5289513418404939 0.774752737172161
0.6243145438866775 0.3765441294739402 0.7874526394926457
0.6236038720808184 0.4887034217130561 0.8781216407699198
0.6767279191453124 0.3713174397325138 0.9041864240525369
0.7298600536525572 0.5289513418404939 0.774752737172161
0.8243145438866775 0.3765441294739402 0.7874526394926457
0.8236038720808184 0.4887034217130561 0.8781216407699198
0.8767279191453122 0.3713174397325138 0.9041864240525369
0.9298600536525572 0.5289513418404939 0.774752737172161
0.02431454388667746 0.5765441294739402 0.7874526394926457
0.02360387208081832 0.6887034217130561 0.8781216407699198
0.07672791914531228 0.5713174397325138 0.9041864240525369
0.12986005365255718 0.7289513418404939 0.774752737172161
0.2243145438866775 0.5765441294739402 0.7874526394926457
0.22360387208081833 0.6887034217130561 0.8781216407699198
0.2767279191453123 0.5713174397325138 0.9041864240525369
0.3298600536525572 0.7289513418404939 0.774752737172161
0.42431454388667744 0.5765441294739402 0.7874526394926457
0.4236038720808184 0.6887034217130561 0.8781216407699198
0.4767279191453123 0.5713174397325138 0.9041864240525369
0.5298600536525572 0.7289513418404939 0.774752737172161
0.6243145438866775 0.5765441294739402 0.7874526394926457
0.6236038720808184 0.6887034217130561 0.8781216407699198
0.6767279191453124 0.5713174397325138 0.9041864240525369
0.7298600536525572 0.7289513418404939 0.774752737172161
0.8243145438866775 0.5765441294739402 0.7874526394926457
0.8236038720808184 0.6887034217130561 0.8781216407699198
0.8767279191453122 0.5713174397325138 0.9041864240525369
0.9298600536525572 0.7289513418404939 0.774752737172161
0.02431454388667746 0.7765441294739402 0.7874526394926457
0.02360387208081832 0.888703421713056 0.8781216407699198
0.07672791914531228 0.7713174397325138 0.9041864240525369
0.12986005365255718 0.9289513418404939 0.774752737172161
0.2243145438866775 0.7765441294739402 0.7874526394926457
0.22360387208081833 0.888703421713056 0.8781216407699198
0.2767279191453123 0.7713174397325138 0.9041864240525369
0.3298600536525572 0.9289513418404939 0.774752737172161
0.42431454388667744 0.7765441294739402 0.7874526394926457
0.4236038720808184 0.888703421713056 0.8781216407699198
0.4767279191453123 0.7713174397325138 0.9041864240525369
0.5298600536525572 0.9289513418404939 0.774752737172161
0.6243145438866775 0.7765441294739402 0.7874526394926457
0.6236038720808184 0.888703421713056 0.8781216407699198
0.6767279191453124 0.7713174397325138 0.9041864240525369
0.7298600536525572 0.9289513418404939 0.774752737172161
0.8243145438866775 0.7765441294739402 0.7874526394926457
0.8236038720808184 0.888703421713056 0.8781216407699198
0.8767279191453122 0.7713174397325138 0.9041864240525369
0.9298600536525572 0.9289513418404939 0.774752737172161
0.11260468496731241 0.025525856667989195 0.022894194923644192
-0.025400109865484213 0.09797452654870689 -0.02129953781529746
0.017342752106956735 -0.004278582424746203 0.07532791777728981
0.11621543700393813 0.07442759509553006 0.10623855734334611
0.3126046849673124 0.025525856667989195 0.022894194923644192
0.1745998901345158 0.09797452654870689 -0.02129953781529746
0.21734275210695675 -0.004278582424746203 0.07532791777728981
0.31621543700393817 0.07442759509553006 0.10623855734334611
0.5126046849673124 0.025525856667989195 0.022894194923644192
0.3745998901345158 0.09797452654870689 -0.02129953781529746
0.41734275210695676 -0.004278582424746203 0.07532791777728981
0.5162154370039381 0.07442759509553006 0.10623855734334611
0.7126046849673124 0.025525856667989195 0.022894194923644192
0.5745998901345158 0.09797452654870689 -0.02129953781529746
0.6173427521069568 -0.004278582424746203 0.07532791777728981
0.7162154370039382 0.07442759509553006 0.10623855734334611
0.9126046849673124 0.025525856667989195 0.022894194923644192
0.7745998901345158 0.09797452654870689 -0.02129953781529746
0.8173427521069568 -0.004278582424746203 0.07532791777728981
0.9162154370039381 0.07442759509553006 0.10623855734334611
0.11260468496731241 0.2255258566679892 0.022894194923644192
-0.025400109865484213 0.29797452654870693 -0.02129953781529746
0.017342752106956735 0.1957214175752538 0.07532791777728981
0.11621543700393813 0.27442759509553005 0.10623855734334611
0.3126046849673124 0.2255258566679892 0.022894194923644192
0.1745998901345158 0.29797452654870693 -0.02129953781529746
0.21734275210695675 0.1957214175752538 0.07532791777728981
0.31621543700393817 0.27442759509553005 0.10623855734334611
0.5126046849673124 0.2255258566679892 0.022894194923644192
0.3745998901345158 0.29797452654870693 -0.02129953781529746
0.41734275210695676 0.1957214175752538 0.07532791777728981
0.5162154370039381 0.27442759509553005 0.10623855734334611
0.7126046849673124 0.2255258566679892 0.022894194923644192
0.5745998901345158 0.29797452654870693 -0.02129953781529746
0.6173427521069568 0.1957214175752538 0.07532791777728981
0.7162154370039382 0.27442759509553005 0.10623855734334611
0.9126046849673124 0.2255258566679892 0.022894194923644192
0.7745998901345158 0.29797452654870693 -0.02129953781529746
0.8173427521069568 0.1957214175752538 0.07532791777728981
0.9162154370039381 0.27442759509553005 0.10623855734334611
0.11260468496731241 0.4255258566679892 0.022894194923644192
-0.025400109865484213 0.49797452654870694 -0.02129953781529746
0.017342752106956735 0.3957214175752538 0.07532791777728981
0.11621543700393813 0.47442759509553006 0.10623855734334611
0.3126046849673124 0.4255258566679892 0.022894194923644192
0.1745998901345158 0.49797452654870694 -0.02129953781529746
0.21734275210695675 0.3957214175752538 0.07532791777728981
0.31621543700393817 0.47442759509553006 0.10623855734334611
0.5126046849673124 0.4255258566679892 0.022894194923644192
0.3745998901345158 0.49797452654870694 -0.02129953781529746
0.41734275210695676 0.3957214175752538 0.07532791777728981
0.5162154370039381 0.47442759509553006 0.10623855734334611
0.7126046849673124 0.4255258566679892 0.022894194923644192
0.5745998901345158 0.49797452654870694 -0.02129953781529746
0.6173427521069568 0.3957214175752538 0.07532791777728981
0.7162154370039382 0.47442759509553006 0.10623855734334611
0.9126046849673124 0.4255258566679892 0.022894194923644192
0.7745998901345158 0.49797452654870694 -0.02129953781529746
0.8173427521069568 0.3957214175752538 0.07532791777728981
0.9162154370039381 0.47442759509553006 0.10623855734334611
0.11260468496731241 0.6255258566679892 0.022894194923644192
-0.025400109865484213 0.697974526548707 -0.02129953781529746
0.017342752106956735 0.5957214175752539 0.07532791777728981
0.11621543700393813 0.6744275950955301 0.10623855734334611
0.3126046849673124 0.6255258566679892 0.022894194923644192
0.1745998901345158 0.697974526548707 -0.02129953781529746
0.21734275210695675 0.5957214175752539 0.07532791777728981
0.31621543700393817 0.6744275950955301 0.10623855734334611
0.5126046849673124 0.6255258566679892 0.022894194923644192
0.3745998901345158 0.697974526548707 -0.02129953781529746
0.41734275210695676 0.5957214175752539 0.07532791777728981
0.5162154370039381 0.6744275950955301 0.10623855734334611
0.7126046849673124 0.6255258566679892 0.022894194923644192
0.5745998901345158 0.697974526548707 -0.02129953781529746
0.6173427521069568 0.5957214175752539 0.07532791777728981
0.7162154370039382 0.6744275950955301 0.10623855734334611
0.9126046849673124 0.6255258566679892 0.022894194923644192
0.7745998901345158 0.697974526548707 -0.02129953781529746
0.8173427521069568 0.5957214175752539 0.07532791777728981
0.9162154370039381 0.6744275950955301 0.10623855734334611
0.11260468496731241 0.8255258566679893 0.022894194923644192
-0.025400109865484213 0.8979745265487069 -0.02129953781529746
0.017342752106956735 0.7957214175752538 0.07532791777728981
0.11621543700393813 0.87442759509553 0.10623855734334611
0.3126046849673124 0.8255258566679893 0.022894194923644192
0.1745998901345158 0.8979745265487069 -0.02129953781529746
0.21734275210695675 0.7957214175752538 0.07532791777728981
0.31621543700393817 0.87442759509553 0.10623855734334611
0.5126046849673124 0.8255258566679893 0.022894194923644192
0.3745998901345158 0.8979745265487069 -0.02129953781529746
0.41734275210695676 0.7957214175752538 0.07532791777728981
0.5162154370039381 0.87442759509553 0.10623855734334611
0.7126046849673124 0.8255258566679893 0.022894194923644192
0.5745998901345158 0.8979745265487069 -0.02129953781529746
0.6173427521069568 0.7957214175752538 0.07532791777728981
0.7162154370039382 0.87442759509553 0.10623855734334611
0.9126046849673124 0.8255258566679893 0.022894194923644192
0.7745998901345158 0.8979745265487069 -0.02129953781529746
0.8173427521069568 0.7957214175752538 0.07532791777728981
0.9162154370039381 0.87442759509553 0.10623855734334611
0.11260468496731241 0.025525856667989195 0.22289419492364418
-0.025400109865484213 0.09797452654870689 0.17870046218470256
0.017342752106956735 -0.004278582424746203 0.27532791777728977
0.11621543700393813 0.07442759509553006 0.30623855734334615
0.3126046849673124 0.025525856667989195 0.22289419492364418
0.1745998901345158 0.09797452654870689 0.17870046218470256
0.21734275210695675 -0.004278582424746203 0.27532791777728977
0.31621543700393817 0.07442759509553006 0.30623855734334615
0.5126046849673124 0.025525856667989195 0.22289419492364418
0.3745998901345158 0.09797452654870689 0.17870046218470256
0.41734275210695676 -0.004278582424746203 0.27532791777728977
0.5162154370039381 0.07442759509553006 0.30623855734334615
0.7126046849673124 0.025525856667989195 0.22289419492364418
0.5745998901345158 0.09797452654870689 0.17870046218470256
0.6173427521069568 -0.004278582424746203 0.27532791777728977
0.7162154370039382 0.07442759509553006 0.30623855734334615
0.9126046849673124 0.025525856667989195 0.22289419492364418
0.7745998901345158 0.09797452654870689 0.17870046218470256
0.8173427521069568 -0.004278582424746203 0.27532791777728977
0.9162154370039381 0.07442759509553006 0.30623855734334615
0.11260468496731241 0.2255258566679892 0.22289419492364418
-0.025400109865484213 0.29797452654870693 0.17870046218470256
0.017342752106956735 0.1957214175752538 0.27532791777728977
0.11621543700393813 0.27442759509553005 0.30623855734334615
0.3126046849673124 0.2255258566679892 0.22289419492364418
0.1745998901345158 0.29797452654870693 0.17870046218470256
0.21734275210695675 0.1957214175752538 0.27532791777728977
0.31621543700393817 0.27442759509553005 0.30623855734334615
0.5126046849673124 0.2255258566679892 0.22289419492364418
0.3745998901345158 0.29797452654870693 0.17870046218470256
0.41734275210695676 0.1957214175752538 0.27532791777728977
0.5162154370039381 0.27442759509553005 0.30623855734334615
0.7126046849673124 0.2255258566679892 0.22289419492364418
0.5745998901345158 0.29797452654870693 0.17870046218470256
0.6173427521069568 0.1957214175752538 0.27532791777728977
0.7162154370039382 0.27442759509553005 0.30623855734334615
0.9126046849673124 0.2255258566679892 0.22289419492364418
0.7745998901345158 0.29797452654870693 0.17870046218470256
0.8173427521069568 0.1957214175752538 0.27532791777728977
0.9162154370039381 0.27442759509553005 0.30623855734334615
0.11260468496731241 0.4255258566679892 0.22289419492364418
-0.025400109865484213 0.49797452654870694 0.17870046218470256
0.017342752106956735 0.3957214175752538 0.27532791777728977
0.11621543700393813 0.47442759509553006 0.30623855734334615
0.3126046849673124 0.4255258566679892 0.22289419492364418
0.1745998901345158 0.49797452654870694 0.17870046218470256
0.21734275210695675 0.3957214175752538 0.27532791777728977
0.31621543700393817 0.47442759509553006 0.30623855734334615
0.5126046849673124 0.4255258566679892 0.22289419492364418
0.3745998901345158 0.49797452654870694 0.17870046218470256
0.41734275210695676 0.3957214175752538 0.27532791777728977
0.5162154370039381 0.47442759509553006 0.30623855734334615
0.7126046849673124 0.4255258566679892 0.22289419492364418
0.5745998901345158 0.49797452654870694 0.17870046218470256
0.6173427521069568 0.3957214175752538 0.27532791777728977
0.7162154370039382 0.47442759509553006 0.30623855734334615
0.9126046849673124 0.4255258566679892 0.22289419492364418
0.7745998901345158 0.49797452654870694 0.17870046218470256
0.8173427521069568 0.3957214175752538 0.27532791777728977
0.9162154370039381 0.47442759509553006 0.30623855734334615
0.11260468496731241 0.6255258566679892 0.22289419492364418
-0.025400109865484213 0.697974526548707 0.17870046218470256
0.017342752106956735 0.5957214175752539 0.27532791777728977
0.11621543700393813 0.6744275950955301 0.30623855734334615
0.3126046849673124 0.6255258566679892 0.22289419492364418
0.1745998901345158 0.697974526548707 0.17870046218470256
0.21734275210695675 0.5957214175752539 0.27532791777728977
0.31621543700393817 0.6744275950955301 0.30623855734334615
0.5126046849673124 0.6255258566679892 0.22289419492364418
0.3745998901345158 0.697974526548707 0.17870046218470256
0.41734275210695676 0.5957214175752539 0.27532791777728977
0.5162154370039381 0.6744275950955301 0.30623855734334615
0.7126046849673124 0.6255258566679892 0.22289419492364418
0.5745998901345158 0.697974526548707 0.17870046218470256
0.6173427521069568 0.5957214175752539 0.27532791777728977
0.7162154370039382 0.6744275950955301 0.30623855734334615
0.9126046849673124 0.6255258566679892 0.22289419492364418
0.7745998901345158 0.697974526548707 0.17870046218470256
0.8173427521069568 0.5957214175752539 0.27532791777728977
0.9162154370039381 0.6744275950955301 0.30623855734334615
0.11260468496731241 0.8255258566679893 0.22289419492364418
-0.025400109865484213 0.8979745265487069 0.17870046218470256
0.017342752106956735 0.7957214175752538 0.27532791777728977
0.11621543700393813 0.87442759509553 0.30623855734334615
0.3126046849673124 0.8255258566679893 0.22289419492364418
0.1745998901345158 0.8979745265487069 0.17870046218470256
0.21734275210695675 0.7957214175752538 0.27532791777728977
0.31621543700393817 0.87442759509553 0.30623855734334615
0.5126046849673124 0.8255258566679893 0.22289419492364418
0.3745998901345158 0.8979745265487069 0.17870046218470256
0.41734275210695676 0.7957214175752538 0.27532791777728977
0.5162154370039381 0.87442759509553 0.30623855734334615
0.7126046849673124 0.8255258566679893 0.22289419492364418
0.5745998901345158 0.8979745265487069 0.17870046218470256
0.6173427521069568 0.7957214175752538 0.27532791777728977
0.7162154370039382 0.87442759509553 0.30623855734334615
0.9126046849673124 0.8255258566679893 0.22289419492364418
0.7745998901345158 0.8979745265487069 0.17870046218470256
0.8173427521069568 0.7957214175752538 0.27532791777728977
0.9162154370039381 0.87442759509553 0.30623855734334615
0.11260468496731241 0.025525856667989195 0.4228941949236442
-0.025400109865484213 0.09797452654870689 0.37870046218470255
0.017342752106956735 -0.004278582424746203 0.4753279177772898
0.11621543700393813 0.07442759509553006 0.5062385573433462
0.3126046849673124 0.025525856667989195 0.4228941949236442
0.1745998901345158 0.09797452654870689 0.37870046218470255
0.21734275210695675 -0.004278582424746203 0.4753279177772898
0.31621543700393817 0.07442759509553006 0.5062385573433462
0.5126046849673124 0.025525856667989195 0.4228941949236442
0.3745998901345158 0.09797452654870689 0.37870046218470255
0.41734275210695676 -0.004278582424746203 0.4753279177772898
0.5162154370039381 0.07442759509553006 0.5062385573433462
0.7126046849673124 0.025525856667989195 0.4228941949236442
0.5745998901345158 0.09797452654870689 0.37870046218470255
0.6173427521069568 -0.004278582424746203 0.4753279177772898
0.7162154370039382 0.07442759509553006 0.5062385573433462
0.9126046849673124 0.025525856667989195 0.4228941949236442
0.7745998901345158 0.09797452654870689 0.37870046218470255
0.8173427521069568 -0.004278582424746203 0.4753279177772898
0.9162154370039381 0.07442759509553006 0.5062385573433462
0.11260468496731241 0.2255258566679892 0.4228941949236442
-0.025400109865484213 0.29797452654870693 0.37870046218470255
0.017342752106956735 0.1957214175752538 0.4753279177772898
0.11621543700393813 0.27442759509553005 0.5062385573433462
0.3126046849673124 0.2255258566679892 0.4228941949236442
0.1745998901345158 0.29797452654870693 0.37870046218470255
0.21734275210695675 0.1957214175752538 0.4753279177772898
0.31621543700393817 0.27442759509553005 0.5062385573433462
0.5126046849673124 0.2255258566679892 0.4228941949236442
0.3745998901345158 0.29797452654870693 0.37870046218470255
0.41734275210695676 0.1957214175752538 0.4753279177772898
0.5162154370039381 0.27442759509553005 0.5062385573433462
0.7126046849673124 0.2255258566679892 0.4228941949236442
0.5745998901345158 0.29797452654870693 0.37870046218470255
0.6173427521069568 0.1957214175752538 0.4753279177772898
0.7162154370039382 0.27442759509553005 0.5062385573433462
0.9126046849673124 0.2255258566679892 0.4228941949236442
0.7745998901345158 0.29797452654870693 0.37870046218470255
0.8173427521069568 0.1957214175752538 0.4753279177772898
0.9162154370039381 0.27442759509553005 0.5062385573433462
0.11260468496731241 0.4255258566679892 0.4228941949236442
-0.025400109865484213 0.49797452654870694 0.37870046218470255
0.017342752106956735 0.3957214175752538 0.4753279177772898
0.11621543700393813 0.47442759509553006 0.5062385573433462
0.3126046849673124 0.4255258566679892 0.4228941949236442
0.1745998901345158 0.49797452654870694 0.37870046218470255
0.21734275210695675 0.3957214175752538 0.4753279177772898
0.31621543700393817 0.47442759509553006 0.5062385573433462
0.5126046849673124 0.4255258566679892 0.4228941949236442
0.3745998901345158 0.49797452654870694 0.37870046218470255
0.41734275210695676 0.3957214175752538 0.4753279177772898
0.5162154370039381 0.47442759509553006 0.5062385573433462
0.7126046849673124 0.4255258566679892 0.4228941949236442
0.5745998901345158 0.49797452654870694 0.37870046218470255
0.6173427521069568 0.3957214175752538 0.4753279177772898
0.7162154370039382 0.47442759509553006 0.5062385573433462
0.9126046849673124 0.4255258566679892 0.4228941949236442
0.7745998901345158 0.49797452654870694 0.37870046218470255
0.8173427521069568 0.3957214175752538 0.4753279177772898
0.9162154370039381 0.47442759509553006 0.5062385573433462
0.11260468496731241 0.6255258566679892 0.4228941949236442
-0.025400109865484213 0.697974526548707 0.37870046218470255
0.017342752106956735 0.5957214175752539 0.4753279177772898
0.11621543700393813 0.6744275950955301 0.5062385573433462
0.3126046849673124 0.6255258566679892 0.4228941949236442
0.1745998901345158 0.697974526548707 0.37870046218470255
0.21734275210695675 0.5957214175752539 0.4753279177772898
0.31621543700393817 0.6744275950955301 0.5062385573433462
0.5126046849673124 0.6255258566679892 0.4228941949236442
0.3745998901345158 0.697974526548707 0.37870046218470255
0.41734275210695676 0.5957214175752539 0.4753279177772898
0.5162154370039381 0.6744275950955301 0.5062385573433462
0.7126046849673124 0.6255258566679892 0.4228941949236442
0.5745998901345158 0.697974526548707 0.37870046218470255
0.6173427521069568 0.5957214175752539 0.4753279177772898
0.7162154370039382 0.6744275950955301 0.5062385573433462
0.9126046849673124 0.6255258566679892 0.4228941949236442
0.7745998901345158 0.697974526548707 0.37870046218470255
0.8173427521069568 0.5957214175752539 0.4753279177772898
0.9162154370039381 0.6744275950955301 0.5062385573433462
0.11260468496731241 0.8255258566679893 0.4228941949236442
-0.025400109865484213 0.8979745265487069 0.37870046218470255
0.017342752106956735 0.7957214175752538 0.4753279177772898
0.11621543700393813 0.87442759509553 0.5062385573433462
0.3126046849673124 0.8255258566679893 0.4228941949236442
0.1745998901345158 0.8979745265487069 0.37870046218470255
0.21734275210695675 0.7957214175752538 0.4753279177772898
0.31621543700393817 0.87442759509553 0.5062385573433462
0.5126046849673124 0.8255258566679893 0.4228941949236442
0.3745998901345158 0.8979745265487069 0.37870046218470255
0.41734275210695676 0.7957214175752538 0.4753279177772898
0.5162154370039381 0.87442759509553 0.5062385573433462
0.7126046849673124 0.8255258566679893 0.4228941949236442
0.5745998901345158 0.8979745265487069 0.37870046218470255
0.6173427521069568 0.7957214175752538 0.4753279177772898
0.7162154370039382 0.87442759509553 0.5062385573433462
0.9126046849673124 0.8255258566679893 0.4228941949236442
0.7745998901345158 0.8979745265487069 0.37870046218470255
0.8173427521069568 0.7957214175752538 0.4753279177772898
0.9162154370039381 0.87442759509553 0.5062385573433462
0.11260468496731241 0.025525856667989195 0.6228941949236443
-0.025400109865484213 0.09797452654870689 0.5787004621847025
0.017342752106956735 -0.004278582424746203 0.6753279177772898
0.11621543700393813 0.07442759509553006 0.7062385573433462
0.3126046849673124 0.025525856667989195 0.6228941949236443
0.1745998901345158 0.09797452654870689 0.5787004621847025
0.21734275210695675 -0.004278582424746203 0.6753279177772898
0.31621543700393817 0.07442759509553006 0.7062385573433462
0.5126046849673124 0.025525856667989195 0.6228941949236443
0.3745998901345158 0.09797452654870689 0.5787004621847025
0.41734275210695676 -0.004278582424746203 0.6753279177772898
0.5162154370039381 0.07442759509553006 0.7062385573433462
0.7126046849673124 0.025525856667989195 0.6228941949236443
0.5745998901345158 0.09797452654870689 0.5787004621847025
0.6173427521069568 -0.004278582424746203 0.6753279177772898
0.7162154370039382 0.07442759509553006 0.7062385573433462
0.9126046849673124 0.025525856667989195 0.6228941949236443
0.7745998901345158 0.09797452654870689 0.5787004621847025
0.8173427521069568 -0.004278582424746203 0.6753279177772898
0.9162154370039381 0.07442759509553006 0.7062385573433462
0.11260468496731241 0.2255258566679892 0.6228941949236443
-0.025400109865484213 0.29797452654870693 0.5787004621847025
0.017342752106956735 0.1957214175752538 0.6753279177772898
0.11621543700393813 0.27442759509553005 0.7062385573433462
0.3126046849673124 0.2255258566679892 0.6228941949236443
0.1745998901345158 0.29797452654870693 0.5787004621847025
0.21734275210695675 0.1957214175752538 0.6753279177772898
0.31621543700393817 0.27442759509553005 0.7062385573433462
0.5126046849673124 0.2255258566679892 0.6228941949236443
0.3745998901345158 0.29797452654870693 0.5787004621847025
0.41734275210695676 0.1957214175752538 0.6753279177772898
0.5162154370039381 0.27442759509553005 0.7062385573433462
0.7126046849673124 0.2255258566679892 0.6228941949236443
0.5745998901345158 0.29797452654870693 0.5787004621847025
0.6173427521069568 0.1957214175752538 0.6753279177772898
0.7162154370039382 0.27442759509553005 0.7062385573433462
0.9126046849673124 0.2255258566679892 0.6228941949236443
0.7745998901345158 0.29797452654870693 0.5787004621847025
0.8173427521069568 0.1957214175752538 0.6753279177772898
0.9162154370039381 0.27442759509553005 0.7062385573433462
0.11260468496731241 0.4255258566679892 0.6228941949236443
-0.025400109865484213 0.49797452654870694 0.5787004621847025
0.017342752106956735 0.3957214175752538 0.6753279177772898
0.11621543700393813 0.47442759509553006 0.7062385573433462
0.3126046849673124 0.4255258566679892 0.6228941949236443
0.1745998901345158 0.49797452654870694 0.5787004621847025
0.21734275210695675 0.3957214175752538 0.6753279177772898
0.31621543700393817 0.47442759509553006 0.7062385573433462
0.5126046849673124 0.4255258566679892 0.6228941949236443
0.3745998901345158 0.49797452654870694 0.5787004621847025
0.41734275210695676 0.3957214175752538 0.6753279177772898
0.5162154370039381 0.47442759509553006 0.7062385573433462
0.7126046849673124 0.4255258566679892 0.6228941949236443
0.5745998901345158 0.49797452654870694 0.5787004621847025
0.6173427521069568 0.3957214175752538 0.6753279177772898
0.7162154370039382 0.47442759509553006 0.7062385573433462
0.9126046849673124 0.4255258566679892 0.6228941949236443
0.7745998901345158 0.49797452654870694 0.5787004621847025
0.8173427521069568 0.3957214175752538 0.6753279177772898
0.9162154370039381 0.47442759509553006 0.7062385573433462
0.11260468496731241 0.6255258566679892 0.6228941949236443
-0.025400109865484213 0.697974526548707 0.5787004621847025
0.017342752106956735 0.5957214175752539 0.6753279177772898
0.11621543700393813 0.6744275950955301 0.7062385573433462
0.3126046849673124 0.6255258566679892 0.6228941949236443
0.1745998901345158 0.697974526548707 0.5787004621847025
0.21734275210695675 0.5957214175752539 0.6753279177772898
0.31621543700393817 0.6744275950955301 0.7062385573433462
0.5126046849673124 0.6255258566679892 0.6228941949236443
0.3745998901345158 0.697974526548707 0.5787004621847025
0.41734275210695676 0.5957214175752539 0.6753279177772898
0.5162154370039381 0.6744275950955301 0.7062385573433462
0.7126046849673124 0.6255258566679892 0.6228941949236443
0.5745998901345158 0.697974526548707 0.5787004621847025
0.6173427521069568 0.5957214175752539 0.6753279177772898
0.7162154370039382 0.6744275950955301 0.7062385573433462
0.9126046849673124 0.6255258566679892 0.6228941949236443
0.7745998901345158 0.697974526548707 0.5787004621847025
0.8173427521069568 0.5957214175752539 0.6753279177772898
0.9162154370039381 0.6744275950955301 0.7062385573433462
0.11260468496731241 0.8255258566679893 0.6228941949236443
-0.025400109865484213 0.8979745265487069 0.5787004621847025
0.017342752106956735 0.7957214175752538 0.6753279177772898
0.11621543700393813 0.87442759509553 0.7062385573433462
0.3126046849673124 0.8255258566679893 0.6228941949236443
0.1745998901345158 0.8979745265487069 0.5787004621847025
0.21734275210695675 0.7957214175752538 0.6753279177772898
0.31621543700393817 0.87442759509553 0.7062385573433462
0.5126046849673124 0.8255258566679893 0.6228941949236443
0.3745998901345158 0.8979745265487069 0.5787004621847025
0.41734275210695676 0.7957214175752538 0.6753279177772898
0.5162154370039381 0.87442759509553 0.7062385573433462
0.7126046849673124 0.8255258566679893 0.6228941949236443
0.5745998901345158 0.8979745265487069 0.5787004621847025
0.6173427521069568 0.7957214175752538 0.6753279177772898
0.7162154370039382 0.87442759509553 0.7062385573433462
0.9126046849673124 0.8255258566679893 0.6228941949236443
0.7745998901345158 0.8979745265487069 0.5787004621847025
0.8173427521069568 0.7957214175752538 0.6753279177772898
0.9162154370039381 0.87442759509553 0.7062385573433462
0.11260468496731241 0.025525856667989195 0.8228941949236441
-0.025400109865484213 0.09797452654870689 0.7787004621847026
0.017342752106956735 -0.004278582424746203 0.8753279177772898
0.11621543700393813 0.07442759509553006 0.9062385573433462
0.3126046849673124 0.025525856667989195 0.8228941949236441
0.1745998901345158 0.09797452654870689 0.7787004621847026
0.21734275210695675 -0.004278582424746203 0.8753279177772898
0.31621543700393817 0.07442759509553006 0.9062385573433462
0.5126046849673124 0.025525856667989195 0.8228941949236441
0.3745998901345158 0.09797452654870689 0.7787004621847026
0.41734275210695676 -0.004278582424746203 0.8753279177772898
0.5162154370039381 0.07442759509553006 0.9062385573433462
0.7126046849673124 0.025525856667989195 0.8228941949236441
0.5745998901345158 0.09797452654870689 0.7787004621847026
0.6173427521069568 -0.004278582424746203 0.8753279177772898
0.7162154370039382 0.07442759509553006 0.9062385573433462
0.9126046849673124 0.025525856667989195 0.8228941949236441
0.7745998901345158 0.09797452654870689 0.7787004621847026
0.8173427521069568 -0.004278582424746203 0.8753279177772898
0.9162154370039381 0.07442759509553006 0.9062385573433462
0.11260468496731241 0.2255258566679892 0.8228941949236441
-0.025400109865484213 0.29797452654870693 0.7787004621847026
0.017342752106956735 0.1957214175752538 0.8753279177772898
0.11621543700393813 0.27442759509553005 0.9062385573433462
0.3126046849673124 0.2255258566679892 0.8228941949236441
0.1745998901345158 0.29797452654870693 0.7787004621847026
0.21734275210695675 0.1957214175752538 0.8753279177772898
0.31621543700393817 0.27442759509553005 0.9062385573433462
0.5126046849673124 0.2255258566679892 0.8228941949236441
0.3745998901345158 0.29797452654870693 0.7787004621847026
0.41734275210695676 0.1957214175752538 0.8753279177772898
0.5162154370039381 0.27442759509553005 0.9062385573433462
0.7126046849673124 0.2255258566679892 0.8228941949236441
0.5745998901345158 0.29797452654870693 0.7787004621847026
0.6173427521069568 0.1957214175752538 0.8753279177772898
0.7162154370039382 0.27442759509553005 0.9062385573433462
0.9126046849673124 0.2255258566679892 0.8228941949236441
0.7745998901345158 0.29797452654870693 0.7787004621847026
0.8173427521069568 0.1957214175752538 0.8753279177772898
0.9162154370039381 0.27442759509553005 0.9062385573433462
0.11260468496731241 0.4255258566679892 0.8228941949236441
-0.025400109865484213 0.49797452654870694 0.7787004621847026
0.017342752106956735 0.3957214175752538 0.8753279177772898
0.11621543700393813 0.47442759509553006 0.9062385573433462
0.3126046849673124 0.4255258566679892 0.8228941949236441
0.1745998901345158 0.49797452654870694 0.7787004621847026
0.21734275210695675 0.3957214175752538 0.8753279177772898
0.31621543700393817 0.47442759509553006 0.9062385573433462
0.5126046849673124 0.4255258566679892 0.8228941949236441
0.3745998901345158 0.49797452654870694 0.7787004621847026
0.41734275210695676 0.3957214175752538 0.8753279177772898
0.5162154370039381 0.47442759509553006 0.9062385573433462
0.7126046849673124 0.4255258566679892 0.8228941949236441
0.5745998901345158 0.49797452654870694 0.7787004621847026
0.6173427521069568 0.3957214175752538 0.8753279177772898
0.7162154370039382 0.47442759509553006 0.9062385573433462
0.9126046849673124 0.4255258566679892 0.8228941949236441
0.7745998901345158 0.49797452654870694 0.7787004621847026
0.8173427521069568 0.3957214175752538 0.8753279177772898
0.9162154370039381 0.47442759509553006 0.9062385573433462
0.11260468496731241 0.6255258566679892 0.8228941949236441
-0.025400109865484213 0.697974526548707 0.7787004621847026
0.017342752106956735 0.5957214175752539 0.8753279177772898
0.11621543700393813 0.6744275950955301 0.9062385573433462
0.3126046849673124 0.6255258566679892 0.8228941949236441
0.1745998901345158 0.697974526548707 0.7787004621847026
0.21734275210695675 0.5957214175752539 0.8753279177772898
0.31621543700393817 0.6744275950955301 0.9062385573433462
0.5126046849673124 0.6255258566679892 0.8228941949236441
0.3745998901345158 0.697974526548707 0.7787004621847026
0.41734275210695676 0.5957214175752539 0.8753279177772898
0.5162154370039381 0.6744275950955301 0.9062385573433462
0.7126046849673124 0.6255258566679892 0.8228941949236441
0.5745998901345158 0.697974526548707 0.7787004621847026
0.6173427521069568 0.5957214175752539 0.8753279177772898
0.7162154370039382 0.6744275950955301 0.9062385573433462
0.9126046849673124 0.6255258566679892 0.8228941949236441
0.7745998901345158 0.697974526548707 0.7787004621847026
0.8173427521069568 0.5957214175752539 0.8753279177772898
0.9162154370039381 0.6744275950955301 0.9062385573433462
0.11260468496731241 0.8255258566679893 0.8228941949236441
-0.025400109865484213 0.8979745265487069 0.7787004621847026
0.017342752106956735 0.7957214175752538 0.8753279177772898
0.11621543700393813 0.87442759509553 0.9062385573433462
0.3126046849673124 0.8255258566679893 0.8228941949236441
0.1745998901345158 0.8979745265487069 0.7787004621847026
0.21734275210695675 0.7957214175752538 0.8753279177772898
0.31621543700393817 0.87442759509553 0.9062385573433462
0.5126046849673124 0.8255258566679893 0.8228941949236441
0.3745998901345158 0.8979745265487069 0.7787004621847026
0.41734275210695676 0.7957214175752538 0.8753279177772898
0.5162154370039381 0.87442759509553 0.9062385573433462
0.7126046849673124 0.8255258566679893 0.8228941949236441
0.5745998901345158 0.8979745265487069 0.7787004621847026
0.6173427521069568 0.7957214175752538 0.8753279177772898
0.7162154370039382 0.87442759509553 0.9062385573433462
0.9126046849673124 0.8255258566679893 0.8228941949236441
0.7745998901345158 0.8979745265487069 0.7787004621847026
0.8173427521069568 0.7957214175752538 0.8753279177772898
0.9162154370039381 0.87442759509553 0.9062385573433462
