FCC BaO
5.61604
3.071837850560609 0.6604451378705309 0.0
0.6604451378705309 3.071837850560609 0.0
0.0 0.0 3.0
Ba O 
108 108 
Direct
0.0 0.0 0.0
0.0 0.16666666666666666 0.16666666666666666
0.16666666666666666 0.0 0.16666666666666666
0.16666666666666666 0.16666666666666666 0.0
0.3333333333333333 0.0 0.0
0.3333333333333333 0.16666666666666666 0.16666666666666666
0.5 0.0 0.16666666666666666
0.5 0.16666666666666666 0.0
0.6666666666666666 0.0 0.0
0.6666666666666666 0.16666666666666666 0.16666666666666666
0.8333333333333333 0.0 0.16666666666666666
0.8333333333333333 0.16666666666666666 0.0
0.0 0.3333333333333333 0.0
0.0 0.5 0.16666666666666666
0.16666666666666666 0.3333333333333333 0.16666666666666666
0.16666666666666666 0.5 0.0
0.3333333333333333 0.3333333333333333 0.0
0.3333333333333333 0.5 0.16666666666666666
0.5 0.3333333333333333 0.16666666666666666
0.5 0.5 0.0
0.6666666666666666 0.3333333333333333 0.0
0.6666666666666666 0.5 0.16666666666666666
0.8333333333333333 0.3333333333333333 0.16666666666666666
0.8333333333333333 0.5 0.0
0.0 0.6666666666666666 0.0
0.0 0.8333333333333333 0.16666666666666666
0.16666666666666666 0.6666666666666666 0.16666666666666666
0.16666666666666666 0.8333333333333333 0.0
0.3333333333333333 0.6666666666666666 0.0
0.3333333333333333 0.8333333333333333 0.16666666666666666
0.5 0.6666666666666666 0.16666666666666666
0.5 0.8333333333333333 0.0
0.6666666666666666 0.6666666666666666 0.0
0.6666666666666666 0.8333333333333333 0.16666666666666666
0.8333333333333333 0.6666666666666666 0.16666666666666666
0.8333333333333333 0.8333333333333333 0.0
0.0 0.0 0.3333333333333333
0.0 0.16666666666666666 0.5
0.16666666666666666 0.0 0.5
0.16666666666666666 0.16666666666666666 0.3333333333333333
0.3333333333333333 0.0 0.3333333333333333
0.3333333333333333 0.16666666666666666 0.5
0.5 0.0 0.5
0.5 0.16666666666666666 0.3333333333333333
0.6666666666666666 0.0 0.3333333333333333
0.6666666666666666 0.16666666666666666 0.5
0.8333333333333333 0.0 0.5
0.8333333333333333 0.16666666666666666 0.3333333333333333
0.0 0.3333333333333333 0.3333333333333333
0.0 0.5 0.5
0.16666666666666666 0.3333333333333333 0.5
0.16666666666666666 0.5 0.3333333333333333
0.3333333333333333 0.3333333333333333 0.3333333333333333
0.3333333333333333 0.5 0.5
0.5 0.3333333333333333 0.5
0.5 0.5 0.3333333333333333
0.6666666666666666 0.3333333333333333 0.3333333333333333
0.6666666666666666 0.5 0.5
0.8333333333333333 0.3333333333333333 0.5
0.8333333333333333 0.5 0.3333333333333333
0.0 0.6666666666666666 0.3333333333333333
0.0 0.8333333333333333 0.5
0.16666666666666666 0.6666666666666666 0.5
0.16666666666666666 0.8333333333333333 0.3333333333333333
0.3333333333333333 0.6666666666666666 0.3333333333333333
0.3333333333333333 0.8333333333333333 0.5
0.5 0.6666666666666666 0.5
0.5 0.8333333333333333 0.3333333333333333
0.6666666666666666 0.6666666666666666 0.3333333333333333
0.6666666666666666 0.8333333333333333 0.5
0.8333333333333333 0.6666666666666666 0.5
0.8333333333333333 0.8333333333333333 0.3333333333333333
0.0 0.0 0.6666666666666666
0.0 0.16666666666666666 0.8333333333333333
0.16666666666666666 0.0 0.8333333333333333
0.16666666666666666 0.16666666666666666 0.6666666666666666
0.3333333333333333 0.0 0.6666666666666666
0.3333333333333333 0.16666666666666666 0.8333333333333333
0.5 0.0 0.8333333333333333
0.5 0.16666666666666666 0.6666666666666666
0.6666666666666666 0.0 0.6666666666666666
0.6666666666666666 0.16666666666666666 0.8333333333333333
0.8333333333333333 0.0 0.8333333333333333
0.8333333333333333 0.16666666666666666 0.6666666666666666
0.0 0.3333333333333333 0.6666666666666666
0.0 0.5 0.8333333333333333
0.16666666666666666 0.3333333333333333 0.8333333333333333
0.16666666666666666 0.5 0.6666666666666666
0.3333333333333333 0.3333333333333333 0.6666666666666666
0.3333333333333333 0.5 0.8333333333333333
0.5 0.3333333333333333 0.8333333333333333
0.5 0.5 0.6666666666666666
0.6666666666666666 0.3333333333333333 0.6666666666666666
0.6666666666666666 0.5 0.8333333333333333
0.8333333333333333 0.3333333333333333 0.8333333333333333
0.8333333333333333 0.5 0.6666666666666666
0.0 0.6666666666666666 0.6666666666666666
0.0 0.8333333333333333 0.8333333333333333
0.16666666666666666 0.6666666666666666 0.8333333333333333
0.16666666666666666 0.8333333333333333 0.6666666666666666
0.3333333333333333 0.6666666666666666 0.6666666666666666
0.3333333333333333 0.8333333333333333 0.8333333333333333
0.5 0.6666666666666666 0.8333333333333333
0.5 0.8333333333333333 0.6666666666666666
0.6666666666666666 0.6666666666666666 0.6666666666666666
0.6666666666666666 0.8333333333333333 0.8333333333333333
0.8333333333333333 0.6666666666666666 0.8333333333333333
0.8333333333333333 0.8333333333333333 0.6666666666666666
0.16666666666666666 0.0 0.0
0.0 0.16666666666666666 0.0
0.0 0.0 0.16666666666666666
0.16666666666666666 0.16666666666666666 0.16666666666666666
0.5 0.0 0.0
0.3333333333333333 0.16666666666666666 0.0
0.3333333333333333 0.0 0.16666666666666666
0.5 0.16666666666666666 0.16666666666666666
0.8333333333333333 0.0 0.0
0.6666666666666666 0.16666666666666666 0.0
0.6666666666666666 0.0 0.16666666666666666
0.8333333333333333 0.16666666666666666 0.16666666666666666
0.16666666666666666 0.3333333333333333 0.0
0.0 0.5 0.0
0.0 0.3333333333333333 0.16666666666666666
0.16666666666666666 0.5 0.16666666666666666
0.5 0.3333333333333333 0.0
0.3333333333333333 0.5 0.0
0.3333333333333333 0.3333333333333333 0.16666666666666666
0.5 0.5 0.16666666666666666
0.8333333333333333 0.3333333333333333 0.0
0.6666666666666666 0.5 0.0
0.6666666666666666 0.3333333333333333 0.16666666666666666
0.8333333333333333 0.5 0.16666666666666666
0.16666666666666666 0.6666666666666666 0.0
0.0 0.8333333333333333 0.0
0.0 0.6666666666666666 0.16666666666666666
0.16666666666666666 0.8333333333333333 0.16666666666666666
0.5 0.6666666666666666 0.0
0.3333333333333333 0.8333333333333333 0.0
0.3333333333333333 0.6666666666666666 0.16666666666666666
0.5 0.8333333333333333 0.16666666666666666
0.8333333333333333 0.6666666666666666 0.0
0.6666666666666666 0.8333333333333333 0.0
0.6666666666666666 0.6666666666666666 0.16666666666666666
0.8333333333333333 0.8333333333333333 0.16666666666666666
0.16666666666666666 0.0 0.3333333333333333
0.0 0.16666666666666666 0.3333333333333333
0.0 0.0 0.5
0.16666666666666666 0.16666666666666666 0.5
0.5 0.0 0.3333333333333333
0.3333333333333333 0.16666666666666666 0.3333333333333333
0.3333333333333333 0.0 0.5
0.5 0.16666666666666666 0.5
0.8333333333333333 0.0 0.3333333333333333
0.6666666666666666 0.16666666666666666 0.3333333333333333
0.6666666666666666 0.0 0.5
0.8333333333333333 0.16666666666666666 0.5
0.16666666666666666 0.3333333333333333 0.3333333333333333
0.0 0.5 0.3333333333333333
0.0 0.3333333333333333 0.5
0.16666666666666666 0.5 0.5
0.5 0.3333333333333333 0.3333333333333333
0.3333333333333333 0.5 0.3333333333333333
0.3333333333333333 0.3333333333333333 0.5
0.5 0.5 0.5
0.8333333333333333 0.3333333333333333 0.3333333333333333
0.6666666666666666 0.5 0.3333333333333333
0.6666666666666666 0.3333333333333333 0.5
0.8333333333333333 0.5 0.5
0.16666666666666666 0.6666666666666666 0.3333333333333333
0.0 0.8333333333333333 0.3333333333333333
0.0 0.6666666666666666 0.5
0.16666666666666666 0.8333333333333333 0.5
0.5 0.6666666666666666 0.3333333333333333
0.3333333333333333 0.8333333333333333 0.3333333333333333
0.3333333333333333 0.6666666666666666 0.5
0.5 0.8333333333333333 0.5
0.8333333333333333 0.6666666666666666 0.3333333333333333
0.6666666666666666 0.8333333333333333 0.3333333333333333
0.6666666666666666 0.6666666666666666 0.5
0.8333333333333333 0.8333333333333333 0.5
0.16666666666666666 0.0 0.6666666666666666
0.0 0.16666666666666666 0.6666666666666666
0.0 0.0 0.8333333333333333
0.16666666666666666 0.16666666666666666 0.8333333333333333
0.5 0.0 0.6666666666666666
0.3333333333333333 0.16666666666666666 0.6666666666666666
0.3333333333333333 0.0 0.8333333333333333
0.5 0.16666666666666666 0.8333333333333333
0.8333333333333333 0.0 0.6666666666666666
0.6666666666666666 0.16666666666666666 0.6666666666666666
0.6666666666666666 0.0 0.8333333333333333
0.8333333333333333 0.16666666666666666 0.8333333333333333
0.16666666666666666 0.3333333333333333 0.6666666666666666
0.0 0.5 0.6666666666666666
0.0 0.3333333333333333 0.8333333333333333
0.16666666666666666 0.5 0.8333333333333333
0.5 0.3333333333333333 0.6666666666666666
0.3333333333333333 0.5 0.6666666666666666
0.3333333333333333 0.3333333333333333 0.8333333333333333
0.5 0.5 0.8333333333333333
0.8333333333333333 0.3333333333333333 0.6666666666666666
0.6666666666666666 0.5 0.6666666666666666
0.6666666666666666 0.3333333333333333 0.8333333333333333
0.8333333333333333 0.5 0.8333333333333333
0.16666666666666666 0.6666666666666666 0.6666666666666666
0.0 0.8333333333333333 0.6666666666666666
0.0 0.6666666666666666 0.8333333333333333
0.16666666666666666 0.8333333333333333 0.8333333333333333
0.5 0.6666666666666666 0.6666666666666666
0.3333333333333333 0.8333333333333333 0.6666666666666666
0.3333333333333333 0.6666666666666666 0.8333333333333333
0.5 0.8333333333333333 0.8333333333333333
0.8333333333333333 0.6666666666666666 0.6666666666666666
0.6666666666666666 0.8333333333333333 0.6666666666666666
0.6666666666666666 0.6666666666666666 0.8333333333333333
0.8333333333333333 0.8333333333333333 0.8333333333333333
