FCC BaO
3.971
5.0 0.0 0.0
0.0 5.0 0.0
0.0 0.0 5.0
Ba O 
500 500 
Direct
0.0049853148339626275 0.0016098115439531482 0.003988696799899624
-0.0001561869043489106 0.11390773178646237 0.12852934939236504
0.11597587265953922 -0.005307559237401279 0.12203551559161137
0.10257976870925307 0.12635449537138807 0.027762422686326116
0.20498531483396262 0.0016098115439531482 0.003988696799899624
0.1998438130956511 0.11390773178646237 0.12852934939236504
0.3159758726595392 -0.005307559237401279 0.12203551559161137
0.30257976870925307 0.12635449537138807 0.027762422686326116
0.40498531483396266 0.0016098115439531482 0.003988696799899624
0.3998438130956511 0.11390773178646237 0.12852934939236504
0.5159758726595393 -0.005307559237401279 0.12203551559161137
0.5025797687092531 0.12635449537138807 0.027762422686326116
0.6049853148339627 0.0016098115439531482 0.003988696799899624
0.599843813095651 0.11390773178646237 0.12852934939236504
0.7159758726595392 -0.005307559237401279 0.12203551559161137
0.7025797687092532 0.12635449537138807 0.027762422686326116
0.8049853148339626 0.0016098115439531482 0.003988696799899624
0.7998438130956511 0.11390773178646237 0.12852934939236504
0.9159758726595393 -0.005307559237401279 0.12203551559161137
0.9025797687092532 0.12635449537138807 0.027762422686326116
0.0049853148339626275 0.2016098115439532 0.003988696799899624
-0.0001561869043489106 0.3139077317864624 0.12852934939236504
0.11597587265953922 0.19469244076259873 0.12203551559161137
0.10257976870925307 0.3263544953713881 0.027762422686326116
0.20498531483396262 0.2016098115439532 0.003988696799899624
0.1998438130956511 0.3139077317864624 0.12852934939236504
0.3159758726595392 0.19469244076259873 0.12203551559161137
0.30257976870925307 0.3263544953713881 0.027762422686326116
0.40498531483396266 0.2016098115439532 0.003988696799899624
0.3998438130956511 0.3139077317864624 0.12852934939236504
0.5159758726595393 0.19469244076259873 0.12203551559161137
0.5025797687092531 0.3263544953713881 0.027762422686326116
0.6049853148339627 0.2016098115439532 0.003988696799899624
0.599843813095651 0.3139077317864624 0.12852934939236504
0.7159758726595392 0.19469244076259873 0.12203551559161137
0.7025797687092532 0.3263544953713881 0.027762422686326116
0.8049853148339626 0.2016098115439532 0.003988696799899624
0.7998438130956511 0.3139077317864624 0.12852934939236504
0.9159758726595393 0.19469244076259873 0.12203551559161137
0.9025797687092532 0.3263544953713881 0.027762422686326116
0.0049853148339626275 0.40160981154395314 0.003988696799899624
-0.0001561869043489106 0.5139077317864624 0.12852934939236504
0.11597587265953922 0.39469244076259874 0.12203551559161137
0.10257976870925307 0.5263544953713881 0.027762422686326116
0.20498531483396262 0.40160981154395314 0.003988696799899624
0.1998438130956511 0.5139077317864624 0.12852934939236504
0.3159758726595392 0.39469244076259874 0.12203551559161137
0.30257976870925307 0.5263544953713881 0.027762422686326116
0.40498531483396266 0.40160981154395314 0.003988696799899624
0.3998438130956511 0.5139077317864624 0.12852934939236504
0.5159758726595393 0.39469244076259874 0.12203551559161137
0.5025797687092531 0.5263544953713881 0.027762422686326116
0.6049853148339627 0.40160981154395314 0.003988696799899624
0.599843813095651 0.5139077317864624 0.12852934939236504
0.7159758726595392 0.39469244076259874 0.12203551559161137
0.7025797687092532 0.5263544953713881 0.027762422686326116
0.8049853148339626 0.40160981154395314 0.003988696799899624
0.7998438130956511 0.5139077317864624 0.12852934939236504
0.9159758726595393 0.39469244076259874 0.12203551559161137
0.9025797687092532 0.5263544953713881 0.027762422686326116
0.0049853148339626275 0.6016098115439532 0.003988696799899624
-0.0001561869043489106 0.7139077317864624 0.12852934939236504
0.11597587265953922 0.5946924407625988 0.12203551559161137
0.10257976870925307 0.7263544953713881 0.027762422686326116
0.20498531483396262 0.6016098115439532 0.003988696799899624
0.1998438130956511 0.7139077317864624 0.12852934939236504
0.3159758726595392 0.5946924407625988 0.12203551559161137
0.30257976870925307 0.7263544953713881 0.027762422686326116
0.40498531483396266 0.6016098115439532 0.003988696799899624
0.3998438130956511 0.7139077317864624 0.12852934939236504
0.5159758726595393 0.5946924407625988 0.12203551559161137
0.5025797687092531 0.7263544953713881 0.027762422686326116
0.6049853148339627 0.6016098115439532 0.003988696799899624
0.599843813095651 0.7139077317864624 0.12852934939236504
0.7159758726595392 0.5946924407625988 0.12203551559161137
0.7025797687092532 0.7263544953713881 0.027762422686326116
0.8049853148339626 0.6016098115439532 0.003988696799899624
0.7998438130956511 0.7139077317864624 0.12852934939236504
0.9159758726595393 0.5946924407625988 0.12203551559161137
0.9025797687092532 0.7263544953713881 0.027762422686326116
0.0049853148339626275 0.8016098115439532 0.003988696799899624
-0.0001561869043489106 0.9139077317864625 0.12852934939236504
0.11597587265953922 0.7946924407625988 0.12203551559161137
0.10257976870925307 0.9263544953713881 0.027762422686326116
0.20498531483396262 0.8016098115439532 0.003988696799899624
0.1998438130956511 0.9139077317864625 0.12852934939236504
0.3159758726595392 0.7946924407625988 0.12203551559161137
0.30257976870925307 0.9263544953713881 0.027762422686326116
0.40498531483396266 0.8016098115439532 0.003988696799899624
0.3998438130956511 0.9139077317864625 0.12852934939236504
0.5159758726595393 0.7946924407625988 0.12203551559161137
0.5025797687092531 0.9263544953713881 0.027762422686326116
0.6049853148339627 0.8016098115439532 0.003988696799899624
0.599843813095651 0.9139077317864625 0.12852934939236504
0.7159758726595392 0.7946924407625988 0.12203551559161137
0.7025797687092532 0.9263544953713881 0.027762422686326116
0.8049853148339626 0.8016098115439532 0.003988696799899624
0.7998438130956511 0.9139077317864625 0.12852934939236504
0.9159758726595393 0.7946924407625988 0.12203551559161137
0.9025797687092532 0.9263544953713881 0.027762422686326116
0.0049853148339626275 0.0016098115439531482 0.20398869679989962
-0.0001561869043489106 0.11390773178646237 0.3285293493923651
0.11597587265953922 -0.005307559237401279 0.32203551559161137
0.10257976870925307 0.12635449537138807 0.2277624226863261
0.20498531483396262 0.0016098115439531482 0.20398869679989962
0.1998438130956511 0.11390773178646237 0.3285293493923651
0.3159758726595392 -0.005307559237401279 0.32203551559161137
0.30257976870925307 0.12635449537138807 0.2277624226863261
0.40498531483396266 0.0016098115439531482 0.20398869679989962
0.3998438130956511 0.11390773178646237 0.3285293493923651
0.5159758726595393 -0.005307559237401279 0.32203551559161137
0.5025797687092531 0.12635449537138807 0.2277624226863261
0.6049853148339627 0.0016098115439531482 0.20398869679989962
0.599843813095651 0.11390773178646237 0.3285293493923651
0.7159758726595392 -0.005307559237401279 0.32203551559161137
0.7025797687092532 0.12635449537138807 0.2277624226863261
0.8049853148339626 0.0016098115439531482 0.20398869679989962
0.7998438130956511 0.11390773178646237 0.3285293493923651
0.9159758726595393 -0.005307559237401279 0.32203551559161137
0.9025797687092532 0.12635449537138807 0.2277624226863261
0.0049853148339626275 0.2016098115439532 0.20398869679989962
-0.0001561869043489106 0.3139077317864624 0.3285293493923651
0.11597587265953922 0.19469244076259873 0.32203551559161137
0.10257976870925307 0.3263544953713881 0.2277624226863261
0.20498531483396262 0.2016098115439532 0.20398869679989962
0.1998438130956511 0.3139077317864624 0.3285293493923651
0.3159758726595392 0.19469244076259873 0.32203551559161137
0.30257976870925307 0.3263544953713881 0.2277624226863261
0.40498531483396266 0.2016098115439532 0.20398869679989962
0.3998438130956511 0.3139077317864624 0.3285293493923651
0.5159758726595393 0.19469244076259873 0.32203551559161137
0.5025797687092531 0.3263544953713881 0.2277624226863261
0.6049853148339627 0.2016098115439532 0.20398869679989962
0.599843813095651 0.3139077317864624 0.3285293493923651
0.7159758726595392 0.19469244076259873 0.32203551559161137
0.7025797687092532 0.3263544953713881 0.2277624226863261
0.8049853148339626 0.2016098115439532 0.20398869679989962
0.7998438130956511 0.3139077317864624 0.3285293493923651
0.9159758726595393 0.19469244076259873 0.32203551559161137
0.9025797687092532 0.3263544953713881 0.2277624226863261
0.0049853148339626275 0.40160981154395314 0.20398869679989962
-0.0001561869043489106 0.5139077317864624 0.3285293493923651
0.11597587265953922 0.39469244076259874 0.32203551559161137
0.10257976870925307 0.5263544953713881 0.2277624226863261
0.20498531483396262 0.40160981154395314 0.20398869679989962
0.1998438130956511 0.5139077317864624 0.3285293493923651
0.3159758726595392 0.39469244076259874 0.32203551559161137
0.30257976870925307 0.5263544953713881 0.2277624226863261
0.40498531483396266 0.40160981154395314 0.20398869679989962
0.3998438130956511 0.5139077317864624 0.3285293493923651
0.5159758726595393 0.39469244076259874 0.32203551559161137
0.5025797687092531 0.5263544953713881 0.2277624226863261
0.6049853148339627 0.40160981154395314 0.20398869679989962
0.599843813095651 0.5139077317864624 0.3285293493923651
0.7159758726595392 0.39469244076259874 0.32203551559161137
0.7025797687092532 0.5263544953713881 0.2277624226863261
0.8049853148339626 0.40160981154395314 0.20398869679989962
0.7998438130956511 0.5139077317864624 0.3285293493923651
0.9159758726595393 0.39469244076259874 0.32203551559161137
0.9025797687092532 0.5263544953713881 0.2277624226863261
0.0049853148339626275 0.6016098115439532 0.20398869679989962
-0.0001561869043489106 0.7139077317864624 0.3285293493923651
0.11597587265953922 0.5946924407625988 0.32203551559161137
0.10257976870925307 0.7263544953713881 0.2277624226863261
0.20498531483396262 0.6016098115439532 0.20398869679989962
0.1998438130956511 0.7139077317864624 0.3285293493923651
0.3159758726595392 0.5946924407625988 0.32203551559161137
0.30257976870925307 0.7263544953713881 0.2277624226863261
0.40498531483396266 0.6016098115439532 0.20398869679989962
0.3998438130956511 0.7139077317864624 0.3285293493923651
0.5159758726595393 0.5946924407625988 0.32203551559161137
0.5025797687092531 0.7263544953713881 0.2277624226863261
0.6049853148339627 0.6016098115439532 0.20398869679989962
0.599843813095651 0.7139077317864624 0.3285293493923651
0.7159758726595392 0.5946924407625988 0.32203551559161137
0.7025797687092532 0.7263544953713881 0.2277624226863261
0.8049853148339626 0.6016098115439532 0.20398869679989962
0.7998438130956511 0.7139077317864624 0.3285293493923651
0.9159758726595393 0.5946924407625988 0.32203551559161137
0.9025797687092532 0.7263544953713881 0.2277624226863261
0.0049853148339626275 0.8016098115439532 0.20398869679989962
-0.0001561869043489106 0.9139077317864625 0.3285293493923651
0.11597587265953922 0.7946924407625988 0.32203551559161137
0.10257976870925307 0.9263544953713881 0.2277624226863261
0.20498531483396262 0.8016098115439532 0.20398869679989962
0.1998438130956511 0.9139077317864625 0.3285293493923651
0.3159758726595392 0.7946924407625988 0.32203551559161137
0.30257976870925307 0.9263544953713881 0.2277624226863261
0.40498531483396266 0.8016098115439532 0.20398869679989962
0.3998438130956511 0.9139077317864625 0.3285293493923651
0.5159758726595393 0.7946924407625988 0.32203551559161137
0.5025797687092531 0.9263544953713881 0.2277624226863261
0.6049853148339627 0.8016098115439532 0.20398869679989962
0.599843813095651 0.9139077317864625 0.3285293493923651
0.7159758726595392 0.7946924407625988 0.32203551559161137
0.7025797687092532 0.9263544953713881 0.2277624226863261
0.8049853148339626 0.8016098115439532 0.20398869679989962
0.7998438130956511 0.9139077317864625 0.3285293493923651
0.9159758726595393 0.7946924407625988 0.32203551559161137
0.9025797687092532 0.9263544953713881 0.2277624226863261
0.0049853148339626275 0.0016098115439531482 0.4039886967998997
-0.0001561869043489106 0.11390773178646237 0.5285293493923651
0.11597587265953922 -0.005307559237401279 0.5220355155916113
0.10257976870925307 0.12635449537138807 0.42776242268632614
0.20498531483396262 0.0016098115439531482 0.4039886967998997
0.1998438130956511 0.11390773178646237 0.5285293493923651
0.3159758726595392 -0.005307559237401279 0.5220355155916113
0.30257976870925307 0.12635449537138807 0.42776242268632614
0.40498531483396266 0.0016098115439531482 0.4039886967998997
0.3998438130956511 0.11390773178646237 0.5285293493923651
0.5159758726595393 -0.005307559237401279 0.5220355155916113
0.5025797687092531 0.12635449537138807 0.42776242268632614
0.6049853148339627 0.0016098115439531482 0.4039886967998997
0.599843813095651 0.11390773178646237 0.5285293493923651
0.7159758726595392 -0.005307559237401279 0.5220355155916113
0.7025797687092532 0.12635449537138807 0.42776242268632614
0.8049853148339626 0.0016098115439531482 0.4039886967998997
0.7998438130956511 0.11390773178646237 0.5285293493923651
0.9159758726595393 -0.005307559237401279 0.5220355155916113
0.9025797687092532 0.12635449537138807 0.42776242268632614
0.0049853148339626275 0.2016098115439532 0.4039886967998997
-0.0001561869043489106 0.3139077317864624 0.5285293493923651
0.11597587265953922 0.19469244076259873 0.5220355155916113
0.10257976870925307 0.3263544953713881 0.42776242268632614
0.20498531483396262 0.2016098115439532 0.4039886967998997
0.1998438130956511 0.3139077317864624 0.5285293493923651
0.3159758726595392 0.19469244076259873 0.5220355155916113
0.30257976870925307 0.3263544953713881 0.42776242268632614
0.40498531483396266 0.2016098115439532 0.4039886967998997
0.3998438130956511 0.3139077317864624 0.5285293493923651
0.5159758726595393 0.19469244076259873 0.5220355155916113
0.5025797687092531 0.3263544953713881 0.42776242268632614
0.6049853148339627 0.2016098115439532 0.4039886967998997
0.599843813095651 0.3139077317864624 0.5285293493923651
0.7159758726595392 0.19469244076259873 0.5220355155916113
0.7025797687092532 0.3263544953713881 0.42776242268632614
0.8049853148339626 0.2016098115439532 0.4039886967998997
0.7998438130956511 0.3139077317864624 0.5285293493923651
0.9159758726595393 0.19469244076259873 0.5220355155916113
0.9025797687092532 0.3263544953713881 0.42776242268632614
0.0049853148339626275 0.40160981154395314 0.4039886967998997
-0.0001561869043489106 0.5139077317864624 0.5285293493923651
0.11597587265953922 0.39469244076259874 0.5220355155916113
0.10257976870925307 0.5263544953713881 0.42776242268632614
0.20498531483396262 0.40160981154395314 0.4039886967998997
0.1998438130956511 0.5139077317864624 0.5285293493923651
0.3159758726595392 0.39469244076259874 0.5220355155916113
0.30257976870925307 0.5263544953713881 0.42776242268632614
0.40498531483396266 0.40160981154395314 0.4039886967998997
0.3998438130956511 0.5139077317864624 0.5285293493923651
0.5159758726595393 0.39469244076259874 0.5220355155916113
0.5025797687092531 0.5263544953713881 0.42776242268632614
0.6049853148339627 0.40160981154395314 0.4039886967998997
0.599843813095651 0.5139077317864624 0.5285293493923651
0.7159758726595392 0.39469244076259874 0.5220355155916113
0.7025797687092532 0.5263544953713881 0.42776242268632614
0.8049853148339626 0.40160981154395314 0.4039886967998997
0.7998438130956511 0.5139077317864624 0.5285293493923651
0.9159758726595393 0.39469244076259874 0.5220355155916113
0.9025797687092532 0.5263544953713881 0.42776242268632614
0.0049853148339626275 0.6016098115439532 0.4039886967998997
-0.0001561869043489106 0.7139077317864624 0.5285293493923651
0.11597587265953922 0.5946924407625988 0.5220355155916113
0.10257976870925307 0.7263544953713881 0.42776242268632614
0.20498531483396262 0.6016098115439532 0.4039886967998997
0.1998438130956511 0.7139077317864624 0.5285293493923651
0.3159758726595392 0.5946924407625988 0.5220355155916113
0.30257976870925307 0.7263544953713881 0.42776242268632614
0.40498531483396266 0.6016098115439532 0.4039886967998997
0.3998438130956511 0.7139077317864624 0.5285293493923651
0.5159758726595393 0.5946924407625988 0.5220355155916113
0.5025797687092531 0.7263544953713881 0.42776242268632614
0.6049853148339627 0.6016098115439532 0.4039886967998997
0.599843813095651 0.7139077317864624 0.5285293493923651
0.7159758726595392 0.5946924407625988 0.5220355155916113
0.7025797687092532 0.7263544953713881 0.42776242268632614
0.8049853148339626 0.6016098115439532 0.4039886967998997
0.7998438130956511 0.7139077317864624 0.5285293493923651
0.9159758726595393 0.5946924407625988 0.5220355155916113
0.9025797687092532 0.7263544953713881 0.42776242268632614
0.0049853148339626275 0.8016098115439532 0.4039886967998997
-0.0001561869043489106 0.9139077317864625 0.5285293493923651
0.11597587265953922 0.7946924407625988 0.5220355155916113
0.10257976870925307 0.9263544953713881 0.42776242268632614
0.20498531483396262 0.8016098115439532 0.4039886967998997
0.1998438130956511 0.9139077317864625 0.5285293493923651
0.3159758726595392 0.7946924407625988 0.5220355155916113
0.30257976870925307 0.9263544953713881 0.42776242268632614
0.40498531483396266 0.8016098115439532 0.4039886967998997
0.3998438130956511 0.9139077317864625 0.5285293493923651
0.5159758726595393 0.7946924407625988 0.5220355155916113
0.5025797687092531 0.9263544953713881 0.42776242268632614
0.6049853148339627 0.8016098115439532 0.4039886967998997
0.599843813095651 0.9139077317864625 0.5285293493923651
0.7159758726595392 0.7946924407625988 0.5220355155916113
0.7025797687092532 0.9263544953713881 0.42776242268632614
0.8049853148339626 0.8016098115439532 0.4039886967998997
0.7998438130956511 0.9139077317864625 0.5285293493923651
0.9159758726595393 0.7946924407625988 0.5220355155916113
0.9025797687092532 0.9263544953713881 0.42776242268632614
0.0049853148339626275 0.0016098115439531482 0.6039886967998997
-0.0001561869043489106 0.11390773178646237 0.7285293493923651
0.11597587265953922 -0.005307559237401279 0.7220355155916114
0.10257976870925307 0.12635449537138807 0.6277624226863261
0.20498531483396262 0.0016098115439531482 0.6039886967998997
0.1998438130956511 0.11390773178646237 0.7285293493923651
0.3159758726595392 -0.005307559237401279 0.7220355155916114
0.30257976870925307 0.12635449537138807 0.6277624226863261
0.40498531483396266 0.0016098115439531482 0.6039886967998997
0.3998438130956511 0.11390773178646237 0.7285293493923651
0.5159758726595393 -0.005307559237401279 0.7220355155916114
0.5025797687092531 0.12635449537138807 0.6277624226863261
0.6049853148339627 0.0016098115439531482 0.6039886967998997
0.599843813095651 0.11390773178646237 0.7285293493923651
0.7159758726595392 -0.005307559237401279 0.7220355155916114
0.7025797687092532 0.12635449537138807 0.6277624226863261
0.8049853148339626 0.0016098115439531482 0.6039886967998997
0.7998438130956511 0.11390773178646237 0.7285293493923651
0.9159758726595393 -0.005307559237401279 0.7220355155916114
0.9025797687092532 0.12635449537138807 0.6277624226863261
0.0049853148339626275 0.2016098115439532 0.6039886967998997
-0.0001561869043489106 0.3139077317864624 0.7285293493923651
0.11597587265953922 0.19469244076259873 0.7220355155916114
0.10257976870925307 0.3263544953713881 0.6277624226863261
0.20498531483396262 0.2016098115439532 0.6039886967998997
0.1998438130956511 0.3139077317864624 0.7285293493923651
0.3159758726595392 0.19469244076259873 0.7220355155916114
0.30257976870925307 0.3263544953713881 0.6277624226863261
0.40498531483396266 0.2016098115439532 0.6039886967998997
0.3998438130956511 0.3139077317864624 0.7285293493923651
0.5159758726595393 0.19469244076259873 0.7220355155916114
0.5025797687092531 0.3263544953713881 0.6277624226863261
0.6049853148339627 0.2016098115439532 0.6039886967998997
0.599843813095651 0.3139077317864624 0.7285293493923651
0.7159758726595392 0.19469244076259873 0.7220355155916114
0.7025797687092532 0.3263544953713881 0.6277624226863261
0.8049853148339626 0.2016098115439532 0.6039886967998997
0.7998438130956511 0.3139077317864624 0.7285293493923651
0.9159758726595393 0.19469244076259873 0.7220355155916114
0.9025797687092532 0.3263544953713881 0.6277624226863261
0.0049853148339626275 0.40160981154395314 0.6039886967998997
-0.0001561869043489106 0.5139077317864624 0.7285293493923651
0.11597587265953922 0.39469244076259874 0.7220355155916114
0.10257976870925307 0.5263544953713881 0.6277624226863261
0.20498531483396262 0.40160981154395314 0.6039886967998997
0.1998438130956511 0.5139077317864624 0.7285293493923651
0.3159758726595392 0.39469244076259874 0.7220355155916114
0.30257976870925307 0.5263544953713881 0.6277624226863261
0.40498531483396266 0.40160981154395314 0.6039886967998997
0.3998438130956511 0.5139077317864624 0.7285293493923651
0.5159758726595393 0.39469244076259874 0.7220355155916114
0.5025797687092531 0.5263544953713881 0.6277624226863261
0.6049853148339627 0.40160981154395314 0.6039886967998997
0.599843813095651 0.5139077317864624 0.7285293493923651
0.7159758726595392 0.39469244076259874 0.7220355155916114
0.7025797687092532 0.5263544953713881 0.6277624226863261
0.8049853148339626 0.40160981154395314 0.6039886967998997
0.7998438130956511 0.5139077317864624 0.7285293493923651
0.9159758726595393 0.39469244076259874 0.7220355155916114
0.9025797687092532 0.5263544953713881 0.6277624226863261
0.0049853148339626275 0.6016098115439532 0.6039886967998997
-0.0001561869043489106 0.7139077317864624 0.7285293493923651
0.11597587265953922 0.5946924407625988 0.7220355155916114
0.10257976870925307 0.7263544953713881 0.6277624226863261
0.20498531483396262 0.6016098115439532 0.6039886967998997
0.1998438130956511 0.7139077317864624 0.7285293493923651
0.3159758726595392 0.5946924407625988 0.7220355155916114
0.30257976870925307 0.7263544953713881 0.6277624226863261
0.40498531483396266 0.6016098115439532 0.6039886967998997
0.3998438130956511 0.7139077317864624 0.7285293493923651
0.5159758726595393 0.5946924407625988 0.7220355155916114
0.5025797687092531 0.7263544953713881 0.6277624226863261
0.6049853148339627 0.6016098115439532 0.6039886967998997
0.599843813095651 0.7139077317864624 0.7285293493923651
0.7159758726595392 0.5946924407625988 0.7220355155916114
0.7025797687092532 0.7263544953713881 0.6277624226863261
0.8049853148339626 0.6016098115439532 0.6039886967998997
0.7998438130956511 0.7139077317864624 0.7285293493923651
0.9159758726595393 0.5946924407625988 0.7220355155916114
0.9025797687092532 0.7263544953713881 0.6277624226863261
0.0049853148339626275 0.8016098115439532 0.6039886967998997
-0.0001561869043489106 0.9139077317864625 0.7285293493923651
0.11597587265953922 0.7946924407625988 0.7220355155916114
0.10257976870925307 0.9263544953713881 0.6277624226863261
0.20498531483396262 0.8016098115439532 0.6039886967998997
0.1998438130956511 0.9139077317864625 0.7285293493923651
0.3159758726595392 0.7946924407625988 0.7220355155916114
0.30257976870925307 0.9263544953713881 0.6277624226863261
0.40498531483396266 0.8016098115439532 0.6039886967998997
0.3998438130956511 0.9139077317864625 0.7285293493923651
0.5159758726595393 0.7946924407625988 0.7220355155916114
0.5025797687092531 0.9263544953713881 0.6277624226863261
0.6049853148339627 0.8016098115439532 0.6039886967998997
0.599843813095651 0.9139077317864625 0.7285293493923651
0.7159758726595392 0.7946924407625988 0.7220355155916114
0.7025797687092532 0.9263544953713881 0.6277624226863261
0.8049853148339626 0.8016098115439532 0.6039886967998997
0.7998438130956511 0.9139077317864625 0.7285293493923651
0.9159758726595393 0.7946924407625988 0.7220355155916114
0.9025797687092532 0.9263544953713881 0.6277624226863261
0.0049853148339626275 0.0016098115439531482 0.8039886967998996
-0.0001561869043489106 0.11390773178646237 0.928529349392365
0.11597587265953922 -0.005307559237401279 0.9220355155916113
0.10257976870925307 0.12635449537138807 0.8277624226863263
0.20498531483396262 0.0016098115439531482 0.8039886967998996
0.1998438130956511 0.11390773178646237 0.928529349392365
0.3159758726595392 -0.005307559237401279 0.9220355155916113
0.30257976870925307 0.12635449537138807 0.8277624226863263
0.40498531483396266 0.0016098115439531482 0.8039886967998996
0.3998438130956511 0.11390773178646237 0.928529349392365
0.5159758726595393 -0.005307559237401279 0.9220355155916113
0.5025797687092531 0.12635449537138807 0.8277624226863263
0.6049853148339627 0.0016098115439531482 0.8039886967998996
0.599843813095651 0.11390773178646237 0.928529349392365
0.7159758726595392 -0.005307559237401279 0.9220355155916113
0.7025797687092532 0.12635449537138807 0.8277624226863263
0.8049853148339626 0.0016098115439531482 0.8039886967998996
0.7998438130956511 0.11390773178646237 0.928529349392365
0.9159758726595393 -0.005307559237401279 0.9220355155916113
0.9025797687092532 0.12635449537138807 0.8277624226863263
0.0049853148339626275 0.2016098115439532 0.8039886967998996
-0.0001561869043489106 0.3139077317864624 0.928529349392365
0.11597587265953922 0.19469244076259873 0.9220355155916113
0.10257976870925307 0.3263544953713881 0.8277624226863263
0.20498531483396262 0.2016098115439532 0.8039886967998996
0.1998438130956511 0.3139077317864624 0.928529349392365
0.3159758726595392 0.19469244076259873 0.9220355155916113
0.30257976870925307 0.3263544953713881 0.8277624226863263
0.40498531483396266 0.2016098115439532 0.8039886967998996
0.3998438130956511 0.3139077317864624 0.928529349392365
0.5159758726595393 0.19469244076259873 0.9220355155916113
0.5025797687092531 0.3263544953713881 0.8277624226863263
0.6049853148339627 0.2016098115439532 0.8039886967998996
0.599843813095651 0.3139077317864624 0.928529349392365
0.7159758726595392 0.19469244076259873 0.9220355155916113
0.7025797687092532 0.3263544953713881 0.8277624226863263
0.8049853148339626 0.2016098115439532 0.8039886967998996
0.7998438130956511 0.3139077317864624 0.928529349392365
0.9159758726595393 0.19469244076259873 0.9220355155916113
0.9025797687092532 0.3263544953713881 0.8277624226863263
0.0049853148339626275 0.40160981154395314 0.8039886967998996
-0.0001561869043489106 0.5139077317864624 0.928529349392365
0.11597587265953922 0.39469244076259874 0.9220355155916113
0.10257976870925307 0.5263544953713881 0.8277624226863263
0.20498531483396262 0.40160981154395314 0.8039886967998996
0.1998438130956511 0.5139077317864624 0.928529349392365
0.3159758726595392 0.39469244076259874 0.9220355155916113
0.30257976870925307 0.5263544953713881 0.8277624226863263
0.40498531483396266 0.40160981154395314 0.8039886967998996
0.3998438130956511 0.5139077317864624 0.928529349392365
0.5159758726595393 0.39469244076259874 0.9220355155916113
0.5025797687092531 0.5263544953713881 0.8277624226863263
0.6049853148339627 0.40160981154395314 0.8039886967998996
0.599843813095651 0.5139077317864624 0.928529349392365
0.7159758726595392 0.39469244076259874 0.9220355155916113
0.7025797687092532 0.5263544953713881 0.8277624226863263
0.8049853148339626 0.40160981154395314 0.8039886967998996
0.7998438130956511 0.5139077317864624 0.928529349392365
0.9159758726595393 0.39469244076259874 0.9220355155916113
0.9025797687092532 0.5263544953713881 0.8277624226863263
0.0049853148339626275 0.6016098115439532 0.8039886967998996
-0.0001561869043489106 0.7139077317864624 0.928529349392365
0.11597587265953922 0.5946924407625988 0.9220355155916113
0.10257976870925307 0.7263544953713881 0.8277624226863263
0.20498531483396262 0.6016098115439532 0.8039886967998996
0.1998438130956511 0.7139077317864624 0.928529349392365
0.3159758726595392 0.5946924407625988 0.9220355155916113
0.30257976870925307 0.7263544953713881 0.8277624226863263
0.40498531483396266 0.6016098115439532 0.8039886967998996
0.3998438130956511 0.7139077317864624 0.928529349392365
0.5159758726595393 0.5946924407625988 0.9220355155916113
0.5025797687092531 0.7263544953713881 0.8277624226863263
0.6049853148339627 0.6016098115439532 0.8039886967998996
0.599843813095651 0.7139077317864624 0.928529349392365
0.7159758726595392 0.5946924407625988 0.9220355155916113
0.7025797687092532 0.7263544953713881 0.8277624226863263
0.8049853148339626 0.6016098115439532 0.8039886967998996
0.7998438130956511 0.7139077317864624 0.928529349392365
0.9159758726595393 0.5946924407625988 0.9220355155916113
0.9025797687092532 0.7263544953713881 0.8277624226863263
0.0049853148339626275 0.8016098115439532 0.8039886967998996
-0.0001561869043489106 0.9139077317864625 0.928529349392365
0.11597587265953922 0.7946924407625988 0.9220355155916113
0.10257976870925307 0.9263544953713881 0.8277624226863263
0.20498531483396262 0.8016098115439532 0.8039886967998996
0.1998438130956511 0.9139077317864625 0.928529349392365
0.3159758726595392 0.7946924407625988 0.9220355155916113
0.30257976870925307 0.9263544953713881 0.8277624226863263
0.40498531483396266 0.8016098115439532 0.8039886967998996
0.3998438130956511 0.9139077317864625 0.928529349392365
0.5159758726595393 0.7946924407625988 0.9220355155916113
0.5025797687092531 0.9263544953713881 0.8277624226863263
0.6049853148339627 0.8016098115439532 0.8039886967998996
0.599843813095651 0.9139077317864625 0.928529349392365
0.7159758726595392 0.7946924407625988 0.9220355155916113
0.7025797687092532 0.9263544953713881 0.8277624226863263
0.8049853148339626 0.8016098115439532 0.8039886967998996
0.7998438130956511 0.9139077317864625 0.928529349392365
0.9159758726595393 0.7946924407625988 0.9220355155916113
0.9025797687092532 0.9263544953713881 0.8277624226863263
0.0732415409058984 0.010057827030622664 0.014372163662445946
-0.026651379608369705 0.12193727306062362 0.010760272435461621
-0.02736734587616177 0.007316181149536089 0.08117316439933836
0.07997902822926832 0.11440817794142964 0.0954182638787419
0.2732415409058984 0.010057827030622664 0.014372163662445946
0.17334862039163032 0.12193727306062362 0.010760272435461621
0.17263265412383824 0.007316181149536089 0.08117316439933836
0.27997902822926835 0.11440817794142964 0.0954182638787419
0.4732415409058984 0.010057827030622664 0.014372163662445946
0.3733486203916303 0.12193727306062362 0.010760272435461621
0.3726326541238383 0.007316181149536089 0.08117316439933836
0.47997902822926836 0.11440817794142964 0.0954182638787419
0.6732415409058984 0.010057827030622664 0.014372163662445946
0.5733486203916303 0.12193727306062362 0.010760272435461621
0.5726326541238382 0.007316181149536089 0.08117316439933836
0.6799790282292684 0.11440817794142964 0.0954182638787419
0.8732415409058985 0.010057827030622664 0.014372163662445946
0.7733486203916303 0.12193727306062362 0.010760272435461621
0.7726326541238383 0.007316181149536089 0.08117316439933836
0.8799790282292683 0.11440817794142964 0.0954182638787419
0.0732415409058984 0.2100578270306227 0.014372163662445946
-0.026651379608369705 0.3219372730606236 0.010760272435461621
-0.02736734587616177 0.2073161811495361 0.08117316439933836
0.07997902822926832 0.31440817794142967 0.0954182638787419
0.2732415409058984 0.2100578270306227 0.014372163662445946
0.17334862039163032 0.3219372730606236 0.010760272435461621
0.17263265412383824 0.2073161811495361 0.08117316439933836
0.27997902822926835 0.31440817794142967 0.0954182638787419
0.4732415409058984 0.2100578270306227 0.014372163662445946
0.3733486203916303 0.3219372730606236 0.010760272435461621
0.3726326541238383 0.2073161811495361 0.08117316439933836
0.47997902822926836 0.31440817794142967 0.0954182638787419
0.6732415409058984 0.2100578270306227 0.014372163662445946
0.5733486203916303 0.3219372730606236 0.010760272435461621
0.5726326541238382 0.2073161811495361 0.08117316439933836
0.6799790282292684 0.31440817794142967 0.0954182638787419
0.8732415409058985 0.2100578270306227 0.014372163662445946
0.7733486203916303 0.3219372730606236 0.010760272435461621
0.7726326541238383 0.2073161811495361 0.08117316439933836
0.8799790282292683 0.31440817794142967 0.0954182638787419
0.0732415409058984 0.4100578270306227 0.014372163662445946
-0.026651379608369705 0.5219372730606237 0.010760272435461621
-0.02736734587616177 0.40731618114953605 0.08117316439933836
0.07997902822926832 0.5144081779414297 0.0954182638787419
0.2732415409058984 0.4100578270306227 0.014372163662445946
0.17334862039163032 0.5219372730606237 0.010760272435461621
0.17263265412383824 0.40731618114953605 0.08117316439933836
0.27997902822926835 0.5144081779414297 0.0954182638787419
0.4732415409058984 0.4100578270306227 0.014372163662445946
0.3733486203916303 0.5219372730606237 0.010760272435461621
0.3726326541238383 0.40731618114953605 0.08117316439933836
0.47997902822926836 0.5144081779414297 0.0954182638787419
0.6732415409058984 0.4100578270306227 0.014372163662445946
0.5733486203916303 0.5219372730606237 0.010760272435461621
0.5726326541238382 0.40731618114953605 0.08117316439933836
0.6799790282292684 0.5144081779414297 0.0954182638787419
0.8732415409058985 0.4100578270306227 0.014372163662445946
0.7733486203916303 0.5219372730606237 0.010760272435461621
0.7726326541238383 0.40731618114953605 0.08117316439933836
0.8799790282292683 0.5144081779414297 0.0954182638787419
0.0732415409058984 0.6100578270306227 0.014372163662445946
-0.026651379608369705 0.7219372730606236 0.010760272435461621
-0.02736734587616177 0.6073161811495361 0.08117316439933836
0.07997902822926832 0.7144081779414297 0.0954182638787419
0.2732415409058984 0.6100578270306227 0.014372163662445946
0.17334862039163032 0.7219372730606236 0.010760272435461621
0.17263265412383824 0.6073161811495361 0.08117316439933836
0.27997902822926835 0.7144081779414297 0.0954182638787419
0.4732415409058984 0.6100578270306227 0.014372163662445946
0.3733486203916303 0.7219372730606236 0.010760272435461621
0.3726326541238383 0.6073161811495361 0.08117316439933836
0.47997902822926836 0.7144081779414297 0.0954182638787419
0.6732415409058984 0.6100578270306227 0.014372163662445946
0.5733486203916303 0.7219372730606236 0.010760272435461621
0.5726326541238382 0.6073161811495361 0.08117316439933836
0.6799790282292684 0.7144081779414297 0.0954182638787419
0.8732415409058985 0.6100578270306227 0.014372163662445946
0.7733486203916303 0.7219372730606236 0.010760272435461621
0.7726326541238383 0.6073161811495361 0.08117316439933836
0.8799790282292683 0.7144081779414297 0.0954182638787419
0.0732415409058984 0.8100578270306227 0.014372163662445946
-0.026651379608369705 0.9219372730606237 0.010760272435461621
-0.02736734587616177 0.8073161811495361 0.08117316439933836
0.07997902822926832 0.9144081779414297 0.0954182638787419
0.2732415409058984 0.8100578270306227 0.014372163662445946
0.17334862039163032 0.9219372730606237 0.010760272435461621
0.17263265412383824 0.8073161811495361 0.08117316439933836
0.27997902822926835 0.9144081779414297 0.0954182638787419
0.4732415409058984 0.8100578270306227 0.014372163662445946
0.3733486203916303 0.9219372730606237 0.010760272435461621
0.3726326541238383 0.8073161811495361 0.08117316439933836
0.47997902822926836 0.9144081779414297 0.0954182638787419
0.6732415409058984 0.8100578270306227 0.014372163662445946
0.5733486203916303 0.9219372730606237 0.010760272435461621
0.5726326541238382 0.8073161811495361 0.08117316439933836
0.6799790282292684 0.9144081779414297 0.0954182638787419
0.8732415409058985 0.8100578270306227 0.014372163662445946
0.7733486203916303 0.9219372730606237 0.010760272435461621
0.7726326541238383 0.8073161811495361 0.08117316439933836
0.8799790282292683 0.9144081779414297 0.0954182638787419
0.0732415409058984 0.010057827030622664 0.21437216366244596
-0.026651379608369705 0.12193727306062362 0.21076027243546164
-0.02736734587616177 0.007316181149536089 0.28117316439933837
0.07997902822926832 0.11440817794142964 0.29541826387874187
0.2732415409058984 0.010057827030622664 0.21437216366244596
0.17334862039163032 0.12193727306062362 0.21076027243546164
0.17263265412383824 0.007316181149536089 0.28117316439933837
0.27997902822926835 0.11440817794142964 0.29541826387874187
0.4732415409058984 0.010057827030622664 0.21437216366244596
0.3733486203916303 0.12193727306062362 0.21076027243546164
0.3726326541238383 0.007316181149536089 0.28117316439933837
0.47997902822926836 0.11440817794142964 0.29541826387874187
0.6732415409058984 0.010057827030622664 0.21437216366244596
0.5733486203916303 0.12193727306062362 0.21076027243546164
0.5726326541238382 0.007316181149536089 0.28117316439933837
0.6799790282292684 0.11440817794142964 0.29541826387874187
0.8732415409058985 0.010057827030622664 0.21437216366244596
0.7733486203916303 0.12193727306062362 0.21076027243546164
0.7726326541238383 0.007316181149536089 0.28117316439933837
0.8799790282292683 0.11440817794142964 0.29541826387874187
0.0732415409058984 0.2100578270306227 0.21437216366244596
-0.026651379608369705 0.3219372730606236 0.21076027243546164
-0.02736734587616177 0.2073161811495361 0.28117316439933837
0.07997902822926832 0.31440817794142967 0.29541826387874187
0.2732415409058984 0.2100578270306227 0.21437216366244596
0.17334862039163032 0.3219372730606236 0.21076027243546164
0.17263265412383824 0.2073161811495361 0.28117316439933837
0.27997902822926835 0.31440817794142967 0.29541826387874187
0.4732415409058984 0.2100578270306227 0.21437216366244596
0.3733486203916303 0.3219372730606236 0.21076027243546164
0.3726326541238383 0.2073161811495361 0.28117316439933837
0.47997902822926836 0.31440817794142967 0.29541826387874187
0.6732415409058984 0.2100578270306227 0.21437216366244596
0.5733486203916303 0.3219372730606236 0.21076027243546164
0.5726326541238382 0.2073161811495361 0.28117316439933837
0.6799790282292684 0.31440817794142967 0.29541826387874187
0.8732415409058985 0.2100578270306227 0.21437216366244596
0.7733486203916303 0.3219372730606236 0.21076027243546164
0.7726326541238383 0.2073161811495361 0.28117316439933837
0.8799790282292683 0.31440817794142967 0.29541826387874187
0.0732415409058984 0.4100578270306227 0.21437216366244596
-0.026651379608369705 0.5219372730606237 0.21076027243546164
-0.02736734587616177 0.40731618114953605 0.28117316439933837
0.07997902822926832 0.5144081779414297 0.29541826387874187
0.2732415409058984 0.4100578270306227 0.21437216366244596
0.17334862039163032 0.5219372730606237 0.21076027243546164
0.17263265412383824 0.40731618114953605 0.28117316439933837
0.27997902822926835 0.5144081779414297 0.29541826387874187
0.4732415409058984 0.4100578270306227 0.21437216366244596
0.3733486203916303 0.5219372730606237 0.21076027243546164
0.3726326541238383 0.40731618114953605 0.28117316439933837
0.47997902822926836 0.5144081779414297 0.29541826387874187
0.6732415409058984 0.4100578270306227 0.21437216366244596
0.5733486203916303 0.5219372730606237 0.21076027243546164
0.5726326541238382 0.40731618114953605 0.28117316439933837
0.6799790282292684 0.5144081779414297 0.29541826387874187
0.8732415409058985 0.4100578270306227 0.21437216366244596
0.7733486203916303 0.5219372730606237 0.21076027243546164
0.7726326541238383 0.40731618114953605 0.28117316439933837
0.8799790282292683 0.5144081779414297 0.29541826387874187
0.0732415409058984 0.6100578270306227 0.21437216366244596
-0.026651379608369705 0.7219372730606236 0.21076027243546164
-0.02736734587616177 0.6073161811495361 0.28117316439933837
0.07997902822926832 0.7144081779414297 0.29541826387874187
0.2732415409058984 0.6100578270306227 0.21437216366244596
0.17334862039163032 0.7219372730606236 0.21076027243546164
0.17263265412383824 0.6073161811495361 0.28117316439933837
0.27997902822926835 0.7144081779414297 0.29541826387874187
0.4732415409058984 0.6100578270306227 0.21437216366244596
0.3733486203916303 0.7219372730606236 0.21076027243546164
0.3726326541238383 0.6073161811495361 0.28117316439933837
0.47997902822926836 0.7144081779414297 0.29541826387874187
0.6732415409058984 0.6100578270306227 0.21437216366244596
0.5733486203916303 0.7219372730606236 0.21076027243546164
0.5726326541238382 0.6073161811495361 0.28117316439933837
0.6799790282292684 0.7144081779414297 0.29541826387874187
0.8732415409058985 0.6100578270306227 0.21437216366244596
0.7733486203916303 0.7219372730606236 0.21076027243546164
0.7726326541238383 0.6073161811495361 0.28117316439933837
0.8799790282292683 0.7144081779414297 0.29541826387874187
0.0732415409058984 0.8100578270306227 0.21437216366244596
-0.026651379608369705 0.9219372730606237 0.21076027243546164
-0.02736734587616177 0.8073161811495361 0.28117316439933837
0.07997902822926832 0.9144081779414297 0.29541826387874187
0.2732415409058984 0.8100578270306227 0.21437216366244596
0.17334862039163032 0.9219372730606237 0.21076027243546164
0.17263265412383824 0.8073161811495361 0.28117316439933837
0.27997902822926835 0.9144081779414297 0.29541826387874187
0.4732415409058984 0.8100578270306227 0.21437216366244596
0.3733486203916303 0.9219372730606237 0.21076027243546164
0.3726326541238383 0.8073161811495361 0.28117316439933837
0.47997902822926836 0.9144081779414297 0.29541826387874187
0.6732415409058984 0.8100578270306227 0.21437216366244596
0.5733486203916303 0.9219372730606237 0.21076027243546164
0.5726326541238382 0.8073161811495361 0.28117316439933837
0.6799790282292684 0.9144081779414297 0.29541826387874187
0.8732415409058985 0.8100578270306227 0.21437216366244596
0.7733486203916303 0.9219372730606237 0.21076027243546164
0.7726326541238383 0.8073161811495361 0.28117316439933837
0.8799790282292683 0.9144081779414297 0.29541826387874187
0.0732415409058984 0.010057827030622664 0.41437216366244595
-0.026651379608369705 0.12193727306062362 0.41076027243546165
-0.02736734587616177 0.007316181149536089 0.48117316439933844
0.07997902822926832 0.11440817794142964 0.4954182638787419
0.2732415409058984 0.010057827030622664 0.41437216366244595
0.17334862039163032 0.12193727306062362 0.41076027243546165
0.17263265412383824 0.007316181149536089 0.48117316439933844
0.27997902822926835 0.11440817794142964 0.4954182638787419
0.4732415409058984 0.010057827030622664 0.41437216366244595
0.3733486203916303 0.12193727306062362 0.41076027243546165
0.3726326541238383 0.007316181149536089 0.48117316439933844
0.47997902822926836 0.11440817794142964 0.4954182638787419
0.6732415409058984 0.010057827030622664 0.41437216366244595
0.5733486203916303 0.12193727306062362 0.41076027243546165
0.5726326541238382 0.007316181149536089 0.48117316439933844
0.6799790282292684 0.11440817794142964 0.4954182638787419
0.8732415409058985 0.010057827030622664 0.41437216366244595
0.7733486203916303 0.12193727306062362 0.41076027243546165
0.7726326541238383 0.007316181149536089 0.48117316439933844
0.8799790282292683 0.11440817794142964 0.4954182638787419
0.0732415409058984 0.2100578270306227 0.41437216366244595
-0.026651379608369705 0.3219372730606236 0.41076027243546165
-0.02736734587616177 0.2073161811495361 0.48117316439933844
0.07997902822926832 0.31440817794142967 0.4954182638787419
0.2732415409058984 0.2100578270306227 0.41437216366244595
0.17334862039163032 0.3219372730606236 0.41076027243546165
0.17263265412383824 0.2073161811495361 0.48117316439933844
0.27997902822926835 0.31440817794142967 0.4954182638787419
0.4732415409058984 0.2100578270306227 0.41437216366244595
0.3733486203916303 0.3219372730606236 0.41076027243546165
0.3726326541238383 0.2073161811495361 0.48117316439933844
0.47997902822926836 0.31440817794142967 0.4954182638787419
0.6732415409058984 0.2100578270306227 0.41437216366244595
0.5733486203916303 0.3219372730606236 0.41076027243546165
0.5726326541238382 0.2073161811495361 0.48117316439933844
0.6799790282292684 0.31440817794142967 0.4954182638787419
0.8732415409058985 0.2100578270306227 0.41437216366244595
0.7733486203916303 0.3219372730606236 0.41076027243546165
0.7726326541238383 0.2073161811495361 0.48117316439933844
0.8799790282292683 0.31440817794142967 0.4954182638787419
0.0732415409058984 0.4100578270306227 0.41437216366244595
-0.026651379608369705 0.5219372730606237 0.41076027243546165
-0.02736734587616177 0.40731618114953605 0.48117316439933844
0.07997902822926832 0.5144081779414297 0.4954182638787419
0.2732415409058984 0.4100578270306227 0.41437216366244595
0.17334862039163032 0.5219372730606237 0.41076027243546165
0.17263265412383824 0.40731618114953605 0.48117316439933844
0.27997902822926835 0.5144081779414297 0.4954182638787419
0.4732415409058984 0.4100578270306227 0.41437216366244595
0.3733486203916303 0.5219372730606237 0.41076027243546165
0.3726326541238383 0.40731618114953605 0.48117316439933844
0.47997902822926836 0.5144081779414297 0.4954182638787419
0.6732415409058984 0.4100578270306227 0.41437216366244595
0.5733486203916303 0.5219372730606237 0.41076027243546165
0.5726326541238382 0.40731618114953605 0.48117316439933844
0.6799790282292684 0.5144081779414297 0.4954182638787419
0.8732415409058985 0.4100578270306227 0.41437216366244595
0.7733486203916303 0.5219372730606237 0.41076027243546165
0.7726326541238383 0.40731618114953605 0.48117316439933844
0.8799790282292683 0.5144081779414297 0.4954182638787419
0.0732415409058984 0.6100578270306227 0.41437216366244595
-0.026651379608369705 0.7219372730606236 0.41076027243546165
-0.02736734587616177 0.6073161811495361 0.48117316439933844
0.07997902822926832 0.7144081779414297 0.4954182638787419
0.2732415409058984 0.6100578270306227 0.41437216366244595
0.17334862039163032 0.7219372730606236 0.41076027243546165
0.17263265412383824 0.6073161811495361 0.48117316439933844
0.27997902822926835 0.7144081779414297 0.4954182638787419
0.4732415409058984 0.6100578270306227 0.41437216366244595
0.3733486203916303 0.7219372730606236 0.41076027243546165
0.3726326541238383 0.6073161811495361 0.48117316439933844
0.47997902822926836 0.7144081779414297 0.4954182638787419
0.6732415409058984 0.6100578270306227 0.41437216366244595
0.5733486203916303 0.7219372730606236 0.41076027243546165
0.5726326541238382 0.6073161811495361 0.48117316439933844
0.6799790282292684 0.7144081779414297 0.4954182638787419
0.8732415409058985 0.6100578270306227 0.41437216366244595
0.7733486203916303 0.7219372730606236 0.41076027243546165
0.7726326541238383 0.6073161811495361 0.48117316439933844
0.8799790282292683 0.7144081779414297 0.4954182638787419
0.0732415409058984 0.8100578270306227 0.41437216366244595
-0.026651379608369705 0.9219372730606237 0.41076027243546165
-0.02736734587616177 0.8073161811495361 0.48117316439933844
0.07997902822926832 0.9144081779414297 0.4954182638787419
0.2732415409058984 0.8100578270306227 0.41437216366244595
0.17334862039163032 0.9219372730606237 0.41076027243546165
0.17263265412383824 0.8073161811495361 0.48117316439933844
0.27997902822926835 0.9144081779414297 0.4954182638787419
0.4732415409058984 0.8100578270306227 0.41437216366244595
0.3733486203916303 0.9219372730606237 0.41076027243546165
0.3726326541238383 0.8073161811495361 0.48117316439933844
0.47997902822926836 0.9144081779414297 0.4954182638787419
0.6732415409058984 0.8100578270306227 0.41437216366244595
0.5733486203916303 0.9219372730606237 0.41076027243546165
0.5726326541238382 0.8073161811495361 0.48117316439933844
0.6799790282292684 0.9144081779414297 0.4954182638787419
0.8732415409058985 0.8100578270306227 0.41437216366244595
0.7733486203916303 0.9219372730606237 0.41076027243546165
0.7726326541238383 0.8073161811495361 0.48117316439933844
0.8799790282292683 0.9144081779414297 0.4954182638787419
0.0732415409058984 0.010057827030622664 0.614372163662446
-0.026651379608369705 0.12193727306062362 0.6107602724354617
-0.02736734587616177 0.007316181149536089 0.6811731643993384
0.07997902822926832 0.11440817794142964 0.695418263878742
0.2732415409058984 0.010057827030622664 0.614372163662446
0.17334862039163032 0.12193727306062362 0.6107602724354617
0.17263265412383824 0.007316181149536089 0.6811731643993384
0.27997902822926835 0.11440817794142964 0.695418263878742
0.4732415409058984 0.010057827030622664 0.614372163662446
0.3733486203916303 0.12193727306062362 0.6107602724354617
0.3726326541238383 0.007316181149536089 0.6811731643993384
0.47997902822926836 0.11440817794142964 0.695418263878742
0.6732415409058984 0.010057827030622664 0.614372163662446
0.5733486203916303 0.12193727306062362 0.6107602724354617
0.5726326541238382 0.007316181149536089 0.6811731643993384
0.6799790282292684 0.11440817794142964 0.695418263878742
0.8732415409058985 0.010057827030622664 0.614372163662446
0.7733486203916303 0.12193727306062362 0.6107602724354617
0.7726326541238383 0.007316181149536089 0.6811731643993384
0.8799790282292683 0.11440817794142964 0.695418263878742
0.0732415409058984 0.2100578270306227 0.614372163662446
-0.026651379608369705 0.3219372730606236 0.6107602724354617
-0.02736734587616177 0.2073161811495361 0.6811731643993384
0.07997902822926832 0.31440817794142967 0.695418263878742
0.2732415409058984 0.2100578270306227 0.614372163662446
0.17334862039163032 0.3219372730606236 0.6107602724354617
0.17263265412383824 0.2073161811495361 0.6811731643993384
0.27997902822926835 0.31440817794142967 0.695418263878742
0.4732415409058984 0.2100578270306227 0.614372163662446
0.3733486203916303 0.3219372730606236 0.6107602724354617
0.3726326541238383 0.2073161811495361 0.6811731643993384
0.47997902822926836 0.31440817794142967 0.695418263878742
0.6732415409058984 0.2100578270306227 0.614372163662446
0.5733486203916303 0.3219372730606236 0.6107602724354617
0.5726326541238382 0.2073161811495361 0.6811731643993384
0.6799790282292684 0.31440817794142967 0.695418263878742
0.8732415409058985 0.2100578270306227 0.614372163662446
0.7733486203916303 0.3219372730606236 0.6107602724354617
0.7726326541238383 0.2073161811495361 0.6811731643993384
0.8799790282292683 0.31440817794142967 0.695418263878742
0.0732415409058984 0.4100578270306227 0.614372163662446
-0.026651379608369705 0.5219372730606237 0.6107602724354617
-0.02736734587616177 0.40731618114953605 0.6811731643993384
0.07997902822926832 0.5144081779414297 0.695418263878742
0.2732415409058984 0.4100578270306227 0.614372163662446
0.17334862039163032 0.5219372730606237 0.6107602724354617
0.17263265412383824 0.40731618114953605 0.6811731643993384
0.27997902822926835 0.5144081779414297 0.695418263878742
0.4732415409058984 0.4100578270306227 0.614372163662446
0.3733486203916303 0.5219372730606237 0.6107602724354617
0.3726326541238383 0.40731618114953605 0.6811731643993384
0.47997902822926836 0.5144081779414297 0.695418263878742
0.6732415409058984 0.4100578270306227 0.614372163662446
0.5733486203916303 0.5219372730606237 0.6107602724354617
0.5726326541238382 0.40731618114953605 0.6811731643993384
0.6799790282292684 0.5144081779414297 0.695418263878742
0.8732415409058985 0.4100578270306227 0.614372163662446
0.7733486203916303 0.5219372730606237 0.6107602724354617
0.7726326541238383 0.40731618114953605 0.6811731643993384
0.8799790282292683 0.5144081779414297 0.695418263878742
0.0732415409058984 0.6100578270306227 0.614372163662446
-0.026651379608369705 0.7219372730606236 0.6107602724354617
-0.02736734587616177 0.6073161811495361 0.6811731643993384
0.07997902822926832 0.7144081779414297 0.695418263878742
0.2732415409058984 0.6100578270306227 0.614372163662446
0.17334862039163032 0.7219372730606236 0.6107602724354617
0.17263265412383824 0.6073161811495361 0.6811731643993384
0.27997902822926835 0.7144081779414297 0.695418263878742
0.4732415409058984 0.6100578270306227 0.614372163662446
0.3733486203916303 0.7219372730606236 0.6107602724354617
0.3726326541238383 0.6073161811495361 0.6811731643993384
0.47997902822926836 0.7144081779414297 0.695418263878742
0.6732415409058984 0.6100578270306227 0.614372163662446
0.5733486203916303 0.7219372730606236 0.6107602724354617
0.5726326541238382 0.6073161811495361 0.6811731643993384
0.6799790282292684 0.7144081779414297 0.695418263878742
0.8732415409058985 0.6100578270306227 0.614372163662446
0.7733486203916303 0.7219372730606236 0.6107602724354617
0.7726326541238383 0.6073161811495361 0.6811731643993384
0.8799790282292683 0.7144081779414297 0.695418263878742
0.0732415409058984 0.8100578270306227 0.614372163662446
-0.026651379608369705 0.9219372730606237 0.6107602724354617
-0.02736734587616177 0.8073161811495361 0.6811731643993384
0.07997902822926832 0.9144081779414297 0.695418263878742
0.2732415409058984 0.8100578270306227 0.614372163662446
0.17334862039163032 0.9219372730606237 0.6107602724354617
0.17263265412383824 0.8073161811495361 0.6811731643993384
0.27997902822926835 0.9144081779414297 0.695418263878742
0.4732415409058984 0.8100578270306227 0.614372163662446
0.3733486203916303 0.9219372730606237 0.6107602724354617
0.3726326541238383 0.8073161811495361 0.6811731643993384
0.47997902822926836 0.9144081779414297 0.695418263878742
0.6732415409058984 0.8100578270306227 0.614372163662446
0.5733486203916303 0.9219372730606237 0.6107602724354617
0.5726326541238382 0.8073161811495361 0.6811731643993384
0.6799790282292684 0.9144081779414297 0.695418263878742
0.8732415409058985 0.8100578270306227 0.614372163662446
0.7733486203916303 0.9219372730606237 0.6107602724354617
0.7726326541238383 0.8073161811495361 0.6811731643993384
0.8799790282292683 0.9144081779414297 0.695418263878742
0.0732415409058984 0.010057827030622664 0.8143721636624459
-0.026651379608369705 0.12193727306062362 0.8107602724354616
-0.02736734587616177 0.007316181149536089 0.8811731643993383
0.07997902822926832 0.11440817794142964 0.8954182638787419
0.2732415409058984 0.010057827030622664 0.8143721636624459
0.17334862039163032 0.12193727306062362 0.8107602724354616
0.17263265412383824 0.007316181149536089 0.8811731643993383
0.27997902822926835 0.11440817794142964 0.8954182638787419
0.4732415409058984 0.010057827030622664 0.8143721636624459
0.3733486203916303 0.12193727306062362 0.8107602724354616
0.3726326541238383 0.007316181149536089 0.8811731643993383
0.47997902822926836 0.11440817794142964 0.8954182638787419
0.6732415409058984 0.010057827030622664 0.8143721636624459
0.5733486203916303 0.12193727306062362 0.8107602724354616
0.5726326541238382 0.007316181149536089 0.8811731643993383
0.6799790282292684 0.11440817794142964 0.8954182638787419
0.8732415409058985 0.010057827030622664 0.8143721636624459
0.7733486203916303 0.12193727306062362 0.8107602724354616
0.7726326541238383 0.007316181149536089 0.8811731643993383
0.8799790282292683 0.11440817794142964 0.8954182638787419
0.0732415409058984 0.2100578270306227 0.8143721636624459
-0.026651379608369705 0.3219372730606236 0.8107602724354616
-0.02736734587616177 0.2073161811495361 0.8811731643993383
0.07997902822926832 0.31440817794142967 0.8954182638787419
0.2732415409058984 0.2100578270306227 0.8143721636624459
0.17334862039163032 0.3219372730606236 0.8107602724354616
0.17263265412383824 0.2073161811495361 0.8811731643993383
0.27997902822926835 0.31440817794142967 0.8954182638787419
0.4732415409058984 0.2100578270306227 0.8143721636624459
0.3733486203916303 0.3219372730606236 0.8107602724354616
0.3726326541238383 0.2073161811495361 0.8811731643993383
0.47997902822926836 0.31440817794142967 0.8954182638787419
0.6732415409058984 0.2100578270306227 0.8143721636624459
0.5733486203916303 0.3219372730606236 0.8107602724354616
0.5726326541238382 0.2073161811495361 0.8811731643993383
0.6799790282292684 0.31440817794142967 0.8954182638787419
0.8732415409058985 0.2100578270306227 0.8143721636624459
0.7733486203916303 0.3219372730606236 0.8107602724354616
0.7726326541238383 0.2073161811495361 0.8811731643993383
0.8799790282292683 0.31440817794142967 0.8954182638787419
0.0732415409058984 0.4100578270306227 0.8143721636624459
-0.026651379608369705 0.5219372730606237 0.8107602724354616
-0.02736734587616177 0.40731618114953605 0.8811731643993383
0.07997902822926832 0.5144081779414297 0.8954182638787419
0.2732415409058984 0.4100578270306227 0.8143721636624459
0.17334862039163032 0.5219372730606237 0.8107602724354616
0.17263265412383824 0.40731618114953605 0.8811731643993383
0.27997902822926835 0.5144081779414297 0.8954182638787419
0.4732415409058984 0.4100578270306227 0.8143721636624459
0.3733486203916303 0.5219372730606237 0.8107602724354616
0.3726326541238383 0.40731618114953605 0.8811731643993383
0.47997902822926836 0.5144081779414297 0.8954182638787419
0.6732415409058984 0.4100578270306227 0.8143721636624459
0.5733486203916303 0.5219372730606237 0.8107602724354616
0.5726326541238382 0.40731618114953605 0.8811731643993383
0.6799790282292684 0.5144081779414297 0.8954182638787419
0.8732415409058985 0.4100578270306227 0.8143721636624459
0.7733486203916303 0.5219372730606237 0.8107602724354616
0.7726326541238383 0.40731618114953605 0.8811731643993383
0.8799790282292683 0.5144081779414297 0.8954182638787419
0.0732415409058984 0.6100578270306227 0.8143721636624459
-0.026651379608369705 0.7219372730606236 0.8107602724354616
-0.02736734587616177 0.6073161811495361 0.8811731643993383
0.07997902822926832 0.7144081779414297 0.8954182638787419
0.2732415409058984 0.6100578270306227 0.8143721636624459
0.17334862039163032 0.7219372730606236 0.8107602724354616
0.17263265412383824 0.6073161811495361 0.8811731643993383
0.27997902822926835 0.7144081779414297 0.8954182638787419
0.4732415409058984 0.6100578270306227 0.8143721636624459
0.3733486203916303 0.7219372730606236 0.8107602724354616
0.3726326541238383 0.6073161811495361 0.8811731643993383
0.47997902822926836 0.7144081779414297 0.8954182638787419
0.6732415409058984 0.6100578270306227 0.8143721636624459
0.5733486203916303 0.7219372730606236 0.8107602724354616
0.5726326541238382 0.6073161811495361 0.8811731643993383
0.6799790282292684 0.7144081779414297 0.8954182638787419
0.8732415409058985 0.6100578270306227 0.8143721636624459
0.7733486203916303 0.7219372730606236 0.8107602724354616
0.7726326541238383 0.6073161811495361 0.8811731643993383
0.8799790282292683 0.7144081779414297 0.8954182638787419
0.0732415409058984 0.8100578270306227 0.8143721636624459
-0.026651379608369705 0.9219372730606237 0.8107602724354616
-0.02736734587616177 0.8073161811495361 0.8811731643993383
0.07997902822926832 0.9144081779414297 0.8954182638787419
0.2732415409058984 0.8100578270306227 0.8143721636624459
0.17334862039163032 0.9219372730606237 0.8107602724354616
0.17263265412383824 0.8073161811495361 0.8811731643993383
0.27997902822926835 0.9144081779414297 0.8954182638787419
0.4732415409058984 0.8100578270306227 0.8143721636624459
0.3733486203916303 0.9219372730606237 0.8107602724354616
0.3726326541238383 0.8073161811495361 0.8811731643993383
0.47997902822926836 0.9144081779414297 0.8954182638787419
0.6732415409058984 0.8100578270306227 0.8143721636624459
0.5733486203916303 0.9219372730606237 0.8107602724354616
0.5726326541238382 0.8073161811495361 0.8811731643993383
0.6799790282292684 0.9144081779414297 0.8954182638787419
0.8732415409058985 0.8100578270306227 0.8143721636624459
0.7733486203916303 0.9219372730606237 0.8107602724354616
0.7726326541238383 0.8073161811495361 0.8811731643993383
0.8799790282292683 0.9144081779414297 0.8954182638787419
