FCC BaO
5.61604
3.0 0.0 0.0
0.0 3.0 0.0
0.0 0.0 3.0
Ba O 
108 108 
Direct
-0.18074045168687736 0.013350747632950924 0.24437839286849983
-0.10684132021222478 0.12655061319835467 -0.15974706626295665
0.4664014380671029 0.33849282077145326 0.060352521811010945
0.14319773161274735 0.14180403136152178 -0.02746671972210884
0.15259288164645596 0.013350747632950924 0.24437839286849983
0.22649201312110856 0.12655061319835467 -0.15974706626295665
0.7997347714004361 0.33849282077145326 0.060352521811010945
0.47653106494608066 0.14180403136152178 -0.02746671972210884
0.4859262149797893 0.013350747632950924 0.24437839286849983
0.5598253464544418 0.12655061319835467 -0.15974706626295665
1.1330681047337694 0.33849282077145326 0.060352521811010945
0.809864398279414 0.14180403136152178 -0.02746671972210884
-0.18074045168687736 0.3466840809662842 0.24437839286849983
-0.10684132021222478 0.459883946531688 -0.15974706626295665
0.4664014380671029 0.6718261541047866 0.060352521811010945
0.14319773161274735 0.4751373646948551 -0.02746671972210884
0.15259288164645596 0.3466840809662842 0.24437839286849983
0.22649201312110856 0.459883946531688 -0.15974706626295665
0.7997347714004361 0.6718261541047866 0.060352521811010945
0.47653106494608066 0.4751373646948551 -0.02746671972210884
0.4859262149797893 0.3466840809662842 0.24437839286849983
0.5598253464544418 0.459883946531688 -0.15974706626295665
1.1330681047337694 0.6718261541047866 0.060352521811010945
0.809864398279414 0.4751373646948551 -0.02746671972210884
-0.18074045168687736 0.6800174142996176 0.24437839286849983
-0.10684132021222478 0.7932172798650213 -0.15974706626295665
0.4664014380671029 1.00515948743812 0.060352521811010945
0.14319773161274735 0.8084706980281885 -0.02746671972210884
0.15259288164645596 0.6800174142996176 0.24437839286849983
0.22649201312110856 0.7932172798650213 -0.15974706626295665
0.7997347714004361 1.00515948743812 0.060352521811010945
0.47653106494608066 0.8084706980281885 -0.02746671972210884
0.4859262149797893 0.6800174142996176 0.24437839286849983
0.5598253464544418 0.7932172798650213 -0.15974706626295665
1.1330681047337694 1.00515948743812 0.060352521811010945
0.809864398279414 0.8084706980281885 -0.02746671972210884
-0.18074045168687736 0.013350747632950924 0.5777117262018332
-0.10684132021222478 0.12655061319835467 0.17358626707037664
0.4664014380671029 0.33849282077145326 0.3936858551443443
0.14319773161274735 0.14180403136152178 0.30586661361122447
0.15259288164645596 0.013350747632950924 0.5777117262018332
0.22649201312110856 0.12655061319835467 0.17358626707037664
0.7997347714004361 0.33849282077145326 0.3936858551443443
0.47653106494608066 0.14180403136152178 0.30586661361122447
0.4859262149797893 0.013350747632950924 0.5777117262018332
0.5598253464544418 0.12655061319835467 0.17358626707037664
1.1330681047337694 0.33849282077145326 0.3936858551443443
0.809864398279414 0.14180403136152178 0.30586661361122447
-0.18074045168687736 0.3466840809662842 0.5777117262018332
-0.10684132021222478 0.459883946531688 0.17358626707037664
0.4664014380671029 0.6718261541047866 0.3936858551443443
0.14319773161274735 0.4751373646948551 0.30586661361122447
0.15259288164645596 0.3466840809662842 0.5777117262018332
0.22649201312110856 0.459883946531688 0.17358626707037664
0.7997347714004361 0.6718261541047866 0.3936858551443443
0.47653106494608066 0.4751373646948551 0.30586661361122447
0.4859262149797893 0.3466840809662842 0.5777117262018332
0.5598253464544418 0.459883946531688 0.17358626707037664
1.1330681047337694 0.6718261541047866 0.3936858551443443
0.809864398279414 0.4751373646948551 0.30586661361122447
-0.18074045168687736 0.6800174142996176 0.5777117262018332
-0.10684132021222478 0.7932172798650213 0.17358626707037664
0.4664014380671029 1.00515948743812 0.3936858551443443
0.14319773161274735 0.8084706980281885 0.30586661361122447
0.15259288164645596 0.6800174142996176 0.5777117262018332
0.22649201312110856 0.7932172798650213 0.17358626707037664
0.7997347714004361 1.00515948743812 0.3936858551443443
0.47653106494608066 0.8084706980281885 0.30586661361122447
0.4859262149797893 0.6800174142996176 0.5777117262018332
0.5598253464544418 0.7932172798650213 0.17358626707037664
1.1330681047337694 1.00515948743812 0.3936858551443443
0.809864398279414 0.8084706980281885 0.30586661361122447
-0.18074045168687736 0.013350747632950924 0.9110450595351665
-0.10684132021222478 0.12655061319835467 0.50691960040371
0.4664014380671029 0.33849282077145326 0.7270191884776775
0.14319773161274735 0.14180403136152178 0.6391999469445577
0.15259288164645596 0.013350747632950924 0.9110450595351665
0.22649201312110856 0.12655061319835467 0.50691960040371
0.7997347714004361 0.33849282077145326 0.7270191884776775
0.47653106494608066 0.14180403136152178 0.6391999469445577
0.4859262149797893 0.013350747632950924 0.9110450595351665
0.5598253464544418 0.12655061319835467 0.50691960040371
1.1330681047337694 0.33849282077145326 0.7270191884776775
0.809864398279414 0.14180403136152178 0.6391999469445577
-0.18074045168687736 0.3466840809662842 0.9110450595351665
-0.10684132021222478 0.459883946531688 0.50691960040371
0.4664014380671029 0.6718261541047866 0.7270191884776775
0.14319773161274735 0.4751373646948551 0.6391999469445577
0.15259288164645596 0.3466840809662842 0.9110450595351665
0.22649201312110856 0.459883946531688 0.50691960040371
0.7997347714004361 0.6718261541047866 0.7270191884776775
0.47653106494608066 0.4751373646948551 0.6391999469445577
0.4859262149797893 0.3466840809662842 0.9110450595351665
0.5598253464544418 0.459883946531688 0.50691960040371
1.1330681047337694 0.6718261541047866 0.7270191884776775
0.809864398279414 0.4751373646948551 0.6391999469445577
-0.18074045168687736 0.6800174142996176 0.9110450595351665
-0.10684132021222478 0.7932172798650213 0.50691960040371
0.4664014380671029 1.00515948743812 0.7270191884776775
0.14319773161274735 0.8084706980281885 0.6391999469445577
0.15259288164645596 0.6800174142996176 0.9110450595351665
0.22649201312110856 0.7932172798650213 0.50691960040371
0.7997347714004361 1.00515948743812 0.7270191884776775
0.47653106494608066 0.8084706980281885 0.6391999469445577
0.4859262149797893 0.6800174142996176 0.9110450595351665
0.5598253464544418 0.7932172798650213 0.50691960040371
1.1330681047337694 1.00515948743812 0.7270191884776775
0.809864398279414 0.8084706980281885 0.6391999469445577
0.3290987746700731 0.4216620102870531 0.037955761238057786
-0.32169993233904814 0.15973955821001457 0.44428719808975076
-0.046856600517141175 -0.1932588178260152 0.2950111845259334
0.06394629990572259 0.1931835985853864 -0.026343477129571472
0.6624321080034064 0.4216620102870531 0.037955761238057786
0.011633400994285188 0.15973955821001457 0.44428719808975076
0.2864767328161921 -0.1932588178260152 0.2950111845259334
0.3972796332390559 0.1931835985853864 -0.026343477129571472
0.9957654413367397 0.4216620102870531 0.037955761238057786
0.3449667343276185 0.15973955821001457 0.44428719808975076
0.6198100661495254 -0.1932588178260152 0.2950111845259334
0.7306129665723892 0.1931835985853864 -0.026343477129571472
0.3290987746700731 0.7549953436203864 0.037955761238057786
-0.32169993233904814 0.4930728915433479 0.44428719808975076
-0.046856600517141175 0.14007451550731811 0.2950111845259334
0.06394629990572259 0.5265169319187197 -0.026343477129571472
0.6624321080034064 0.7549953436203864 0.037955761238057786
0.011633400994285188 0.4930728915433479 0.44428719808975076
0.2864767328161921 0.14007451550731811 0.2950111845259334
0.3972796332390559 0.5265169319187197 -0.026343477129571472
0.9957654413367397 0.7549953436203864 0.037955761238057786
0.3449667343276185 0.4930728915433479 0.44428719808975076
0.6198100661495254 0.14007451550731811 0.2950111845259334
0.7306129665723892 0.5265169319187197 -0.026343477129571472
0.3290987746700731 1.0883286769537197 0.037955761238057786
-0.32169993233904814 0.8264062248766813 0.44428719808975076
-0.046856600517141175 0.47340784884065146 0.2950111845259334
0.06394629990572259 0.859850265252053 -0.026343477129571472
0.6624321080034064 1.0883286769537197 0.037955761238057786
0.011633400994285188 0.8264062248766813 0.44428719808975076
0.2864767328161921 0.47340784884065146 0.2950111845259334
0.3972796332390559 0.859850265252053 -0.026343477129571472
0.9957654413367397 1.0883286769537197 0.037955761238057786
0.3449667343276185 0.8264062248766813 0.44428719808975076
0.6198100661495254 0.47340784884065146 0.2950111845259334
0.7306129665723892 0.859850265252053 -0.026343477129571472
0.3290987746700731 0.4216620102870531 0.37128909457139114
-0.32169993233904814 0.15973955821001457 0.7776205314230841
-0.046856600517141175 -0.1932588178260152 0.6283445178592667
0.06394629990572259 0.1931835985853864 0.30698985620376185
0.6624321080034064 0.4216620102870531 0.37128909457139114
0.011633400994285188 0.15973955821001457 0.7776205314230841
0.2864767328161921 -0.1932588178260152 0.6283445178592667
0.3972796332390559 0.1931835985853864 0.30698985620376185
0.9957654413367397 0.4216620102870531 0.37128909457139114
0.3449667343276185 0.15973955821001457 0.7776205314230841
0.6198100661495254 -0.1932588178260152 0.6283445178592667
0.7306129665723892 0.1931835985853864 0.30698985620376185
0.3290987746700731 0.7549953436203864 0.37128909457139114
-0.32169993233904814 0.4930728915433479 0.7776205314230841
-0.046856600517141175 0.14007451550731811 0.6283445178592667
0.06394629990572259 0.5265169319187197 0.30698985620376185
0.6624321080034064 0.7549953436203864 0.37128909457139114
0.011633400994285188 0.4930728915433479 0.7776205314230841
0.2864767328161921 0.14007451550731811 0.6283445178592667
0.3972796332390559 0.5265169319187197 0.30698985620376185
0.9957654413367397 0.7549953436203864 0.37128909457139114
0.3449667343276185 0.4930728915433479 0.7776205314230841
0.6198100661495254 0.14007451550731811 0.6283445178592667
0.7306129665723892 0.5265169319187197 0.30698985620376185
0.3290987746700731 1.0883286769537197 0.37128909457139114
-0.32169993233904814 0.8264062248766813 0.7776205314230841
-0.046856600517141175 0.47340784884065146 0.6283445178592667
0.06394629990572259 0.859850265252053 0.30698985620376185
0.6624321080034064 1.0883286769537197 0.37128909457139114
0.011633400994285188 0.8264062248766813 0.7776205314230841
0.2864767328161921 0.47340784884065146 0.6283445178592667
0.3972796332390559 0.859850265252053 0.30698985620376185
0.9957654413367397 1.0883286769537197 0.37128909457139114
0.3449667343276185 0.8264062248766813 0.7776205314230841
0.6198100661495254 0.47340784884065146 0.6283445178592667
0.7306129665723892 0.859850265252053 0.30698985620376185
0.3290987746700731 0.4216620102870531 0.7046224279047244
-0.32169993233904814 0.15973955821001457 1.1109538647564174
-0.046856600517141175 -0.1932588178260152 0.9616778511926001
0.06394629990572259 0.1931835985853864 0.6403231895370951
0.6624321080034064 0.4216620102870531 0.7046224279047244
0.011633400994285188 0.15973955821001457 1.1109538647564174
0.2864767328161921 -0.1932588178260152 0.9616778511926001
0.3972796332390559 0.1931835985853864 0.6403231895370951
0.9957654413367397 0.4216620102870531 0.7046224279047244
0.3449667343276185 0.15973955821001457 1.1109538647564174
0.6198100661495254 -0.1932588178260152 0.9616778511926001
0.7306129665723892 0.1931835985853864 0.6403231895370951
0.3290987746700731 0.7549953436203864 0.7046224279047244
-0.32169993233904814 0.4930728915433479 1.1109538647564174
-0.046856600517141175 0.14007451550731811 0.9616778511926001
0.06394629990572259 0.5265169319187197 0.6403231895370951
0.6624321080034064 0.7549953436203864 0.7046224279047244
0.011633400994285188 0.4930728915433479 1.1109538647564174
0.2864767328161921 0.14007451550731811 0.9616778511926001
0.3972796332390559 0.5265169319187197 0.6403231895370951
0.9957654413367397 0.7549953436203864 0.7046224279047244
0.3449667343276185 0.4930728915433479 1.1109538647564174
0.6198100661495254 0.14007451550731811 0.9616778511926001
0.7306129665723892 0.5265169319187197 0.6403231895370951
0.3290987746700731 1.0883286769537197 0.7046224279047244
-0.32169993233904814 0.8264062248766813 1.1109538647564174
-0.046856600517141175 0.47340784884065146 0.9616778511926001
0.06394629990572259 0.859850265252053 0.6403231895370951
0.6624321080034064 1.0883286769537197 0.7046224279047244
0.011633400994285188 0.8264062248766813 1.1109538647564174
0.2864767328161921 0.47340784884065146 0.9616778511926001
0.3972796332390559 0.859850265252053 0.6403231895370951
0.9957654413367397 1.0883286769537197 0.7046224279047244
0.3449667343276185 0.8264062248766813 1.1109538647564174
0.6198100661495254 0.47340784884065146 0.9616778511926001
0.7306129665723892 0.859850265252053 0.6403231895370951
