FCC BaO
5.61604
3.0 0.0 0.0
0.0 3.0 0.0
0.0 0.0 3.0
Ba O 
108 108 
Direct
0.6448187582427651 0.45348793120546604 0.3724666914453501
0.33149590878471824 -0.9472180162877658 -0.6739159493601471
0.7582980654260659 -0.18272702690977408 -0.04638906943020158
-0.08953077876882856 -0.04119212548908828 -0.6908401696382145
0.9781520915760985 0.45348793120546604 0.3724666914453501
0.6648292421180516 -0.9472180162877658 -0.6739159493601471
1.0916313987593993 -0.18272702690977408 -0.04638906943020158
0.24380255456450475 -0.04119212548908828 -0.6908401696382145
1.3114854249094319 0.45348793120546604 0.3724666914453501
0.998162575451385 -0.9472180162877658 -0.6739159493601471
1.4249647320927326 -0.18272702690977408 -0.04638906943020158
0.5771358878978381 -0.04119212548908828 -0.6908401696382145
0.6448187582427651 0.7868212645387993 0.3724666914453501
0.33149590878471824 -0.6138846829544324 -0.6739159493601471
0.7582980654260659 0.15060630642355924 -0.04638906943020158
-0.08953077876882856 0.292141207844245 -0.6908401696382145
0.9781520915760985 0.7868212645387993 0.3724666914453501
0.6648292421180516 -0.6138846829544324 -0.6739159493601471
1.0916313987593993 0.15060630642355924 -0.04638906943020158
0.24380255456450475 0.292141207844245 -0.6908401696382145
1.3114854249094319 0.7868212645387993 0.3724666914453501
0.998162575451385 -0.6138846829544324 -0.6739159493601471
1.4249647320927326 0.15060630642355924 -0.04638906943020158
0.5771358878978381 0.292141207844245 -0.6908401696382145
0.6448187582427651 1.1201545978721326 0.3724666914453501
0.33149590878471824 -0.2805513496210992 -0.6739159493601471
0.7582980654260659 0.4839396397568925 -0.04638906943020158
-0.08953077876882856 0.6254745411775784 -0.6908401696382145
0.9781520915760985 1.1201545978721326 0.3724666914453501
0.6648292421180516 -0.2805513496210992 -0.6739159493601471
1.0916313987593993 0.4839396397568925 -0.04638906943020158
0.24380255456450475 0.6254745411775784 -0.6908401696382145
1.3114854249094319 1.1201545978721326 0.3724666914453501
0.998162575451385 -0.2805513496210992 -0.6739159493601471
1.4249647320927326 0.4839396397568925 -0.04638906943020158
0.5771358878978381 0.6254745411775784 -0.6908401696382145
0.6448187582427651 0.45348793120546604 0.7058000247786833
0.33149590878471824 -0.9472180162877658 -0.3405826160268138
0.7582980654260659 -0.18272702690977408 0.2869442639031317
-0.08953077876882856 -0.04119212548908828 -0.3575068363048812
0.9781520915760985 0.45348793120546604 0.7058000247786833
0.6648292421180516 -0.9472180162877658 -0.3405826160268138
1.0916313987593993 -0.18272702690977408 0.2869442639031317
0.24380255456450475 -0.04119212548908828 -0.3575068363048812
1.3114854249094319 0.45348793120546604 0.7058000247786833
0.998162575451385 -0.9472180162877658 -0.3405826160268138
1.4249647320927326 -0.18272702690977408 0.2869442639031317
0.5771358878978381 -0.04119212548908828 -0.3575068363048812
0.6448187582427651 0.7868212645387993 0.7058000247786833
0.33149590878471824 -0.6138846829544324 -0.3405826160268138
0.7582980654260659 0.15060630642355924 0.2869442639031317
-0.08953077876882856 0.292141207844245 -0.3575068363048812
0.9781520915760985 0.7868212645387993 0.7058000247786833
0.6648292421180516 -0.6138846829544324 -0.3405826160268138
1.0916313987593993 0.15060630642355924 0.2869442639031317
0.24380255456450475 0.292141207844245 -0.3575068363048812
1.3114854249094319 0.7868212645387993 0.7058000247786833
0.998162575451385 -0.6138846829544324 -0.3405826160268138
1.4249647320927326 0.15060630642355924 0.2869442639031317
0.5771358878978381 0.292141207844245 -0.3575068363048812
0.6448187582427651 1.1201545978721326 0.7058000247786833
0.33149590878471824 -0.2805513496210992 -0.3405826160268138
0.7582980654260659 0.4839396397568925 0.2869442639031317
-0.08953077876882856 0.6254745411775784 -0.3575068363048812
0.9781520915760985 1.1201545978721326 0.7058000247786833
0.6648292421180516 -0.2805513496210992 -0.3405826160268138
1.0916313987593993 0.4839396397568925 0.2869442639031317
0.24380255456450475 0.6254745411775784 -0.3575068363048812
1.3114854249094319 1.1201545978721326 0.7058000247786833
0.998162575451385 -0.2805513496210992 -0.3405826160268138
1.4249647320927326 0.4839396397568925 0.2869442639031317
0.5771358878978381 0.6254745411775784 -0.3575068363048812
0.6448187582427651 0.45348793120546604 1.0391333581120166
0.33149590878471824 -0.9472180162877658 -0.007249282693480463
0.7582980654260659 -0.18272702690977408 0.620277597236465
-0.08953077876882856 -0.04119212548908828 -0.02417350297154789
0.9781520915760985 0.45348793120546604 1.0391333581120166
0.6648292421180516 -0.9472180162877658 -0.007249282693480463
1.0916313987593993 -0.18272702690977408 0.620277597236465
0.24380255456450475 -0.04119212548908828 -0.02417350297154789
1.3114854249094319 0.45348793120546604 1.0391333581120166
0.998162575451385 -0.9472180162877658 -0.007249282693480463
1.4249647320927326 -0.18272702690977408 0.620277597236465
0.5771358878978381 -0.04119212548908828 -0.02417350297154789
0.6448187582427651 0.7868212645387993 1.0391333581120166
0.33149590878471824 -0.6138846829544324 -0.007249282693480463
0.7582980654260659 0.15060630642355924 0.620277597236465
-0.08953077876882856 0.292141207844245 -0.02417350297154789
0.9781520915760985 0.7868212645387993 1.0391333581120166
0.6648292421180516 -0.6138846829544324 -0.007249282693480463
1.0916313987593993 0.15060630642355924 0.620277597236465
0.24380255456450475 0.292141207844245 -0.02417350297154789
1.3114854249094319 0.7868212645387993 1.0391333581120166
0.998162575451385 -0.6138846829544324 -0.007249282693480463
1.4249647320927326 0.15060630642355924 0.620277597236465
0.5771358878978381 0.292141207844245 -0.02417350297154789
0.6448187582427651 1.1201545978721326 1.0391333581120166
0.33149590878471824 -0.2805513496210992 -0.007249282693480463
0.7582980654260659 0.4839396397568925 0.620277597236465
-0.08953077876882856 0.6254745411775784 -0.02417350297154789
0.9781520915760985 1.1201545978721326 1.0391333581120166
0.6648292421180516 -0.2805513496210992 -0.007249282693480463
1.0916313987593993 0.4839396397568925 0.620277597236465
0.24380255456450475 0.6254745411775784 -0.02417350297154789
1.3114854249094319 1.1201545978721326 1.0391333581120166
0.998162575451385 -0.2805513496210992 -0.007249282693480463
1.4249647320927326 0.4839396397568925 0.620277597236465
0.5771358878978381 0.6254745411775784 -0.02417350297154789
-0.2012425816648659 -0.3230652261153708 -0.10945601432475516
-0.1945506805872216 0.06082323897577159 -0.013405815627837065
0.25772361949237416 -0.1006989513309778 -0.07168282411212658
0.4284510570081788 1.0445199508321121 0.35352413607059635
0.13209075166846743 -0.3230652261153708 -0.10945601432475516
0.1387826527461117 0.06082323897577159 -0.013405815627837065
0.5910569528257075 -0.1006989513309778 -0.07168282411212658
0.7617843903415121 1.0445199508321121 0.35352413607059635
0.46542408500180077 -0.3230652261153708 -0.10945601432475516
0.47211598607944505 0.06082323897577159 -0.013405815627837065
0.9243902861590408 -0.1006989513309778 -0.07168282411212658
1.0951177236748455 1.0445199508321121 0.35352413607059635
-0.2012425816648659 0.010268107217962525 -0.10945601432475516
-0.1945506805872216 0.39415657230910495 -0.013405815627837065
0.25772361949237416 0.23263438200235553 -0.07168282411212658
0.4284510570081788 1.3778532841654454 0.35352413607059635
0.13209075166846743 0.010268107217962525 -0.10945601432475516
0.1387826527461117 0.39415657230910495 -0.013405815627837065
0.5910569528257075 0.23263438200235553 -0.07168282411212658
0.7617843903415121 1.3778532841654454 0.35352413607059635
0.46542408500180077 0.010268107217962525 -0.10945601432475516
0.47211598607944505 0.39415657230910495 -0.013405815627837065
0.9243902861590408 0.23263438200235553 -0.07168282411212658
1.0951177236748455 1.3778532841654454 0.35352413607059635
-0.2012425816648659 0.3436014405512958 -0.10945601432475516
-0.1945506805872216 0.7274899056424382 -0.013405815627837065
0.25772361949237416 0.5659677153356888 -0.07168282411212658
0.4284510570081788 1.7111866174987789 0.35352413607059635
0.13209075166846743 0.3436014405512958 -0.10945601432475516
0.1387826527461117 0.7274899056424382 -0.013405815627837065
0.5910569528257075 0.5659677153356888 -0.07168282411212658
0.7617843903415121 1.7111866174987789 0.35352413607059635
0.46542408500180077 0.3436014405512958 -0.10945601432475516
0.47211598607944505 0.7274899056424382 -0.013405815627837065
0.9243902861590408 0.5659677153356888 -0.07168282411212658
1.0951177236748455 1.7111866174987789 0.35352413607059635
-0.2012425816648659 -0.3230652261153708 0.22387731900857816
-0.1945506805872216 0.06082323897577159 0.3199275177054962
0.25772361949237416 -0.1006989513309778 0.26165050922120675
0.4284510570081788 1.0445199508321121 0.6868574694039298
0.13209075166846743 -0.3230652261153708 0.22387731900857816
0.1387826527461117 0.06082323897577159 0.3199275177054962
0.5910569528257075 -0.1006989513309778 0.26165050922120675
0.7617843903415121 1.0445199508321121 0.6868574694039298
0.46542408500180077 -0.3230652261153708 0.22387731900857816
0.47211598607944505 0.06082323897577159 0.3199275177054962
0.9243902861590408 -0.1006989513309778 0.26165050922120675
1.0951177236748455 1.0445199508321121 0.6868574694039298
-0.2012425816648659 0.010268107217962525 0.22387731900857816
-0.1945506805872216 0.39415657230910495 0.3199275177054962
0.25772361949237416 0.23263438200235553 0.26165050922120675
0.4284510570081788 1.3778532841654454 0.6868574694039298
0.13209075166846743 0.010268107217962525 0.22387731900857816
0.1387826527461117 0.39415657230910495 0.3199275177054962
0.5910569528257075 0.23263438200235553 0.26165050922120675
0.7617843903415121 1.3778532841654454 0.6868574694039298
0.46542408500180077 0.010268107217962525 0.22387731900857816
0.47211598607944505 0.39415657230910495 0.3199275177054962
0.9243902861590408 0.23263438200235553 0.26165050922120675
1.0951177236748455 1.3778532841654454 0.6868574694039298
-0.2012425816648659 0.3436014405512958 0.22387731900857816
-0.1945506805872216 0.7274899056424382 0.3199275177054962
0.25772361949237416 0.5659677153356888 0.26165050922120675
0.4284510570081788 1.7111866174987789 0.6868574694039298
0.13209075166846743 0.3436014405512958 0.22387731900857816
0.1387826527461117 0.7274899056424382 0.3199275177054962
0.5910569528257075 0.5659677153356888 0.26165050922120675
0.7617843903415121 1.7111866174987789 0.6868574694039298
0.46542408500180077 0.3436014405512958 0.22387731900857816
0.47211598607944505 0.7274899056424382 0.3199275177054962
0.9243902861590408 0.5659677153356888 0.26165050922120675
1.0951177236748455 1.7111866174987789 0.6868574694039298
-0.2012425816648659 -0.3230652261153708 0.5572106523419115
-0.1945506805872216 0.06082323897577159 0.6532608510388296
0.25772361949237416 -0.1006989513309778 0.5949838425545401
0.4284510570081788 1.0445199508321121 1.020190802737263
0.13209075166846743 -0.3230652261153708 0.5572106523419115
0.1387826527461117 0.06082323897577159 0.6532608510388296
0.5910569528257075 -0.1006989513309778 0.5949838425545401
0.7617843903415121 1.0445199508321121 1.020190802737263
0.46542408500180077 -0.3230652261153708 0.5572106523419115
0.47211598607944505 0.06082323897577159 0.6532608510388296
0.9243902861590408 -0.1006989513309778 0.5949838425545401
1.0951177236748455 1.0445199508321121 1.020190802737263
-0.2012425816648659 0.010268107217962525 0.5572106523419115
-0.1945506805872216 0.39415657230910495 0.6532608510388296
0.25772361949237416 0.23263438200235553 0.5949838425545401
0.4284510570081788 1.3778532841654454 1.020190802737263
0.13209075166846743 0.010268107217962525 0.5572106523419115
0.1387826527461117 0.39415657230910495 0.6532608510388296
0.5910569528257075 0.23263438200235553 0.5949838425545401
0.7617843903415121 1.3778532841654454 1.020190802737263
0.46542408500180077 0.010268107217962525 0.5572106523419115
0.47211598607944505 0.39415657230910495 0.6532608510388296
0.9243902861590408 0.23263438200235553 0.5949838425545401
1.0951177236748455 1.3778532841654454 1.020190802737263
-0.2012425816648659 0.3436014405512958 0.5572106523419115
-0.1945506805872216 0.7274899056424382 0.6532608510388296
0.25772361949237416 0.5659677153356888 0.5949838425545401
0.4284510570081788 1.7111866174987789 1.020190802737263
0.13209075166846743 0.3436014405512958 0.5572106523419115
0.1387826527461117 0.7274899056424382 0.6532608510388296
0.5910569528257075 0.5659677153356888 0.5949838425545401
0.7617843903415121 1.7111866174987789 1.020190802737263
0.46542408500180077 0.3436014405512958 0.5572106523419115
0.47211598607944505 0.7274899056424382 0.6532608510388296
0.9243902861590408 0.5659677153356888 0.5949838425545401
1.0951177236748455 1.7111866174987789 1.020190802737263
